
     Program PWSCF v.7.5 starts on 29Jun2026 at 21:42:59 

     This program is part of the open-source Quantum ESPRESSO suite
     for quantum simulation of materials; please cite
         "P. Giannozzi et al., J. Phys.:Condens. Matter 21 395502 (2009);
         "P. Giannozzi et al., J. Phys.:Condens. Matter 29 465901 (2017);
         "P. Giannozzi et al., J. Chem. Phys. 152 154105 (2020);
          URL http://www.quantum-espresso.org", 
     in publications or presentations arising from this work. More details at
     http://www.quantum-espresso.org/quote

     Serial multi-threaded version, running on    1 processor cores
     36815 MiB available memory on the printing compute node when the environment starts
 
     Reading input from inputs/ads_acetone_s0.in

     Current dimensions of program PWSCF are:
     Max number of different atomic species (ntypx) = 10
     Max number of k-points (npk) =  40000
     Max angular momentum in pseudopotentials (lmaxx) =  4

     File ./outdir/ads_acetone_s0.update deleted, as requested

     File ./outdir/ads_acetone_s0.bfgs deleted, as requested
     file O.pbe-n-kjpaw_psl.0.1.UPF: wavefunction(s)  2P renormalized
     file C.pbe-n-kjpaw_psl.1.0.0.UPF: wavefunction(s)  2S 2P renormalized
 
 
     G-vector sticks info
     --------------------
     sticks:   dense  smooth     PW     G-vecs:    dense   smooth      PW
     Sum       21023    8415   2217              4575445  1157533  156823
 
     Using Slab Decomposition
 


     bravais-lattice index     =            0
     lattice parameter (alat)  =      21.9217  a.u.
     unit-cell volume          =   18435.9591 (a.u.)^3
     number of atoms/cell      =           52
     number of atomic types    =            4
     number of electrons       =       360.00
     number of Kohn-Sham states=          216
     kinetic-energy cutoff     =      60.0000  Ry
     charge density cutoff     =     600.0000  Ry
     scf convergence threshold =      1.0E-09
     mixing beta               =       0.2000
     number of iterations used =            8  local-TF  mixing
     energy convergence thresh.=      1.0E-05
     force convergence thresh. =      1.0E-03
     Exchange-correlation= PBE
                           (   1   4   3   4   0   0   0)
     nstep                     =          200


     GPU acceleration is ACTIVE.  1 visible GPUs per MPI rank


     Effective Screening Medium Method
     =================================
     Boundary Conditions: Vacuum-Slab-Vacuum
     total charge in unit cell        =   0.0000
     grid points for fit at edges     =        4 
 

     celldm(1)=  21.921702  celldm(2)=   0.000000  celldm(3)=   0.000000
     celldm(4)=   0.000000  celldm(5)=   0.000000  celldm(6)=   0.000000

     crystal axes: (cart. coord. in units of alat)
               a(1) = (   1.000000   0.000000   0.000000 )  
               a(2) = (   0.000000   0.916399   0.000000 )  
               a(3) = (   0.000000   0.000000   1.909670 )  

     reciprocal axes: (cart. coord. in units 2 pi/alat)
               b(1) = (  1.000000  0.000000  0.000000 )  
               b(2) = (  0.000000  1.091228  0.000000 )  
               b(3) = (  0.000000  0.000000  0.523651 )  


     PseudoPot. # 1 for V  read from file:
     /home/x/Workspace/3-hEspesso/pseudo/v_pbe_v1.4.uspp.F.UPF
     MD5 check sum: 22b79981416ebb76fdaf5b1b8640f6fb
     Pseudo is Ultrasoft + core correction, Zval = 13.0
     Generated by new atomic code, or converted to UPF format
     Using radial grid of  853 points,  6 beta functions with: 
                l(1) =   0
                l(2) =   0
                l(3) =   1
                l(4) =   1
                l(5) =   2
                l(6) =   2
     Q(r) pseudized with  8 coefficients,  rinner =    1.100   1.100   1.100
                                                       1.100   1.100

     PseudoPot. # 2 for O  read from file:
     /home/x/Workspace/3-hEspesso/pseudo/O.pbe-n-kjpaw_psl.0.1.UPF
     MD5 check sum: 0234752ac141de4415c5fc33072bef88
     Pseudo is Projector augmented-wave + core cor, Zval =  6.0
     Generated using "atomic" code by A. Dal Corso  v.5.0.99 svn rev. 10869
     Shape of augmentation charge: BESSEL
     Using radial grid of 1095 points,  4 beta functions with: 
                l(1) =   0
                l(2) =   0
                l(3) =   1
                l(4) =   1
     Q(r) pseudized with 0 coefficients 


     PseudoPot. # 3 for C  read from file:
     /home/x/Workspace/3-hEspesso/pseudo/C.pbe-n-kjpaw_psl.1.0.0.UPF
     MD5 check sum: 5d2aebdfa2cae82b50a7e79e9516da0f
     Pseudo is Projector augmented-wave + core cor, Zval =  4.0
     Generated using "atomic" code by A. Dal Corso  v.5.1
     Shape of augmentation charge: PSQ
     Using radial grid of 1073 points,  4 beta functions with: 
                l(1) =   0
                l(2) =   0
                l(3) =   1
                l(4) =   1
     Q(r) pseudized with 0 coefficients 


     PseudoPot. # 4 for H  read from file:
     /home/x/Workspace/3-hEspesso/pseudo/H.pbe-rrkjus_psl.1.0.0.UPF
     MD5 check sum: f52b6d4d1c606e5624b1dc7b2218f220
     Pseudo is Ultrasoft, Zval =  1.0
     Generated using "atomic" code by A. Dal Corso  v.5.1
     Using radial grid of  929 points,  2 beta functions with: 
                l(1) =   0
                l(2) =   0
     Q(r) pseudized with 0 coefficients 


     atomic species   valence    mass     pseudopotential
     V                13.00    50.94150     V ( 1.00)
     O                 6.00    15.99900     O ( 1.00)
     C                 4.00    12.01100     C ( 1.00)
     H                 1.00     1.00800     H ( 1.00)

     No symmetry found



   Cartesian axes

     site n.     atom                  positions (alat units)
         1        V      tau(   1) = (   0.6485898   0.0000000   0.0467939  )
         2        V      tau(   2) = (   0.8521468   0.1527332  -0.0459152  )
         3        V      tau(   3) = (   0.1478532   0.1527332  -0.0459152  )
         4        V      tau(   4) = (   0.3514102   0.0000000   0.0467939  )
         5        O      tau(   5) = (   0.6810872   0.1527332   0.0018189  )
         6        O      tau(   6) = (   0.8188337   0.0000000  -0.0049051  )
         7        O      tau(   7) = (   0.1811663   0.0000000  -0.0049051  )
         8        O      tau(   8) = (   0.3189128   0.1527332   0.0018189  )
         9        O      tau(   9) = (   0.3511469   0.0000000   0.1825177  )
        10        O      tau(  10) = (   0.1449481   0.1527332  -0.1825269  )
        11        O      tau(  11) = (   0.8550519   0.1527332  -0.1825269  )
        12        O      tau(  12) = (   0.0000000   0.1527332  -0.0050641  )
        13        O      tau(  13) = (   0.5000000   0.0000000   0.0037456  )
        14        O      tau(  14) = (   0.6488531   0.0000000   0.1825177  )
        15        V      tau(  15) = (   0.6485912   0.3054649   0.0467970  )
        16        V      tau(  16) = (   0.8521468   0.4581995  -0.0459152  )
        17        V      tau(  17) = (   0.1478532   0.4581995  -0.0459152  )
        18        V      tau(  18) = (   0.3514088   0.3054649   0.0467970  )
        19        O      tau(  19) = (   0.6810910   0.4581995   0.0018322  )
        20        O      tau(  20) = (   0.8188337   0.3054664  -0.0049051  )
        21        O      tau(  21) = (   0.1811663   0.3054664  -0.0049051  )
        22        O      tau(  22) = (   0.3189090   0.4581995   0.0018322  )
        23        O      tau(  23) = (   0.3511484   0.3054558   0.1825269  )
        24        O      tau(  24) = (   0.1449481   0.4581995  -0.1825269  )
        25        O      tau(  25) = (   0.8550519   0.4581995  -0.1825269  )
        26        O      tau(  26) = (   0.0000000   0.4581995  -0.0050641  )
        27        O      tau(  27) = (   0.5000000   0.3054708   0.0037546  )
        28        O      tau(  28) = (   0.6488516   0.3054558   0.1825269  )
        29        V      tau(  29) = (   0.6485912   0.6109342   0.0467970  )
        30        V      tau(  30) = (   0.8521468   0.7636659  -0.0459152  )
        31        V      tau(  31) = (   0.1478532   0.7636659  -0.0459152  )
        32        V      tau(  32) = (   0.3514088   0.6109342   0.0467970  )
        33        O      tau(  33) = (   0.6810872   0.7636659   0.0018189  )
        34        O      tau(  34) = (   0.8188337   0.6109327  -0.0049051  )
        35        O      tau(  35) = (   0.1811663   0.6109327  -0.0049051  )
        36        O      tau(  36) = (   0.3189128   0.7636659   0.0018189  )
        37        O      tau(  37) = (   0.3511484   0.6109432   0.1825269  )
        38        O      tau(  38) = (   0.1449481   0.7636659  -0.1825269  )
        39        O      tau(  39) = (   0.8550519   0.7636659  -0.1825269  )
        40        O      tau(  40) = (   0.0000000   0.7636659  -0.0050641  )
        41        O      tau(  41) = (   0.5000000   0.6109282   0.0037546  )
        42        O      tau(  42) = (   0.6488516   0.6109432   0.1825269  )
        43        O      tau(  43) = (   0.3511484   0.3054558   0.3721745  )
        44        C      tau(  44) = (   0.3511484   0.3054558   0.4774386  )
        45        C      tau(  45) = (   0.3511484   0.4164466   0.5463277  )
        46        C      tau(  46) = (   0.3511484   0.1944650   0.5463277  )
        47        H      tau(  47) = (   0.3511484   0.4909021   0.4883844  )
        48        H      tau(  48) = (   0.3511484   0.1200095   0.4883844  )
        49        H      tau(  49) = (   0.4271344   0.4198332   0.6029993  )
        50        H      tau(  50) = (   0.2751624   0.4198332   0.6029993  )
        51        H      tau(  51) = (   0.2751624   0.1910784   0.6029993  )
        52        H      tau(  52) = (   0.4271344   0.1910784   0.6029993  )

     --------------------------------------------
     DFT-D3 Dispersion Correction (3-body terms):
     --------------------------------------------
       Reference C6 values for interpolation: 

         atom   Coordination number   C6
         H          0.912             6.05
         H          0.000            15.18
         C          0.000            98.23
         C          0.987            86.49
         C          1.998            58.72
         C          2.999            51.56
         C          3.984            36.41
         O          0.000            31.01
         O          0.993            25.63
         O          1.989            20.74
         V          0.000          2232.20
         V          1.914           580.29
         V          2.911           538.67

       Values used:

         atom   Coordination number  R0_AB[au]  C6      C8
         V          6.837            3.516    538.67  59684.75
         V          6.856            3.516    538.67  59684.75
         V          6.857            3.516    538.67  59684.75
         V          6.837            3.516    538.67  59684.75
         O          2.973            2.345     20.74    418.58
         O          2.974            2.345     20.74    418.58
         O          2.974            2.345     20.74    418.58
         O          2.973            2.345     20.74    418.58
         O          1.023            2.345     25.58    516.29
         O          1.024            2.345     25.58    516.28
         O          1.024            2.345     25.58    516.28
         O          2.023            2.345     20.81    419.87
         O          2.021            2.345     20.81    419.89
         O          1.023            2.345     25.58    516.30
         V          6.837            3.516    538.67  59684.75
         V          6.856            3.516    538.67  59684.75
         V          6.857            3.516    538.67  59684.75
         V          6.841            3.516    538.67  59684.75
         O          2.973            2.345     20.74    418.58
         O          2.974            2.345     20.74    418.58
         O          2.974            2.345     20.74    418.58
         O          2.973            2.345     20.74    418.58
         O          1.046            2.345     25.55    515.56
         O          1.024            2.345     25.58    516.28
         O          1.024            2.345     25.58    516.28
         O          2.023            2.345     20.81    419.87
         O          2.021            2.345     20.81    419.89
         O          1.023            2.345     25.58    516.30
         V          6.837            3.516    538.67  59684.75
         V          6.856            3.516    538.67  59684.75
         V          6.856            3.516    538.67  59684.75
         V          6.837            3.516    538.67  59684.75
         O          2.973            2.345     20.74    418.58
         O          2.974            2.345     20.74    418.58
         O          2.974            2.345     20.74    418.58
         O          2.973            2.345     20.74    418.58
         O          1.023            2.345     25.58    516.29
         O          1.024            2.345     25.58    516.28
         O          1.024            2.345     25.58    516.28
         O          2.023            2.345     20.81    419.87
         O          2.021            2.345     20.81    419.89
         O          1.023            2.345     25.58    516.30
         O          1.077            2.345     25.49    514.50
         C          3.017            2.750     51.28   1483.10
         C          4.023            2.750     36.61   1058.91
         C          4.023            2.750     36.61   1058.91
         H          0.998            2.062      6.18     74.74
         H          0.998            2.062      6.18     74.74
         H          0.997            2.062      6.18     74.75
         H          0.997            2.062      6.18     74.75
         H          0.997            2.062      6.18     74.75
         H          0.997            2.062      6.18     74.75

         Molecular C6 ( Ry / a.u.^6 ) =    202547.41


     number of k points=     4  Marzari-Vanderbilt smearing, width (Ry)=  0.0100
                       cart. coord. in units 2pi/alat
        k(    1) = (   0.0000000   0.0000000   0.0000000), wk =   0.5000000
        k(    2) = (   0.0000000  -0.5456139   0.0000000), wk =   0.5000000
        k(    3) = (  -0.5000000   0.0000000   0.0000000), wk =   0.5000000
        k(    4) = (  -0.5000000  -0.5456139   0.0000000), wk =   0.5000000

     Dense  grid:  4575445 G-vectors     FFT dimensions: ( 180, 160, 360)

     Smooth grid:  1157533 G-vectors     FFT dimensions: ( 120, 100, 216)

     Estimated max dynamical RAM per process >      25.27 GB

     Initial potential from superposition of free atoms

     starting charge     359.9850, renormalised to     360.0000

     negative rho (up, down):  9.390E-03 0.000E+00
     Starting wfcs are  262 randomized atomic wfcs

     total cpu time spent up to now is       54.3 secs

     Self-consistent Calculation

     iteration #  1     ecut=    60.00 Ry     beta= 0.20
     Davidson diagonalization with overlap
     ethr =  1.00E-02,  avg # of iterations =  3.5

     negative rho (up, down):  1.237E-02 0.000E+00

     total cpu time spent up to now is       73.2 secs

     total energy              =   -3097.80518004 Ry
     estimated scf accuracy    <      26.72400715 Ry

     iteration #  2     ecut=    60.00 Ry     beta= 0.20
     Davidson diagonalization with overlap
     ethr =  7.42E-03,  avg # of iterations =  1.5

     negative rho (up, down):  2.703E-02 0.000E+00

     total cpu time spent up to now is       85.0 secs

     total energy              =   -3091.89161428 Ry
     estimated scf accuracy    <      14.91505224 Ry

     iteration #  3     ecut=    60.00 Ry     beta= 0.20
     Davidson diagonalization with overlap
     ethr =  4.14E-03,  avg # of iterations =  6.3

     negative rho (up, down):  2.322E-02 0.000E+00

     total cpu time spent up to now is      100.0 secs

     total energy              =   -3098.26832358 Ry
     estimated scf accuracy    <      36.54755582 Ry

     iteration #  4     ecut=    60.00 Ry     beta= 0.20
     Davidson diagonalization with overlap
     ethr =  4.14E-03,  avg # of iterations =  1.0

     negative rho (up, down):  1.811E-02 0.000E+00

     total cpu time spent up to now is      110.9 secs

     total energy              =   -3097.12037935 Ry
     estimated scf accuracy    <      16.63994650 Ry

     iteration #  5     ecut=    60.00 Ry     beta= 0.20
     Davidson diagonalization with overlap
     ethr =  4.14E-03,  avg # of iterations =  1.0

     negative rho (up, down):  1.744E-02 0.000E+00

     total cpu time spent up to now is      121.8 secs

     total energy              =   -3097.51145435 Ry
     estimated scf accuracy    <       3.96242225 Ry

     iteration #  6     ecut=    60.00 Ry     beta= 0.20
     Davidson diagonalization with overlap
     ethr =  1.10E-03,  avg # of iterations =  4.0

     negative rho (up, down):  1.798E-02 0.000E+00

     total cpu time spent up to now is      135.8 secs

     total energy              =   -3097.37649322 Ry
     estimated scf accuracy    <       2.19178611 Ry

     iteration #  7     ecut=    60.00 Ry     beta= 0.20
     Davidson diagonalization with overlap
     ethr =  6.09E-04,  avg # of iterations =  5.5

     negative rho (up, down):  1.743E-02 0.000E+00

     total cpu time spent up to now is      149.7 secs

     total energy              =   -3097.81278312 Ry
     estimated scf accuracy    <       0.23375778 Ry

     iteration #  8     ecut=    60.00 Ry     beta= 0.20
     Davidson diagonalization with overlap
     c_bands:  1 eigenvalues not converged
     c_bands:  1 eigenvalues not converged
     c_bands:  1 eigenvalues not converged
     ethr =  6.49E-05,  avg # of iterations = 17.3
     Minimization algorithm failed to find Fermi energy: reverting to bisection
     Possible cause: smearing is larger than the electronic band-gap.

     negative rho (up, down):  1.709E-02 0.000E+00

     total cpu time spent up to now is      177.6 secs

     total energy              =   -3098.00446385 Ry
     estimated scf accuracy    <       0.18283063 Ry

     iteration #  9     ecut=    60.00 Ry     beta= 0.20
     Davidson diagonalization with overlap
     ethr =  5.08E-05,  avg # of iterations = 12.8
     Minimization algorithm failed to find Fermi energy: reverting to bisection
     Possible cause: smearing is larger than the electronic band-gap.

     negative rho (up, down):  1.654E-02 0.000E+00

     total cpu time spent up to now is      199.9 secs

     total energy              =   -3097.97309245 Ry
     estimated scf accuracy    <       0.11488029 Ry

     iteration # 10     ecut=    60.00 Ry     beta= 0.20
     Davidson diagonalization with overlap
     ethr =  3.19E-05,  avg # of iterations = 10.5
     Minimization algorithm failed to find Fermi energy: reverting to bisection
     Possible cause: smearing is larger than the electronic band-gap.

     negative rho (up, down):  1.722E-02 0.000E+00

     total cpu time spent up to now is      216.2 secs

     total energy              =   -3097.98578865 Ry
     estimated scf accuracy    <       0.08135684 Ry

     iteration # 11     ecut=    60.00 Ry     beta= 0.20
     Davidson diagonalization with overlap
     ethr =  2.26E-05,  avg # of iterations =  4.5

     negative rho (up, down):  1.779E-02 0.000E+00

     total cpu time spent up to now is      229.8 secs

     total energy              =   -3097.98189519 Ry
     estimated scf accuracy    <       0.05160819 Ry

     iteration # 12     ecut=    60.00 Ry     beta= 0.20
     Davidson diagonalization with overlap
     c_bands:  2 eigenvalues not converged
     ethr =  1.43E-05,  avg # of iterations = 13.3

     negative rho (up, down):  1.761E-02 0.000E+00

     total cpu time spent up to now is      247.9 secs

     total energy              =   -3097.99400868 Ry
     estimated scf accuracy    <       0.06657886 Ry

     iteration # 13     ecut=    60.00 Ry     beta= 0.20
     Davidson diagonalization with overlap
     ethr =  1.43E-05,  avg # of iterations =  3.8

     negative rho (up, down):  1.717E-02 0.000E+00

     total cpu time spent up to now is      261.9 secs

     total energy              =   -3097.99341475 Ry
     estimated scf accuracy    <       0.03001082 Ry

     iteration # 14     ecut=    60.00 Ry     beta= 0.20
     Davidson diagonalization with overlap
     ethr =  8.34E-06,  avg # of iterations =  9.3

     negative rho (up, down):  2.006E-02 0.000E+00

     total cpu time spent up to now is      277.9 secs

     total energy              =   -3097.99078116 Ry
     estimated scf accuracy    <       0.03614819 Ry

     iteration # 15     ecut=    60.00 Ry     beta= 0.20
     Davidson diagonalization with overlap
     ethr =  8.34E-06,  avg # of iterations =  4.8

     negative rho (up, down):  3.064E-02 0.000E+00

     total cpu time spent up to now is      293.0 secs

     total energy              =   -3097.99186644 Ry
     estimated scf accuracy    <       0.01591355 Ry

     iteration # 16     ecut=    60.00 Ry     beta= 0.20
     Davidson diagonalization with overlap
     c_bands:  2 eigenvalues not converged
     ethr =  4.42E-06,  avg # of iterations = 18.0

     negative rho (up, down):  2.176E-02 0.000E+00

     total cpu time spent up to now is      312.1 secs

     total energy              =   -3097.99444119 Ry
     estimated scf accuracy    <       0.01605348 Ry

     iteration # 17     ecut=    60.00 Ry     beta= 0.20
     Davidson diagonalization with overlap
     c_bands:  1 eigenvalues not converged
     ethr =  4.42E-06,  avg # of iterations =  8.5

     negative rho (up, down):  4.521E-02 0.000E+00

     total cpu time spent up to now is      326.3 secs

     total energy              =   -3097.99352767 Ry
     estimated scf accuracy    <       0.00875164 Ry

     iteration # 18     ecut=    60.00 Ry     beta= 0.20
     Davidson diagonalization with overlap
     ethr =  2.43E-06,  avg # of iterations = 12.5

     negative rho (up, down):  4.535E-02 0.000E+00

     total cpu time spent up to now is      344.0 secs

     total energy              =   -3097.99452311 Ry
     estimated scf accuracy    <       0.00784466 Ry

     iteration # 19     ecut=    60.00 Ry     beta= 0.20
     Davidson diagonalization with overlap
     ethr =  2.18E-06,  avg # of iterations =  2.8

     negative rho (up, down):  5.596E-02 0.000E+00

     total cpu time spent up to now is      356.3 secs

     total energy              =   -3097.99447827 Ry
     estimated scf accuracy    <       0.00813480 Ry

     iteration # 20     ecut=    60.00 Ry     beta= 0.20
     Davidson diagonalization with overlap
     ethr =  2.18E-06,  avg # of iterations =  1.0

     negative rho (up, down):  4.956E-02 0.000E+00

     total cpu time spent up to now is      367.3 secs

     total energy              =   -3097.99470975 Ry
     estimated scf accuracy    <       0.01552638 Ry

     iteration # 21     ecut=    60.00 Ry     beta= 0.20
     Davidson diagonalization with overlap
     ethr =  2.18E-06,  avg # of iterations =  3.8

     negative rho (up, down):  6.236E-02 0.000E+00

     total cpu time spent up to now is      380.7 secs

     total energy              =   -3097.99534753 Ry
     estimated scf accuracy    <       0.04154254 Ry

     iteration # 22     ecut=    60.00 Ry     beta= 0.20
     Davidson diagonalization with overlap
     ethr =  2.18E-06,  avg # of iterations =  2.8

     negative rho (up, down):  6.491E-02 0.000E+00

     total cpu time spent up to now is      393.9 secs

     total energy              =   -3097.99490552 Ry
     estimated scf accuracy    <       0.09946186 Ry

     iteration # 23     ecut=    60.00 Ry     beta= 0.20
     Davidson diagonalization with overlap
     ethr =  2.18E-06,  avg # of iterations =  1.3

     negative rho (up, down):  6.224E-02 0.000E+00

     total cpu time spent up to now is      405.7 secs

     total energy              =   -3097.99465830 Ry
     estimated scf accuracy    <       0.04087150 Ry

     iteration # 24     ecut=    60.00 Ry     beta= 0.20
     Davidson diagonalization with overlap
     ethr =  2.18E-06,  avg # of iterations =  1.5

     negative rho (up, down):  4.795E-02 0.000E+00

     total cpu time spent up to now is      417.9 secs

     total energy              =   -3097.99377797 Ry
     estimated scf accuracy    <       0.01773582 Ry

     iteration # 25     ecut=    60.00 Ry     beta= 0.20
     Davidson diagonalization with overlap
     ethr =  2.18E-06,  avg # of iterations =  1.0

     negative rho (up, down):  4.358E-02 0.000E+00

     total cpu time spent up to now is      429.4 secs

     total energy              =   -3097.99376440 Ry
     estimated scf accuracy    <       0.01092871 Ry

     iteration # 26     ecut=    60.00 Ry     beta= 0.20
     Davidson diagonalization with overlap
     ethr =  2.18E-06,  avg # of iterations =  1.0

     negative rho (up, down):  3.599E-02 0.000E+00

     total cpu time spent up to now is      440.7 secs

     total energy              =   -3097.99275909 Ry
     estimated scf accuracy    <       0.00560295 Ry

     iteration # 27     ecut=    60.00 Ry     beta= 0.20
     Davidson diagonalization with overlap
     ethr =  1.56E-06,  avg # of iterations =  7.0

     negative rho (up, down):  4.387E-02 0.000E+00

     total cpu time spent up to now is      455.0 secs

     total energy              =   -3097.99462591 Ry
     estimated scf accuracy    <       0.02405984 Ry

     iteration # 28     ecut=    60.00 Ry     beta= 0.20
     Davidson diagonalization with overlap
     ethr =  1.56E-06,  avg # of iterations =  2.0

     negative rho (up, down):  4.400E-02 0.000E+00

     total cpu time spent up to now is      467.4 secs

     total energy              =   -3097.99208804 Ry
     estimated scf accuracy    <       0.13533301 Ry

     iteration # 29     ecut=    60.00 Ry     beta= 0.20
     Davidson diagonalization with overlap
     ethr =  1.56E-06,  avg # of iterations =  1.8

     negative rho (up, down):  4.031E-02 0.000E+00

     total cpu time spent up to now is      480.1 secs

     total energy              =   -3097.99247201 Ry
     estimated scf accuracy    <       0.01507384 Ry

     iteration # 30     ecut=    60.00 Ry     beta= 0.20
     Davidson diagonalization with overlap
     ethr =  1.56E-06,  avg # of iterations =  2.0

     negative rho (up, down):  3.211E-02 0.000E+00

     total cpu time spent up to now is      492.1 secs

     total energy              =   -3097.99167559 Ry
     estimated scf accuracy    <       0.00637405 Ry

     iteration # 31     ecut=    60.00 Ry     beta= 0.20
