
     Program PWSCF v.7.5 starts on 29Jun2026 at  3:35:33 

     This program is part of the open-source Quantum ESPRESSO suite
     for quantum simulation of materials; please cite
         "P. Giannozzi et al., J. Phys.:Condens. Matter 21 395502 (2009);
         "P. Giannozzi et al., J. Phys.:Condens. Matter 29 465901 (2017);
         "P. Giannozzi et al., J. Chem. Phys. 152 154105 (2020);
          URL http://www.quantum-espresso.org", 
     in publications or presentations arising from this work. More details at
     http://www.quantum-espresso.org/quote

     Serial multi-threaded version, running on   32 processor cores
     39611 MiB available memory on the printing compute node when the environment starts
 
     Reading input from inputs/gas_no2.in

     Current dimensions of program PWSCF are:
     Max number of different atomic species (ntypx) = 10
     Max number of k-points (npk) =  40000
     Max angular momentum in pseudopotentials (lmaxx) =  4
     file O.pbe-n-kjpaw_psl.0.1.UPF: wavefunction(s)  2P renormalized
     Message from routine setup:
     using ibrav=0 with symmetry is DISCOURAGED, use correct ibrav instead
 
 
     G-vector sticks info
     --------------------
     sticks:   dense  smooth     PW     G-vecs:    dense   smooth      PW
     Sum       38393   15329   3833              5653693  1429635  178925
 
     Using Slab Decomposition
 


     bravais-lattice index     =            0
     lattice parameter (alat)  =      28.3459  a.u.
     unit-cell volume          =   22775.6289 (a.u.)^3
     number of atoms/cell      =            3
     number of atomic types    =            2
     number of electrons       =        17.00
     number of Kohn-Sham states=           13
     kinetic-energy cutoff     =      60.0000  Ry
     charge density cutoff     =     600.0000  Ry
     scf convergence threshold =      1.0E-09
     mixing beta               =       0.2000
     number of iterations used =            8  local-TF  mixing
     energy convergence thresh.=      1.0E-05
     force convergence thresh. =      1.0E-04
     Exchange-correlation= SLA  PW   PBX  PBC
                           (   1   4   3   4   0   0   0)
     nstep                     =          200


     GPU acceleration is ACTIVE.  1 visible GPUs per MPI rank


     celldm(1)=  28.345892  celldm(2)=   0.000000  celldm(3)=   0.000000
     celldm(4)=   0.000000  celldm(5)=   0.000000  celldm(6)=   0.000000

     crystal axes: (cart. coord. in units of alat)
               a(1) = (   1.000000   0.000000   0.000000 )  
               a(2) = (   0.000000   1.000000   0.000000 )  
               a(3) = (   0.000000   0.000000   1.000000 )  

     reciprocal axes: (cart. coord. in units 2 pi/alat)
               b(1) = (  1.000000  0.000000  0.000000 )  
               b(2) = (  0.000000  1.000000  0.000000 )  
               b(3) = (  0.000000  0.000000  1.000000 )  


     PseudoPot. # 1 for N  read from file:
     /home/x/Workspace/3-hEspesso/pseudo/N.pbe-n-radius_5.UPF
     MD5 check sum: 16739722b17309cd8fe442a2ace49922
     Pseudo is Ultrasoft + core correction, Zval =  5.0
     Generated using "atomic" code by A. Dal Corso  v.5.1
     Using radial grid of 1085 points,  4 beta functions with: 
                l(1) =   0
                l(2) =   0
                l(3) =   1
                l(4) =   1
     Q(r) pseudized with 0 coefficients 


     PseudoPot. # 2 for O  read from file:
     /home/x/Workspace/3-hEspesso/pseudo/O.pbe-n-kjpaw_psl.0.1.UPF
     MD5 check sum: 0234752ac141de4415c5fc33072bef88
     Pseudo is Projector augmented-wave + core cor, Zval =  6.0
     Generated using "atomic" code by A. Dal Corso  v.5.0.99 svn rev. 10869
     Shape of augmentation charge: BESSEL
     Using radial grid of 1095 points,  4 beta functions with: 
                l(1) =   0
                l(2) =   0
                l(3) =   1
                l(4) =   1
     Q(r) pseudized with 0 coefficients 


     atomic species   valence    mass     pseudopotential
     N                 5.00    14.00700     N ( 1.00)
     O                 6.00    15.99900     O ( 1.00)

     Starting magnetic structure 
     atomic species   magnetization
     N               0.500
     O               0.000

      4 Sym. Ops. (no inversion) found



   Cartesian axes

     site n.     atom                  positions (alat units)
         1        N      tau(   1) = (   0.5000000   0.5000000   0.5159214  )
         2        O      tau(   2) = (   0.5000000   0.5745415   0.4840786  )
         3        O      tau(   3) = (   0.5000000   0.4254585   0.4840786  )

     --------------------------------------------
     DFT-D3 Dispersion Correction (3-body terms):
     --------------------------------------------
       Reference C6 values for interpolation: 

         atom   Coordination number   C6
         N          0.000            50.54
         N          0.994            44.25
         N          2.014            39.35
         N          2.990            31.16
         O          0.000            31.01
         O          0.993            25.63
         O          1.989            20.74

       Values used:

         atom   Coordination number  R0_AB[au]  C6      C8
         N          1.999            2.478     39.27    866.29
         O          1.018            2.345     25.59    516.47
         O          1.018            2.345     25.59    516.47

         Molecular C6 ( Ry / a.u.^6 ) =       267.52


     number of k points=     1  Marzari-Vanderbilt smearing, width (Ry)=  0.0100
                       cart. coord. in units 2pi/alat
        k(    1) = (   0.0000000   0.0000000   0.0000000), wk =   1.0000000

     Dense  grid:  5653693 G-vectors     FFT dimensions: ( 225, 225, 225)

     Smooth grid:  1429635 G-vectors     FFT dimensions: ( 144, 144, 144)

     Estimated max dynamical RAM per process >       5.81 GB
     Generating pointlists ...
     new r_m :   0.0334 (alat units)  0.9478 (a.u.) for type    1
     new r_m :   0.0334 (alat units)  0.9478 (a.u.) for type    2

     Initial potential from superposition of free atoms

     starting charge      17.0000, renormalised to      17.0000

     negative rho (up, down):  5.001E-04 5.101E-04
     Starting wfcs are   12 randomized atomic wfcs +    1 random wfcs

     total cpu time spent up to now is       16.6 secs

     Self-consistent Calculation

     iteration #  1     ecut=    60.00 Ry     beta= 0.20
     Davidson diagonalization with overlap
     ethr =  1.00E-02,  avg # of iterations =  6.5

     negative rho (up, down):  1.868E-04 1.822E-04

     total cpu time spent up to now is       23.3 secs

     total energy              =    -103.19707242 Ry
     estimated scf accuracy    <       0.37786663 Ry

     total magnetization       =     1.00 Bohr mag/cell
     absolute magnetization    =     1.22 Bohr mag/cell

     iteration #  2     ecut=    60.00 Ry     beta= 0.20
     Davidson diagonalization with overlap
     ethr =  2.22E-03,  avg # of iterations =  1.0

     negative rho (up, down):  1.074E-04 9.072E-05

     total cpu time spent up to now is       29.4 secs

     total energy              =    -103.20141037 Ry
     estimated scf accuracy    <       0.15277778 Ry

     total magnetization       =     1.00 Bohr mag/cell
     absolute magnetization    =     1.20 Bohr mag/cell

     iteration #  3     ecut=    60.00 Ry     beta= 0.20
     Davidson diagonalization with overlap
     ethr =  8.99E-04,  avg # of iterations =  2.0

     negative rho (up, down):  1.461E-04 1.498E-04

     total cpu time spent up to now is       36.0 secs

     total energy              =    -103.24163519 Ry
     estimated scf accuracy    <       0.02841368 Ry

     total magnetization       =     1.00 Bohr mag/cell
     absolute magnetization    =     1.13 Bohr mag/cell

     iteration #  4     ecut=    60.00 Ry     beta= 0.20
     Davidson diagonalization with overlap
     ethr =  1.67E-04,  avg # of iterations =  8.0

     negative rho (up, down):  2.999E-04 3.493E-04

     total cpu time spent up to now is       42.6 secs

     total energy              =    -103.24959788 Ry
     estimated scf accuracy    <       0.00895406 Ry

     total magnetization       =     1.00 Bohr mag/cell
     absolute magnetization    =     1.10 Bohr mag/cell

     iteration #  5     ecut=    60.00 Ry     beta= 0.20
     Davidson diagonalization with overlap
     ethr =  5.27E-05,  avg # of iterations =  2.5

     negative rho (up, down):  2.440E-04 2.831E-04

     total cpu time spent up to now is       49.0 secs

     total energy              =    -103.25328271 Ry
     estimated scf accuracy    <       0.00127392 Ry

     total magnetization       =     1.00 Bohr mag/cell
     absolute magnetization    =     1.06 Bohr mag/cell

     iteration #  6     ecut=    60.00 Ry     beta= 0.20
     Davidson diagonalization with overlap
     c_bands:  1 eigenvalues not converged
     ethr =  7.49E-06,  avg # of iterations = 17.0

     negative rho (up, down):  1.941E-04 6.178E-04

     total cpu time spent up to now is       61.4 secs

     total energy              =    -103.25388943 Ry
     estimated scf accuracy    <       0.00077220 Ry

     total magnetization       =     1.00 Bohr mag/cell
     absolute magnetization    =     1.06 Bohr mag/cell

     iteration #  7     ecut=    60.00 Ry     beta= 0.20
     Davidson diagonalization with overlap
     ethr =  4.54E-06,  avg # of iterations =  9.5

     negative rho (up, down):  1.391E-04 2.324E-04

     total cpu time spent up to now is       71.4 secs

     total energy              =    -103.25429107 Ry
     estimated scf accuracy    <       0.00006582 Ry

     total magnetization       =     1.00 Bohr mag/cell
     absolute magnetization    =     1.05 Bohr mag/cell

     iteration #  8     ecut=    60.00 Ry     beta= 0.20
     Davidson diagonalization with overlap
     ethr =  3.87E-07,  avg # of iterations =  6.0

     negative rho (up, down):  2.638E-04 2.992E-04

     total cpu time spent up to now is       79.7 secs

     total energy              =    -103.25438884 Ry
     estimated scf accuracy    <       0.00005892 Ry

     total magnetization       =     1.00 Bohr mag/cell
     absolute magnetization    =     1.05 Bohr mag/cell

     iteration #  9     ecut=    60.00 Ry     beta= 0.20
     Davidson diagonalization with overlap
     ethr =  3.47E-07,  avg # of iterations =  8.0

     negative rho (up, down):  2.466E-04 2.491E-04

     total cpu time spent up to now is       87.0 secs

     total energy              =    -103.25440565 Ry
     estimated scf accuracy    <       0.00002226 Ry

     total magnetization       =     1.00 Bohr mag/cell
     absolute magnetization    =     1.05 Bohr mag/cell

     iteration # 10     ecut=    60.00 Ry     beta= 0.20
     Davidson diagonalization with overlap
     ethr =  1.31E-07,  avg # of iterations =  2.0

     negative rho (up, down):  4.229E-04 3.033E-04

     total cpu time spent up to now is       93.8 secs

     total energy              =    -103.25442338 Ry
     estimated scf accuracy    <       0.00001533 Ry

     total magnetization       =     1.00 Bohr mag/cell
     absolute magnetization    =     1.05 Bohr mag/cell

     iteration # 11     ecut=    60.00 Ry     beta= 0.20
     Davidson diagonalization with overlap
     ethr =  9.02E-08,  avg # of iterations =  7.5

     negative rho (up, down):  4.297E-04 2.942E-04

     total cpu time spent up to now is      102.5 secs

     total energy              =    -103.25443040 Ry
     estimated scf accuracy    <       0.00000327 Ry

     total magnetization       =     1.00 Bohr mag/cell
     absolute magnetization    =     1.05 Bohr mag/cell

     iteration # 12     ecut=    60.00 Ry     beta= 0.20
     Davidson diagonalization with overlap
     ethr =  1.93E-08,  avg # of iterations =  1.0

     negative rho (up, down):  6.011E-04 4.605E-04

     total cpu time spent up to now is      109.1 secs

     total energy              =    -103.25443376 Ry
     estimated scf accuracy    <       0.00000260 Ry

     total magnetization       =     1.00 Bohr mag/cell
     absolute magnetization    =     1.05 Bohr mag/cell

     iteration # 13     ecut=    60.00 Ry     beta= 0.20
     Davidson diagonalization with overlap
     ethr =  1.53E-08,  avg # of iterations =  5.5

     negative rho (up, down):  7.302E-04 5.515E-04

     total cpu time spent up to now is      117.7 secs

     total energy              =    -103.25443521 Ry
     estimated scf accuracy    <       0.00000107 Ry

     total magnetization       =     1.00 Bohr mag/cell
     absolute magnetization    =     1.05 Bohr mag/cell

     iteration # 14     ecut=    60.00 Ry     beta= 0.20
     Davidson diagonalization with overlap
     ethr =  6.27E-09,  avg # of iterations =  2.0

     negative rho (up, down):  7.705E-04 5.757E-04

     total cpu time spent up to now is      124.2 secs

     total energy              =    -103.25443593 Ry
     estimated scf accuracy    <       0.00000028 Ry

     total magnetization       =     1.00 Bohr mag/cell
     absolute magnetization    =     1.05 Bohr mag/cell

     iteration # 15     ecut=    60.00 Ry     beta= 0.20
     Davidson diagonalization with overlap
     ethr =  1.65E-09,  avg # of iterations =  2.0

     negative rho (up, down):  8.441E-04 6.472E-04

     total cpu time spent up to now is      130.8 secs

     total energy              =    -103.25443608 Ry
     estimated scf accuracy    <       0.00000030 Ry

     total magnetization       =     1.00 Bohr mag/cell
     absolute magnetization    =     1.05 Bohr mag/cell

     iteration # 16     ecut=    60.00 Ry     beta= 0.20
     Davidson diagonalization with overlap
     ethr =  1.65E-09,  avg # of iterations =  1.5

     negative rho (up, down):  8.486E-04 6.463E-04

     total cpu time spent up to now is      137.6 secs

     total energy              =    -103.25443611 Ry
     estimated scf accuracy    <       0.00000003 Ry

     total magnetization       =     1.00 Bohr mag/cell
     absolute magnetization    =     1.05 Bohr mag/cell

     iteration # 17     ecut=    60.00 Ry     beta= 0.20
     Davidson diagonalization with overlap
     ethr =  1.84E-10,  avg # of iterations =  2.5

     negative rho (up, down):  8.437E-04 6.357E-04

     total cpu time spent up to now is      144.5 secs

     total energy              =    -103.25443608 Ry
     estimated scf accuracy    <       0.00000002 Ry

     total magnetization       =     1.00 Bohr mag/cell
     absolute magnetization    =     1.05 Bohr mag/cell

     iteration # 18     ecut=    60.00 Ry     beta= 0.20
     Davidson diagonalization with overlap
     ethr =  1.17E-10,  avg # of iterations =  2.0

     negative rho (up, down):  8.513E-04 6.408E-04

     total cpu time spent up to now is      151.0 secs

     total energy              =    -103.25443612 Ry
     estimated scf accuracy    <          7.7E-09 Ry

     total magnetization       =     1.00 Bohr mag/cell
     absolute magnetization    =     1.05 Bohr mag/cell

     iteration # 19     ecut=    60.00 Ry     beta= 0.20
     Davidson diagonalization with overlap
     ethr =  4.55E-11,  avg # of iterations =  2.0

     negative rho (up, down):  8.511E-04 6.388E-04

     total cpu time spent up to now is      157.6 secs

     total energy              =    -103.25443614 Ry
     estimated scf accuracy    <          1.9E-09 Ry

     total magnetization       =     1.00 Bohr mag/cell
     absolute magnetization    =     1.05 Bohr mag/cell

     iteration # 20     ecut=    60.00 Ry     beta= 0.20
     Davidson diagonalization with overlap
     ethr =  1.14E-11,  avg # of iterations =  3.0

     negative rho (up, down):  8.542E-04 6.411E-04

     total cpu time spent up to now is      164.4 secs

     total energy              =    -103.25443618 Ry
     estimated scf accuracy    <          2.2E-09 Ry

     total magnetization       =     1.00 Bohr mag/cell
     absolute magnetization    =     1.05 Bohr mag/cell

     iteration # 21     ecut=    60.00 Ry     beta= 0.20
     Davidson diagonalization with overlap
     ethr =  1.14E-11,  avg # of iterations =  2.0

     negative rho (up, down):  8.582E-04 6.395E-04
 
     Magnetic moment per site  (integrated on atomic sphere of radius R)
     atom   1 (R=0.033)  charge=  1.9539  magn=  0.1697
     atom   2 (R=0.033)  charge=  2.9656  magn=  0.1669
     atom   3 (R=0.033)  charge=  2.9656  magn=  0.1669

     total cpu time spent up to now is      170.4 secs

     End of self-consistent calculation

 ------ SPIN UP ------------


          k = 0.0000 0.0000 0.0000 (178925 PWs)   bands (ev):

   -32.0560 -28.3762 -16.6996 -14.0227 -13.8866 -13.8413  -9.3074  -8.9821
    -6.6145  -3.7387  -0.3964   0.1501   0.3353

 ------ SPIN DOWN ----------


          k = 0.0000 0.0000 0.0000 (178925 PWs)   bands (ev):

   -31.6669 -27.9400 -16.0973 -13.6259 -13.5956 -12.9544  -9.1258  -8.3502
    -5.1748  -3.3508  -0.3270   0.2246   0.3574

     the Fermi energy is    -5.9423 ev

!    total energy              =    -103.25443618 Ry
     estimated scf accuracy    <          2.1E-10 Ry
     smearing contrib. (-TS)   =       0.00000000 Ry
     internal energy E=F+TS    =    -103.25443618 Ry

     The total energy is F=E-TS. E is the sum of the following terms:
     one-electron contribution =    -214.23972837 Ry
     hartree contribution      =     109.40252549 Ry
     xc contribution           =     -19.86136158 Ry
     ewald contribution        =      40.51785570 Ry
     DFT-D3 Dispersion         =      -0.00177229 Ry
     one-center paw contrib.   =     -19.07195514 Ry

     total magnetization       =     1.00 Bohr mag/cell
     absolute magnetization    =     1.05 Bohr mag/cell

     convergence has been achieved in  21 iterations

     negative rho (up, down):  8.582E-04 6.395E-04

     Forces acting on atoms (cartesian axes, Ry/au):

     atom    1 type  1   force =     0.00000000    0.00000000   -0.02541242
     atom    2 type  2   force =     0.00000000   -0.03014239    0.01270621
     atom    3 type  2   force =     0.00000000    0.03014239    0.01270621

     Total force =     0.052781     Total SCF correction =     0.000026


     Computing stress (Cartesian axis) and pressure


     negative rho (up, down):  8.582E-04 6.395E-04
          total   stress  (Ry/bohr**3)                   (kbar)     P=       -0.38
  -0.00000036   0.00000000   0.00000000           -0.05        0.00        0.00
   0.00000000  -0.00000602   0.00000000            0.00       -0.88        0.00
   0.00000000   0.00000000  -0.00000140            0.00        0.00       -0.21


     BFGS Geometry Optimization
     Energy error            =      2.8E-03 Ry
     Gradient error          =      3.0E-02 Ry/Bohr

     number of scf cycles    =   1
     number of bfgs steps    =   0

     energy             new  =    -103.2544361813 Ry

     new trust radius        =       0.0327110296 bohr
     new conv_thr            =       0.0000000010 Ry


ATOMIC_POSITIONS (angstrom)
N                7.5000000000        7.5000000000        7.7253738273
O                7.5000000000        8.6021713339        7.2679023363
O                7.5000000000        6.3978286661        7.2679023363



     Writing config-only to output data dir ./outdir/gas_no2.save/ :
     XML data file
     NEW-OLD atomic charge density approx. for the potential

     negative rho (up, down):  7.825E-04 8.526E-04
     Generating pointlists ...
     new r_m :   0.0328 (alat units)  0.9302 (a.u.) for type    1
     new r_m :   0.0328 (alat units)  0.9302 (a.u.) for type    2

     total cpu time spent up to now is      192.1 secs

     Self-consistent Calculation

     iteration #  1     ecut=    60.00 Ry     beta= 0.20
     Davidson diagonalization with overlap
     ethr =  1.00E-06,  avg # of iterations =  7.0

     negative rho (up, down):  2.384E-03 2.465E-03

     total cpu time spent up to now is      198.5 secs

     total energy              =    -103.25459978 Ry
     estimated scf accuracy    <       0.00111795 Ry

     total magnetization       =     1.00 Bohr mag/cell
     absolute magnetization    =     1.05 Bohr mag/cell

     iteration #  2     ecut=    60.00 Ry     beta= 0.20
     Davidson diagonalization with overlap
     ethr =  6.58E-06,  avg # of iterations =  1.0

     negative rho (up, down):  1.804E-03 1.783E-03

     total cpu time spent up to now is      204.6 secs

     total energy              =    -103.25426127 Ry
     estimated scf accuracy    <       0.00071015 Ry

     total magnetization       =     1.00 Bohr mag/cell
     absolute magnetization    =     1.04 Bohr mag/cell

     iteration #  3     ecut=    60.00 Ry     beta= 0.20
     Davidson diagonalization with overlap
     ethr =  4.18E-06,  avg # of iterations =  2.0

     negative rho (up, down):  1.438E-03 1.389E-03

     total cpu time spent up to now is      210.8 secs

     total energy              =    -103.25440940 Ry
     estimated scf accuracy    <       0.00001651 Ry

     total magnetization       =     1.00 Bohr mag/cell
     absolute magnetization    =     1.04 Bohr mag/cell

     iteration #  4     ecut=    60.00 Ry     beta= 0.20
     Davidson diagonalization with overlap
     ethr =  9.71E-08,  avg # of iterations =  2.5

     negative rho (up, down):  1.237E-03 1.166E-03

     total cpu time spent up to now is      217.3 secs

     total energy              =    -103.25442062 Ry
     estimated scf accuracy    <       0.00000852 Ry

     total magnetization       =     1.00 Bohr mag/cell
     absolute magnetization    =     1.04 Bohr mag/cell

     iteration #  5     ecut=    60.00 Ry     beta= 0.20
     Davidson diagonalization with overlap
     ethr =  5.01E-08,  avg # of iterations =  2.0

     negative rho (up, down):  1.098E-03 1.007E-03

     total cpu time spent up to now is      223.5 secs

     total energy              =    -103.25442396 Ry
     estimated scf accuracy    <       0.00000409 Ry

     total magnetization       =     1.00 Bohr mag/cell
     absolute magnetization    =     1.04 Bohr mag/cell

     iteration #  6     ecut=    60.00 Ry     beta= 0.20
     Davidson diagonalization with overlap
     ethr =  2.40E-08,  avg # of iterations =  2.0

     negative rho (up, down):  1.013E-03 9.011E-04

     total cpu time spent up to now is      229.9 secs

     total energy              =    -103.25442814 Ry
     estimated scf accuracy    <       0.00000068 Ry

     total magnetization       =     1.00 Bohr mag/cell
     absolute magnetization    =     1.04 Bohr mag/cell

     iteration #  7     ecut=    60.00 Ry     beta= 0.20
     Davidson diagonalization with overlap
     ethr =  4.01E-09,  avg # of iterations =  2.0

     negative rho (up, down):  1.053E-03 9.270E-04

     total cpu time spent up to now is      236.3 secs

     total energy              =    -103.25443142 Ry
     estimated scf accuracy    <       0.00000048 Ry

     total magnetization       =     1.00 Bohr mag/cell
     absolute magnetization    =     1.04 Bohr mag/cell

     iteration #  8     ecut=    60.00 Ry     beta= 0.20
     Davidson diagonalization with overlap
     ethr =  2.81E-09,  avg # of iterations =  2.0

     negative rho (up, down):  1.017E-03 8.678E-04

     total cpu time spent up to now is      242.8 secs

     total energy              =    -103.25443241 Ry
     estimated scf accuracy    <       0.00000055 Ry

     total magnetization       =     1.00 Bohr mag/cell
     absolute magnetization    =     1.04 Bohr mag/cell

     iteration #  9     ecut=    60.00 Ry     beta= 0.20
     Davidson diagonalization with overlap
     ethr =  2.81E-09,  avg # of iterations =  2.0

     negative rho (up, down):  9.902E-04 8.247E-04

     total cpu time spent up to now is      249.6 secs

     total energy              =    -103.25443317 Ry
     estimated scf accuracy    <       0.00000010 Ry

     total magnetization       =     1.00 Bohr mag/cell
     absolute magnetization    =     1.04 Bohr mag/cell

     iteration # 10     ecut=    60.00 Ry     beta= 0.20
     Davidson diagonalization with overlap
     ethr =  5.93E-10,  avg # of iterations =  2.0

     negative rho (up, down):  9.686E-04 7.904E-04

     total cpu time spent up to now is      256.2 secs

     total energy              =    -103.25443372 Ry
     estimated scf accuracy    <       0.00000003 Ry

     total magnetization       =     1.00 Bohr mag/cell
     absolute magnetization    =     1.04 Bohr mag/cell

     iteration # 11     ecut=    60.00 Ry     beta= 0.20
     Davidson diagonalization with overlap
     ethr =  2.05E-10,  avg # of iterations =  2.0

     negative rho (up, down):  9.391E-04 7.533E-04

     total cpu time spent up to now is      262.9 secs

     total energy              =    -103.25443417 Ry
     estimated scf accuracy    <       0.00000002 Ry

     total magnetization       =     1.00 Bohr mag/cell
     absolute magnetization    =     1.04 Bohr mag/cell

     iteration # 12     ecut=    60.00 Ry     beta= 0.20
     Davidson diagonalization with overlap
     ethr =  1.03E-10,  avg # of iterations =  1.0

     negative rho (up, down):  9.224E-04 7.327E-04

     total cpu time spent up to now is      269.6 secs

     total energy              =    -103.25443464 Ry
     estimated scf accuracy    <       0.00000001 Ry

     total magnetization       =     1.00 Bohr mag/cell
     absolute magnetization    =     1.04 Bohr mag/cell

     iteration # 13     ecut=    60.00 Ry     beta= 0.20
     Davidson diagonalization with overlap
     ethr =  6.69E-11,  avg # of iterations =  2.0

     negative rho (up, down):  9.052E-04 7.113E-04

     total cpu time spent up to now is      276.2 secs

     total energy              =    -103.25443487 Ry
     estimated scf accuracy    <          2.8E-09 Ry

     total magnetization       =     1.00 Bohr mag/cell
     absolute magnetization    =     1.04 Bohr mag/cell

     iteration # 14     ecut=    60.00 Ry     beta= 0.20
     Davidson diagonalization with overlap
     ethr =  1.66E-11,  avg # of iterations =  1.5

     negative rho (up, down):  8.939E-04 6.972E-04

     total cpu time spent up to now is      283.2 secs

     total energy              =    -103.25443504 Ry
     estimated scf accuracy    <          1.0E-09 Ry

     total magnetization       =     1.00 Bohr mag/cell
     absolute magnetization    =     1.04 Bohr mag/cell

     iteration # 15     ecut=    60.00 Ry     beta= 0.20
     Davidson diagonalization with overlap
     ethr =  6.17E-12,  avg # of iterations =  2.0

     negative rho (up, down):  8.617E-04 6.572E-04
 
     Magnetic moment per site  (integrated on atomic sphere of radius R)
     atom   1 (R=0.033)  charge=  1.9006  magn=  0.1683
     atom   2 (R=0.033)  charge=  2.8865  magn=  0.1586
     atom   3 (R=0.033)  charge=  2.8865  magn=  0.1586

     total cpu time spent up to now is      289.1 secs

     End of self-consistent calculation

 ------ SPIN UP ------------


          k = 0.0000 0.0000 0.0000 (178925 PWs)   bands (ev):

   -32.5026 -28.7465 -16.5442 -14.1604 -14.0822 -14.0486  -9.3453  -9.0101
    -6.3575  -3.4535  -0.3968   0.1498   0.3366

 ------ SPIN DOWN ----------


          k = 0.0000 0.0000 0.0000 (178925 PWs)   bands (ev):

   -32.1174 -28.3235 -15.9420 -13.8955 -13.6371 -13.1862  -9.1684  -8.3826
    -4.9060  -3.0583  -0.3224   0.2304   0.3601

     the Fermi energy is    -5.6463 ev

!    total energy              =    -103.25443548 Ry
     estimated scf accuracy    <          1.1E-10 Ry
     smearing contrib. (-TS)   =       0.00000000 Ry
     internal energy E=F+TS    =    -103.25443548 Ry

     The total energy is F=E-TS. E is the sum of the following terms:
     one-electron contribution =    -216.46926829 Ry
     hartree contribution      =     110.47810226 Ry
     xc contribution           =     -19.93911715 Ry
     ewald contribution        =      41.74472338 Ry
     DFT-D3 Dispersion         =      -0.00177513 Ry
     one-center paw contrib.   =     -19.06710055 Ry

     total magnetization       =     1.00 Bohr mag/cell
     absolute magnetization    =     1.04 Bohr mag/cell

     convergence has been achieved in  15 iterations

     negative rho (up, down):  8.617E-04 6.572E-04

     Forces acting on atoms (cartesian axes, Ry/au):

     atom    1 type  1   force =     0.00000000    0.00000000    0.02964448
     atom    2 type  2   force =     0.00000000    0.02992188   -0.01482224
     atom    3 type  2   force =     0.00000000   -0.02992188   -0.01482224

     Total force =     0.055757     Total SCF correction =     0.000008


     Computing stress (Cartesian axis) and pressure


     negative rho (up, down):  8.617E-04 6.572E-04
          total   stress  (Ry/bohr**3)                   (kbar)     P=        0.26
  -0.00000036   0.00000000   0.00000000           -0.05        0.00        0.00
   0.00000000   0.00000503   0.00000000            0.00        0.74        0.00
   0.00000000   0.00000000   0.00000073            0.00        0.00        0.11

     Energy error            =      7.0E-07 Ry
     Gradient error          =      3.0E-02 Ry/Bohr

     number of scf cycles    =   2
     number of bfgs steps    =   1

     energy             old  =    -103.2544361813 Ry
     energy             new  =    -103.2544354764 Ry

     CASE: energy            _new > energy            _old

     new trust radius        =       0.0163513778 bohr
     new conv_thr            =       0.0000000010 Ry


ATOMIC_POSITIONS (angstrom)
N                7.5000000000        7.5000000000        7.7320993644
O                7.5000000000        8.6101486842        7.2645395678
O                7.5000000000        6.3898513158        7.2645395678



     Writing config-only to output data dir ./outdir/gas_no2.save/ :
     XML data file
     NEW-OLD atomic charge density approx. for the potential

     negative rho (up, down):  7.783E-04 7.925E-04
     Generating pointlists ...

     total cpu time spent up to now is      310.9 secs

     Self-consistent Calculation

     iteration #  1     ecut=    60.00 Ry     beta= 0.20
     Davidson diagonalization with overlap
     ethr =  1.00E-06,  avg # of iterations =  6.0

     negative rho (up, down):  9.864E-04 9.350E-04

     total cpu time spent up to now is      317.3 secs

     total energy              =    -103.25520154 Ry
     estimated scf accuracy    <       0.00027535 Ry

     total magnetization       =     1.00 Bohr mag/cell
     absolute magnetization    =     1.05 Bohr mag/cell

     iteration #  2     ecut=    60.00 Ry     beta= 0.20
     Davidson diagonalization with overlap
     ethr =  1.62E-06,  avg # of iterations =  1.0

     negative rho (up, down):  1.357E-03 1.268E-03

     total cpu time spent up to now is      323.4 secs

     total energy              =    -103.25511573 Ry
     estimated scf accuracy    <       0.00017653 Ry

     total magnetization       =     1.00 Bohr mag/cell
     absolute magnetization    =     1.05 Bohr mag/cell

     iteration #  3     ecut=    60.00 Ry     beta= 0.20
     Davidson diagonalization with overlap
     ethr =  1.04E-06,  avg # of iterations =  2.0

     negative rho (up, down):  1.292E-03 1.174E-03

     total cpu time spent up to now is      329.8 secs

     total energy              =    -103.25514876 Ry
     estimated scf accuracy    <       0.00000510 Ry

     total magnetization       =     1.00 Bohr mag/cell
     absolute magnetization    =     1.05 Bohr mag/cell

     iteration #  4     ecut=    60.00 Ry     beta= 0.20
     Davidson diagonalization with overlap
     ethr =  3.00E-08,  avg # of iterations =  2.5

     negative rho (up, down):  1.190E-03 1.038E-03

     total cpu time spent up to now is      336.4 secs

     total energy              =    -103.25514948 Ry
     estimated scf accuracy    <       0.00000258 Ry

     total magnetization       =     1.00 Bohr mag/cell
     absolute magnetization    =     1.05 Bohr mag/cell

     iteration #  5     ecut=    60.00 Ry     beta= 0.20
     Davidson diagonalization with overlap
     ethr =  1.52E-08,  avg # of iterations =  2.0

     negative rho (up, down):  1.181E-03 1.017E-03

     total cpu time spent up to now is      342.9 secs

     total energy              =    -103.25514983 Ry
     estimated scf accuracy    <       0.00000132 Ry

     total magnetization       =     1.00 Bohr mag/cell
     absolute magnetization    =     1.05 Bohr mag/cell

     iteration #  6     ecut=    60.00 Ry     beta= 0.20
     Davidson diagonalization with overlap
     ethr =  7.79E-09,  avg # of iterations =  2.0

     negative rho (up, down):  1.117E-03 9.352E-04

     total cpu time spent up to now is      350.0 secs

     total energy              =    -103.25514986 Ry
     estimated scf accuracy    <       0.00000045 Ry

     total magnetization       =     1.00 Bohr mag/cell
     absolute magnetization    =     1.05 Bohr mag/cell

     iteration #  7     ecut=    60.00 Ry     beta= 0.20
     Davidson diagonalization with overlap
     ethr =  2.63E-09,  avg # of iterations =  2.0

     negative rho (up, down):  1.047E-03 8.566E-04

     total cpu time spent up to now is      356.5 secs

     total energy              =    -103.25514996 Ry
     estimated scf accuracy    <       0.00000013 Ry

     total magnetization       =     1.00 Bohr mag/cell
     absolute magnetization    =     1.05 Bohr mag/cell

     iteration #  8     ecut=    60.00 Ry     beta= 0.20
     Davidson diagonalization with overlap
     ethr =  7.69E-10,  avg # of iterations =  2.0

     negative rho (up, down):  9.292E-04 7.317E-04

     total cpu time spent up to now is      363.2 secs

     total energy              =    -103.25515011 Ry
     estimated scf accuracy    <       0.00000011 Ry

     total magnetization       =     1.00 Bohr mag/cell
     absolute magnetization    =     1.05 Bohr mag/cell

     iteration #  9     ecut=    60.00 Ry     beta= 0.20
     Davidson diagonalization with overlap
     ethr =  6.24E-10,  avg # of iterations =  1.5

     negative rho (up, down):  8.970E-04 6.965E-04

     total cpu time spent up to now is      370.0 secs

     total energy              =    -103.25515027 Ry
     estimated scf accuracy    <       0.00000008 Ry

     total magnetization       =     1.00 Bohr mag/cell
     absolute magnetization    =     1.05 Bohr mag/cell

     iteration # 10     ecut=    60.00 Ry     beta= 0.20
     Davidson diagonalization with overlap
     ethr =  4.85E-10,  avg # of iterations =  2.0

     negative rho (up, down):  8.743E-04 6.713E-04

     total cpu time spent up to now is      376.5 secs

     total energy              =    -103.25515039 Ry
     estimated scf accuracy    <       0.00000003 Ry

     total magnetization       =     1.00 Bohr mag/cell
     absolute magnetization    =     1.05 Bohr mag/cell

     iteration # 11     ecut=    60.00 Ry     beta= 0.20
     Davidson diagonalization with overlap
     ethr =  1.71E-10,  avg # of iterations =  2.0

     negative rho (up, down):  8.674E-04 6.627E-04

     total cpu time spent up to now is      383.0 secs

     total energy              =    -103.25515044 Ry
     estimated scf accuracy    <          3.9E-09 Ry

     total magnetization       =     1.00 Bohr mag/cell
     absolute magnetization    =     1.05 Bohr mag/cell

     iteration # 12     ecut=    60.00 Ry     beta= 0.20
     Davidson diagonalization with overlap
     ethr =  2.27E-11,  avg # of iterations =  2.0

     negative rho (up, down):  8.637E-04 6.574E-04

     total cpu time spent up to now is      389.6 secs

     total energy              =    -103.25515043 Ry
     estimated scf accuracy    <          3.9E-09 Ry

     total magnetization       =     1.00 Bohr mag/cell
     absolute magnetization    =     1.05 Bohr mag/cell

     iteration # 13     ecut=    60.00 Ry     beta= 0.20
     Davidson diagonalization with overlap
     ethr =  2.27E-11,  avg # of iterations =  2.0

     negative rho (up, down):  8.624E-04 6.547E-04

     total cpu time spent up to now is      396.1 secs

     total energy              =    -103.25515044 Ry
     estimated scf accuracy    <          1.4E-09 Ry

     total magnetization       =     1.00 Bohr mag/cell
     absolute magnetization    =     1.05 Bohr mag/cell

     iteration # 14     ecut=    60.00 Ry     beta= 0.20
     Davidson diagonalization with overlap
     ethr =  8.04E-12,  avg # of iterations =  1.0

     negative rho (up, down):  8.602E-04 6.485E-04
 
     Magnetic moment per site  (integrated on atomic sphere of radius R)
     atom   1 (R=0.033)  charge=  1.8865  magn=  0.1663
     atom   2 (R=0.033)  charge=  2.8782  magn=  0.1605
     atom   3 (R=0.033)  charge=  2.8782  magn=  0.1605

     total cpu time spent up to now is      402.0 secs

     End of self-consistent calculation

 ------ SPIN UP ------------


          k = 0.0000 0.0000 0.0000 (178925 PWs)   bands (ev):

   -32.2779 -28.5585 -16.6212 -14.0361 -14.0219 -13.9605  -9.3258  -8.9954
    -6.4881  -3.5980  -0.3967   0.1495   0.3354

 ------ SPIN DOWN ----------


          k = 0.0000 0.0000 0.0000 (178925 PWs)   bands (ev):

   -31.8908 -28.1290 -16.0193 -13.7590 -13.6168 -13.0684  -9.1466  -8.3658
    -5.0424  -3.2064  -0.3251   0.2268   0.3583

     the Fermi energy is    -5.7393 ev

!    total energy              =    -103.25515047 Ry
     estimated scf accuracy    <          2.1E-10 Ry
     smearing contrib. (-TS)   =       0.00000000 Ry
     internal energy E=F+TS    =    -103.25515047 Ry

     The total energy is F=E-TS. E is the sum of the following terms:
     one-electron contribution =    -215.34735700 Ry
     hartree contribution      =     109.93700862 Ry
     xc contribution           =     -19.89980239 Ry
     ewald contribution        =      41.12632301 Ry
     DFT-D3 Dispersion         =      -0.00177374 Ry
     one-center paw contrib.   =     -19.06954897 Ry

     total magnetization       =     1.00 Bohr mag/cell
     absolute magnetization    =     1.05 Bohr mag/cell

     convergence has been achieved in  14 iterations

     negative rho (up, down):  8.602E-04 6.485E-04

     Forces acting on atoms (cartesian axes, Ry/au):

     atom    1 type  1   force =     0.00000000    0.00000000    0.00126199
     atom    2 type  2   force =     0.00000000   -0.00141659   -0.00063100
     atom    3 type  2   force =     0.00000000    0.00141659   -0.00063100

     Total force =     0.002530     Total SCF correction =     0.000052


     Computing stress (Cartesian axis) and pressure


     negative rho (up, down):  8.602E-04 6.485E-04
          total   stress  (Ry/bohr**3)                   (kbar)     P=       -0.07
  -0.00000036   0.00000000   0.00000000           -0.05        0.00        0.00
   0.00000000  -0.00000070   0.00000000            0.00       -0.10        0.00
   0.00000000   0.00000000  -0.00000035            0.00        0.00       -0.05

     Energy error            =      7.1E-04 Ry
     Gradient error          =      1.4E-03 Ry/Bohr

     number of scf cycles    =   3
     number of bfgs steps    =   1

     energy             old  =    -103.2544361813 Ry
     energy             new  =    -103.2551504678 Ry

     CASE: energy            _new < energy            _old

     new trust radius        =       0.0014728478 bohr
     new conv_thr            =       0.0000000001 Ry


ATOMIC_POSITIONS (angstrom)
N                7.5000000000        7.5000000000        7.7328382244
O                7.5000000000        8.6094624030        7.2641701378
O                7.5000000000        6.3905375970        7.2641701378



     Writing config-only to output data dir ./outdir/gas_no2.save/ :
     XML data file
     NEW-OLD atomic charge density approx. for the potential

     negative rho (up, down):  7.469E-04 7.528E-04
     Generating pointlists ...

     total cpu time spent up to now is      423.7 secs

     Self-consistent Calculation

     iteration #  1     ecut=    60.00 Ry     beta= 0.20
     Davidson diagonalization with overlap
     ethr =  1.00E-06,  avg # of iterations =  2.0

     Threshold (ethr) on eigenvalues was too large:
     Diagonalizing with lowered threshold

     Davidson diagonalization with overlap
     ethr =  6.18E-09,  avg # of iterations =  4.0

     negative rho (up, down):  7.922E-04 7.094E-04

     total cpu time spent up to now is      430.6 secs

     total energy              =    -103.25515468 Ry
     estimated scf accuracy    <       0.00000094 Ry

     total magnetization       =     1.00 Bohr mag/cell
     absolute magnetization    =     1.05 Bohr mag/cell

     iteration #  2     ecut=    60.00 Ry     beta= 0.20
     Davidson diagonalization with overlap
     ethr =  5.51E-09,  avg # of iterations =  1.0

     negative rho (up, down):  8.195E-04 6.688E-04

     total cpu time spent up to now is      436.8 secs

     total energy              =    -103.25515459 Ry
     estimated scf accuracy    <       0.00000053 Ry

     total magnetization       =     1.00 Bohr mag/cell
     absolute magnetization    =     1.05 Bohr mag/cell

     iteration #  3     ecut=    60.00 Ry     beta= 0.20
     Davidson diagonalization with overlap
     ethr =  3.11E-09,  avg # of iterations =  2.0

     negative rho (up, down):  8.312E-04 6.525E-04

     total cpu time spent up to now is      443.2 secs

     total energy              =    -103.25515467 Ry
     estimated scf accuracy    <       0.00000007 Ry

     total magnetization       =     1.00 Bohr mag/cell
     absolute magnetization    =     1.05 Bohr mag/cell

     iteration #  4     ecut=    60.00 Ry     beta= 0.20
     Davidson diagonalization with overlap
     ethr =  4.29E-10,  avg # of iterations =  2.0

     negative rho (up, down):  8.381E-04 6.442E-04

     total cpu time spent up to now is      449.5 secs

     total energy              =    -103.25515469 Ry
     estimated scf accuracy    <       0.00000001 Ry

     total magnetization       =     1.00 Bohr mag/cell
     absolute magnetization    =     1.05 Bohr mag/cell

     iteration #  5     ecut=    60.00 Ry     beta= 0.20
     Davidson diagonalization with overlap
     ethr =  6.00E-11,  avg # of iterations =  3.0

     negative rho (up, down):  8.399E-04 6.451E-04

     total cpu time spent up to now is      456.1 secs

     total energy              =    -103.25515471 Ry
     estimated scf accuracy    <          3.5E-09 Ry

     total magnetization       =     1.00 Bohr mag/cell
     absolute magnetization    =     1.05 Bohr mag/cell

     iteration #  6     ecut=    60.00 Ry     beta= 0.20
     Davidson diagonalization with overlap
     ethr =  2.08E-11,  avg # of iterations =  2.0

     negative rho (up, down):  8.431E-04 6.448E-04

     total cpu time spent up to now is      462.8 secs

     total energy              =    -103.25515472 Ry
     estimated scf accuracy    <          2.1E-09 Ry

     total magnetization       =     1.00 Bohr mag/cell
     absolute magnetization    =     1.05 Bohr mag/cell

     iteration #  7     ecut=    60.00 Ry     beta= 0.20
     Davidson diagonalization with overlap
     ethr =  1.25E-11,  avg # of iterations =  2.0

     negative rho (up, down):  8.458E-04 6.445E-04

     total cpu time spent up to now is      469.6 secs

     total energy              =    -103.25515472 Ry
     estimated scf accuracy    <          4.0E-10 Ry

     total magnetization       =     1.00 Bohr mag/cell
     absolute magnetization    =     1.05 Bohr mag/cell

     iteration #  8     ecut=    60.00 Ry     beta= 0.20
     Davidson diagonalization with overlap
     ethr =  2.36E-12,  avg # of iterations =  1.5

     negative rho (up, down):  8.518E-04 6.491E-04

     total cpu time spent up to now is      476.5 secs

     total energy              =    -103.25515473 Ry
     estimated scf accuracy    <          3.0E-10 Ry

     total magnetization       =     1.00 Bohr mag/cell
     absolute magnetization    =     1.05 Bohr mag/cell

     iteration #  9     ecut=    60.00 Ry     beta= 0.20
     Davidson diagonalization with overlap
     ethr =  1.75E-12,  avg # of iterations =  2.0

     negative rho (up, down):  8.606E-04 6.487E-04
 
     Magnetic moment per site  (integrated on atomic sphere of radius R)
     atom   1 (R=0.033)  charge=  1.8867  magn=  0.1661
     atom   2 (R=0.033)  charge=  2.8785  magn=  0.1606
     atom   3 (R=0.033)  charge=  2.8785  magn=  0.1606

     total cpu time spent up to now is      482.4 secs

     End of self-consistent calculation

 ------ SPIN UP ------------


          k = 0.0000 0.0000 0.0000 (178925 PWs)   bands (ev):

   -32.2846 -28.5579 -16.6205 -14.0356 -14.0246 -13.9625  -9.3246  -8.9919
    -6.4945  -3.5961  -0.3963   0.1499   0.3353

 ------ SPIN DOWN ----------


          k = 0.0000 0.0000 0.0000 (178925 PWs)   bands (ev):

   -31.8977 -28.1282 -16.0180 -13.7619 -13.6161 -13.0712  -9.1453  -8.3621
    -5.0494  -3.2046  -0.3250   0.2271   0.3580

     the Fermi energy is    -5.7409 ev

!    total energy              =    -103.25515473 Ry
     estimated scf accuracy    <          8.4E-11 Ry
     smearing contrib. (-TS)   =       0.00000000 Ry
     internal energy E=F+TS    =    -103.25515473 Ry

     The total energy is F=E-TS. E is the sum of the following terms:
     one-electron contribution =    -215.38431223 Ry
     hartree contribution      =     109.95548800 Ry
     xc contribution           =     -19.90066378 Ry
     ewald contribution        =      41.14558786 Ry
     DFT-D3 Dispersion         =      -0.00177386 Ry
     one-center paw contrib.   =     -19.06948072 Ry

     total magnetization       =     1.00 Bohr mag/cell
     absolute magnetization    =     1.05 Bohr mag/cell

     convergence has been achieved in   9 iterations

     negative rho (up, down):  8.606E-04 6.487E-04

     Forces acting on atoms (cartesian axes, Ry/au):

     atom    1 type  1   force =     0.00000000    0.00000000    0.00062736
     atom    2 type  2   force =     0.00000000   -0.00034762   -0.00031368
     atom    3 type  2   force =     0.00000000    0.00034762   -0.00031368

     Total force =     0.000912     Total SCF correction =     0.000014


     Computing stress (Cartesian axis) and pressure


     negative rho (up, down):  8.606E-04 6.487E-04
          total   stress  (Ry/bohr**3)                   (kbar)     P=       -0.06
  -0.00000036   0.00000000   0.00000000           -0.05        0.00        0.00
   0.00000000  -0.00000050   0.00000000            0.00       -0.07        0.00
   0.00000000   0.00000000  -0.00000037            0.00        0.00       -0.05

     Energy error            =      4.3E-06 Ry
     Gradient error          =      6.3E-04 Ry/Bohr

     number of scf cycles    =   4
     number of bfgs steps    =   2

     energy             old  =    -103.2551504678 Ry
     energy             new  =    -103.2551547290 Ry

     CASE: energy            _new < energy            _old

     new trust radius        =       0.0009371991 bohr
     new conv_thr            =            1.0E-11 Ry


ATOMIC_POSITIONS (angstrom)
N                7.5000000000        7.5000000000        7.7333341688
O                7.5000000000        8.6091348380        7.2639221656
O                7.5000000000        6.3908651620        7.2639221656



     Writing config-only to output data dir ./outdir/gas_no2.save/ :
     XML data file
     NEW-OLD atomic charge density approx. for the potential

     negative rho (up, down):  7.469E-04 7.525E-04
     Generating pointlists ...

     total cpu time spent up to now is      504.3 secs

     Self-consistent Calculation

     iteration #  1     ecut=    60.00 Ry     beta= 0.20
     Davidson diagonalization with overlap
     ethr =  1.00E-06,  avg # of iterations =  2.0

     Threshold (ethr) on eigenvalues was too large:
     Diagonalizing with lowered threshold

     Davidson diagonalization with overlap
     ethr =  1.97E-09,  avg # of iterations =  4.0

     negative rho (up, down):  7.945E-04 7.105E-04

     total cpu time spent up to now is      511.2 secs

     total energy              =    -103.25515532 Ry
     estimated scf accuracy    <       0.00000031 Ry

     total magnetization       =     1.00 Bohr mag/cell
     absolute magnetization    =     1.05 Bohr mag/cell

     iteration #  2     ecut=    60.00 Ry     beta= 0.20
     Davidson diagonalization with overlap
     ethr =  1.81E-09,  avg # of iterations =  1.0

     negative rho (up, down):  8.231E-04 6.788E-04

     total cpu time spent up to now is      517.3 secs

     total energy              =    -103.25515533 Ry
     estimated scf accuracy    <       0.00000016 Ry

     total magnetization       =     1.00 Bohr mag/cell
     absolute magnetization    =     1.05 Bohr mag/cell

     iteration #  3     ecut=    60.00 Ry     beta= 0.20
     Davidson diagonalization with overlap
     ethr =  9.42E-10,  avg # of iterations =  2.0

     negative rho (up, down):  8.404E-04 6.603E-04

     total cpu time spent up to now is      524.1 secs

     total energy              =    -103.25515536 Ry
     estimated scf accuracy    <       0.00000003 Ry

     total magnetization       =     1.00 Bohr mag/cell
     absolute magnetization    =     1.05 Bohr mag/cell

     iteration #  4     ecut=    60.00 Ry     beta= 0.20
     Davidson diagonalization with overlap
     ethr =  1.57E-10,  avg # of iterations =  2.0

     negative rho (up, down):  8.461E-04 6.549E-04

     total cpu time spent up to now is      530.3 secs

     total energy              =    -103.25515537 Ry
     estimated scf accuracy    <          3.4E-09 Ry

     total magnetization       =     1.00 Bohr mag/cell
     absolute magnetization    =     1.05 Bohr mag/cell

     iteration #  5     ecut=    60.00 Ry     beta= 0.20
     Davidson diagonalization with overlap
     ethr =  1.99E-11,  avg # of iterations =  2.0

     negative rho (up, down):  8.488E-04 6.541E-04

     total cpu time spent up to now is      536.8 secs

     total energy              =    -103.25515538 Ry
     estimated scf accuracy    <          1.5E-09 Ry

     total magnetization       =     1.00 Bohr mag/cell
     absolute magnetization    =     1.05 Bohr mag/cell

     iteration #  6     ecut=    60.00 Ry     beta= 0.20
     Davidson diagonalization with overlap
     ethr =  8.56E-12,  avg # of iterations =  3.0

     negative rho (up, down):  8.516E-04 6.515E-04

     total cpu time spent up to now is      543.8 secs

     total energy              =    -103.25515538 Ry
     estimated scf accuracy    <          8.0E-10 Ry

     total magnetization       =     1.00 Bohr mag/cell
     absolute magnetization    =     1.05 Bohr mag/cell

     iteration #  7     ecut=    60.00 Ry     beta= 0.20
     Davidson diagonalization with overlap
     ethr =  4.68E-12,  avg # of iterations =  2.0

     negative rho (up, down):  8.533E-04 6.513E-04

     total cpu time spent up to now is      550.7 secs

     total energy              =    -103.25515538 Ry
     estimated scf accuracy    <          5.5E-11 Ry

     total magnetization       =     1.00 Bohr mag/cell
     absolute magnetization    =     1.05 Bohr mag/cell

     iteration #  8     ecut=    60.00 Ry     beta= 0.20
     Davidson diagonalization with overlap
     ethr =  3.24E-13,  avg # of iterations =  3.0

     negative rho (up, down):  8.544E-04 6.513E-04

     total cpu time spent up to now is      557.3 secs

     total energy              =    -103.25515538 Ry
     estimated scf accuracy    <          1.7E-11 Ry

     total magnetization       =     1.00 Bohr mag/cell
     absolute magnetization    =     1.05 Bohr mag/cell

     iteration #  9     ecut=    60.00 Ry     beta= 0.20
     Davidson diagonalization with overlap
     ethr =  1.02E-13,  avg # of iterations =  2.0

     negative rho (up, down):  8.608E-04 6.488E-04
 
     Magnetic moment per site  (integrated on atomic sphere of radius R)
     atom   1 (R=0.033)  charge=  1.8867  magn=  0.1660
     atom   2 (R=0.033)  charge=  2.8785  magn=  0.1606
     atom   3 (R=0.033)  charge=  2.8785  magn=  0.1606

     total cpu time spent up to now is      563.2 secs

     End of self-consistent calculation

 ------ SPIN UP ------------


          k = 0.0000 0.0000 0.0000 (178925 PWs)   bands (ev):

   -32.2862 -28.5557 -16.6207 -14.0351 -14.0249 -13.9625  -9.3236  -8.9895
    -6.4994  -3.5963  -0.3961   0.1503   0.3353

 ------ SPIN DOWN ----------


          k = 0.0000 0.0000 0.0000 (178925 PWs)   bands (ev):

   -31.8995 -28.1258 -16.0178 -13.7622 -13.6153 -13.0716  -9.1442  -8.3597
    -5.0547  -3.2048  -0.3249   0.2274   0.3580

     the Fermi energy is    -5.7413 ev

!    total energy              =    -103.25515538 Ry
     estimated scf accuracy    <          6.8E-12 Ry
     smearing contrib. (-TS)   =       0.00000000 Ry
     internal energy E=F+TS    =    -103.25515538 Ry

     The total energy is F=E-TS. E is the sum of the following terms:
     one-electron contribution =    -215.39542816 Ry
     hartree contribution      =     109.96119653 Ry
     xc contribution           =     -19.90079547 Ry
     ewald contribution        =      41.15110858 Ry
     DFT-D3 Dispersion         =      -0.00177391 Ry
     one-center paw contrib.   =     -19.06946294 Ry

     total magnetization       =     1.00 Bohr mag/cell
     absolute magnetization    =     1.05 Bohr mag/cell

     convergence has been achieved in   9 iterations

     negative rho (up, down):  8.608E-04 6.488E-04

     Forces acting on atoms (cartesian axes, Ry/au):

     atom    1 type  1   force =     0.00000000    0.00000000   -0.00000421
     atom    2 type  2   force =     0.00000000   -0.00000053    0.00000210
     atom    3 type  2   force =     0.00000000    0.00000053    0.00000210

     Total force =     0.000005     Total SCF correction =     0.000003
     SCF correction compared to forces is large: reduce conv_thr to get better values


     Computing stress (Cartesian axis) and pressure


     negative rho (up, down):  8.608E-04 6.488E-04
          total   stress  (Ry/bohr**3)                   (kbar)     P=       -0.06
  -0.00000036   0.00000000   0.00000000           -0.05        0.00        0.00
   0.00000000  -0.00000044   0.00000000            0.00       -0.06        0.00
   0.00000000   0.00000000  -0.00000039            0.00        0.00       -0.06

     Energy error            =      6.5E-07 Ry
     Gradient error          =      4.2E-06 Ry/Bohr

     bfgs converged in   5 scf cycles and   3 bfgs steps
     (criteria: energy <  1.0E-05 Ry, force <  1.0E-04 Ry/Bohr)

     End of BFGS Geometry Optimization

     Final energy             =    -103.2551553818 Ry

     File ./outdir/gas_no2.bfgs deleted, as requested
Begin final coordinates

ATOMIC_POSITIONS (angstrom)
N                7.5000000000        7.5000000000        7.7333341688
O                7.5000000000        8.6091348380        7.2639221656
O                7.5000000000        6.3908651620        7.2639221656
End final coordinates



     Writing all to output data dir ./outdir/gas_no2.save/ :
     XML data file, charge density, pseudopotentials, collected wavefunctions
 
     init_run     :    172.02s CPU     16.52s WALL (       1 calls)
     electrons    :    527.99s CPU    461.38s WALL (       5 calls)
     update_pot   :      3.75s CPU      1.73s WALL (       4 calls)
     forces       :     75.14s CPU     72.73s WALL (       5 calls)
     force_dftd3  :      0.08s CPU      0.00s WALL (       5 calls)
     stress       :      4.52s CPU      4.57s WALL (       5 calls)
     stres_dftd3  :      0.06s CPU      0.00s WALL (       5 calls)

     Called by init_run:
     wfcinit      :      0.10s CPU      0.25s WALL (       1 calls)
     potinit      :    164.13s CPU      8.05s WALL (       1 calls)
     hinit0       :      0.93s CPU      0.87s WALL (       1 calls)

     Called by electrons:
     c_bands      :     31.69s CPU     31.25s WALL (      70 calls)
     sum_band     :     28.32s CPU     31.94s WALL (      70 calls)
     v_of_rho     :     10.70s CPU     10.54s WALL (      73 calls)
     newd         :    348.71s CPU    345.30s WALL (      73 calls)
     PAW_pot      :     17.42s CPU      1.25s WALL (      77 calls)
     mix_rho      :     27.55s CPU     36.20s WALL (      70 calls)
     energy_dftd3 :      0.00s CPU      0.00s WALL (       5 calls)

     Called by c_bands:
     init_us_2    :      0.16s CPU      0.13s WALL (     310 calls)
     cegterg      :     30.65s CPU     30.21s WALL (     140 calls)

     Called by *egterg:
     cdiaghg      :      0.40s CPU      0.44s WALL (     530 calls)
                                        0.44s GPU  (     530 calls)
     h_psi        :      4.66s CPU      4.62s WALL (     544 calls)
     s_psi        :      0.29s CPU      0.29s WALL (     544 calls)
     g_psi        :      0.03s CPU      0.03s WALL (     402 calls)

     Called by h_psi:
     h_psi:calbec :      0.06s CPU      0.17s WALL (     544 calls)
     vloc_psi     :      3.97s CPU      3.82s WALL (     544 calls)
                                        3.82s GPU  (     544 calls)
     add_vuspsi   :      0.59s CPU      0.60s WALL (     544 calls)

     General routines
     calbec       :      0.07s CPU      0.17s WALL (     862 calls)
     fft          :    193.71s CPU     12.86s WALL (    2023 calls)
                                        3.50s GPU  (    1877 calls)
     ffts         :     46.71s CPU      5.04s WALL (    8035 calls)
                                        2.78s GPU  (    7889 calls)
     fftw         :      0.02s CPU      3.79s WALL (    1228 calls)
                                        3.78s GPU  (    1228 calls)
     interpolate  :    246.88s CPU     25.42s WALL (     146 calls)
 
 
     PWSCF        :  13m29.44s CPU   9m39.55s WALL

 
   This run was terminated on:   3:45:13  29Jun2026            

=------------------------------------------------------------------------------=
   JOB DONE.
=------------------------------------------------------------------------------=
