
     Program PWSCF v.7.5 starts on 29Jun2026 at  3:28:43 

     This program is part of the open-source Quantum ESPRESSO suite
     for quantum simulation of materials; please cite
         "P. Giannozzi et al., J. Phys.:Condens. Matter 21 395502 (2009);
         "P. Giannozzi et al., J. Phys.:Condens. Matter 29 465901 (2017);
         "P. Giannozzi et al., J. Chem. Phys. 152 154105 (2020);
          URL http://www.quantum-espresso.org", 
     in publications or presentations arising from this work. More details at
     http://www.quantum-espresso.org/quote

     Serial multi-threaded version, running on   32 processor cores
     40437 MiB available memory on the printing compute node when the environment starts
 
     Reading input from inputs/gas_h2s.in

     Current dimensions of program PWSCF are:
     Max number of different atomic species (ntypx) = 10
     Max number of k-points (npk) =  40000
     Max angular momentum in pseudopotentials (lmaxx) =  4
     Message from routine setup:
     using ibrav=0 with symmetry is DISCOURAGED, use correct ibrav instead
 
 
     G-vector sticks info
     --------------------
     sticks:   dense  smooth     PW     G-vecs:    dense   smooth      PW
     Sum       38393   15329   3833              5653693  1429635  178925
 
     Using Slab Decomposition
 


     bravais-lattice index     =            0
     lattice parameter (alat)  =      28.3459  a.u.
     unit-cell volume          =   22775.6289 (a.u.)^3
     number of atoms/cell      =            3
     number of atomic types    =            2
     number of electrons       =         8.00
     number of Kohn-Sham states=            8
     kinetic-energy cutoff     =      60.0000  Ry
     charge density cutoff     =     600.0000  Ry
     scf convergence threshold =      1.0E-09
     mixing beta               =       0.2000
     number of iterations used =            8  local-TF  mixing
     energy convergence thresh.=      1.0E-05
     force convergence thresh. =      1.0E-04
     Exchange-correlation= PBE
                           (   1   4   3   4   0   0   0)
     nstep                     =          200


     GPU acceleration is ACTIVE.  1 visible GPUs per MPI rank


     celldm(1)=  28.345892  celldm(2)=   0.000000  celldm(3)=   0.000000
     celldm(4)=   0.000000  celldm(5)=   0.000000  celldm(6)=   0.000000

     crystal axes: (cart. coord. in units of alat)
               a(1) = (   1.000000   0.000000   0.000000 )  
               a(2) = (   0.000000   1.000000   0.000000 )  
               a(3) = (   0.000000   0.000000   1.000000 )  

     reciprocal axes: (cart. coord. in units 2 pi/alat)
               b(1) = (  1.000000  0.000000  0.000000 )  
               b(2) = (  0.000000  1.000000  0.000000 )  
               b(3) = (  0.000000  0.000000  1.000000 )  


     PseudoPot. # 1 for S  read from file:
     /home/x/Workspace/3-hEspesso/pseudo/s_pbe_v1.4.uspp.F.UPF
     MD5 check sum: 88d86576ff6df21479756cfb9bdac1df
     Pseudo is Ultrasoft + core correction, Zval =  6.0
     Generated by new atomic code, or converted to UPF format
     Using radial grid of  907 points,  6 beta functions with: 
                l(1) =   0
                l(2) =   0
                l(3) =   1
                l(4) =   1
                l(5) =   2
                l(6) =   2
     Q(r) pseudized with  8 coefficients,  rinner =    1.300   1.300   1.300
                                                       1.300   1.300

     PseudoPot. # 2 for H  read from file:
     /home/x/Workspace/3-hEspesso/pseudo/H.pbe-rrkjus_psl.1.0.0.UPF
     MD5 check sum: f52b6d4d1c606e5624b1dc7b2218f220
     Pseudo is Ultrasoft, Zval =  1.0
     Generated using "atomic" code by A. Dal Corso  v.5.1
     Using radial grid of  929 points,  2 beta functions with: 
                l(1) =   0
                l(2) =   0
     Q(r) pseudized with 0 coefficients 


     atomic species   valence    mass     pseudopotential
     S                 6.00    32.06000     S ( 1.00)
     H                 1.00     1.00800     H ( 1.00)

      4 Sym. Ops. (no inversion) found



   Cartesian axes

     site n.     atom                  positions (alat units)
         1        S      tau(   1) = (   0.5000000   0.5000000   0.4690000  )
         2        H      tau(   2) = (   0.5643152   0.5000000   0.5310000  )
         3        H      tau(   3) = (   0.4356848   0.5000000   0.5310000  )

     --------------------------------------------
     DFT-D3 Dispersion Correction (3-body terms):
     --------------------------------------------
       Reference C6 values for interpolation: 

         atom   Coordination number   C6
         H          0.912             6.05
         H          0.000            15.18
         S          0.000           268.01
         S          0.995           261.99
         S          1.990           251.62

       Values used:

         atom   Coordination number  R0_AB[au]  C6      C8
         S          1.990            3.128    251.81  12336.61
         H          0.995            2.062      6.19     74.77
         H          0.995            2.062      6.19     74.77

         Molecular C6 ( Ry / a.u.^6 ) =       434.13


     number of k points=     1  Marzari-Vanderbilt smearing, width (Ry)=  0.0100
                       cart. coord. in units 2pi/alat
        k(    1) = (   0.0000000   0.0000000   0.0000000), wk =   2.0000000

     Dense  grid:  5653693 G-vectors     FFT dimensions: ( 225, 225, 225)

     Smooth grid:  1429635 G-vectors     FFT dimensions: ( 144, 144, 144)

     Estimated max dynamical RAM per process >      20.21 GB

     Initial potential from superposition of free atoms

     starting charge       7.9999, renormalised to       8.0000

     negative rho (up, down):  1.824E-04 0.000E+00
     Starting wfcs are    6 randomized atomic wfcs +    2 random wfcs

     total cpu time spent up to now is       11.3 secs

     Self-consistent Calculation

     iteration #  1     ecut=    60.00 Ry     beta= 0.20
     Davidson diagonalization with overlap
     ethr =  1.00E-02,  avg # of iterations =  6.0

     negative rho (up, down):  3.236E-08 0.000E+00

     total cpu time spent up to now is       12.4 secs

     total energy              =     -26.47970710 Ry
     estimated scf accuracy    <       0.10384822 Ry

     iteration #  2     ecut=    60.00 Ry     beta= 0.20
     Davidson diagonalization with overlap
     ethr =  1.30E-03,  avg # of iterations =  1.0

     total cpu time spent up to now is       13.3 secs

     total energy              =     -26.44701209 Ry
     estimated scf accuracy    <       0.07763177 Ry

     iteration #  3     ecut=    60.00 Ry     beta= 0.20
     Davidson diagonalization with overlap
     ethr =  9.70E-04,  avg # of iterations =  2.0

     total cpu time spent up to now is       14.1 secs

     total energy              =     -26.45450461 Ry
     estimated scf accuracy    <       0.00493102 Ry

     iteration #  4     ecut=    60.00 Ry     beta= 0.20
     Davidson diagonalization with overlap
     ethr =  6.16E-05,  avg # of iterations = 11.0

     negative rho (up, down):  1.094E-05 0.000E+00

     total cpu time spent up to now is       15.1 secs

     total energy              =     -26.45355460 Ry
     estimated scf accuracy    <       0.00390547 Ry

     iteration #  5     ecut=    60.00 Ry     beta= 0.20
     Davidson diagonalization with overlap
     ethr =  4.88E-05,  avg # of iterations =  5.0

     negative rho (up, down):  3.173E-06 0.000E+00

     total cpu time spent up to now is       16.9 secs

     total energy              =     -26.45390564 Ry
     estimated scf accuracy    <       0.00125606 Ry

     iteration #  6     ecut=    60.00 Ry     beta= 0.20
     Davidson diagonalization with overlap
     ethr =  1.57E-05,  avg # of iterations =  2.0

     negative rho (up, down):  4.476E-08 0.000E+00

     total cpu time spent up to now is       17.7 secs

     total energy              =     -26.45372132 Ry
     estimated scf accuracy    <       0.00124151 Ry

     iteration #  7     ecut=    60.00 Ry     beta= 0.20
     Davidson diagonalization with overlap
     ethr =  1.55E-05,  avg # of iterations =  4.0

     negative rho (up, down):  1.555E-02 0.000E+00

     total cpu time spent up to now is       19.2 secs

     total energy              =     -26.45403111 Ry
     estimated scf accuracy    <       0.00106318 Ry

     iteration #  8     ecut=    60.00 Ry     beta= 0.20
     Davidson diagonalization with overlap
     ethr =  1.33E-05,  avg # of iterations =  5.0

     negative rho (up, down):  1.444E-02 0.000E+00

     total cpu time spent up to now is       21.0 secs

     total energy              =     -26.45419224 Ry
     estimated scf accuracy    <       0.00040797 Ry

     iteration #  9     ecut=    60.00 Ry     beta= 0.20
     Davidson diagonalization with overlap
     ethr =  5.10E-06,  avg # of iterations =  8.0

     negative rho (up, down):  9.251E-03 0.000E+00

     total cpu time spent up to now is       23.7 secs

     total energy              =     -26.45408210 Ry
     estimated scf accuracy    <       0.00033136 Ry

     iteration # 10     ecut=    60.00 Ry     beta= 0.20
     Davidson diagonalization with overlap
     ethr =  4.14E-06,  avg # of iterations =  8.0

     negative rho (up, down):  5.677E-03 0.000E+00

     total cpu time spent up to now is       26.0 secs

     total energy              =     -26.45411142 Ry
     estimated scf accuracy    <       0.00001405 Ry

     iteration # 11     ecut=    60.00 Ry     beta= 0.20
     Davidson diagonalization with overlap
     ethr =  1.76E-07,  avg # of iterations =  5.0

     negative rho (up, down):  1.634E-03 0.000E+00

     total cpu time spent up to now is       27.2 secs

     total energy              =     -26.45410441 Ry
     estimated scf accuracy    <       0.00000668 Ry

     iteration # 12     ecut=    60.00 Ry     beta= 0.20
     Davidson diagonalization with overlap
     c_bands:  1 eigenvalues not converged
     ethr =  8.35E-08,  avg # of iterations = 20.0

     negative rho (up, down):  1.121E-03 0.000E+00

     total cpu time spent up to now is       32.2 secs

     total energy              =     -26.45410554 Ry
     estimated scf accuracy    <       0.00000053 Ry

     iteration # 13     ecut=    60.00 Ry     beta= 0.20
     Davidson diagonalization with overlap
     ethr =  6.62E-09,  avg # of iterations =  3.0

     negative rho (up, down):  6.885E-04 0.000E+00

     total cpu time spent up to now is       33.4 secs

     total energy              =     -26.45410749 Ry
     estimated scf accuracy    <       0.00000190 Ry

     iteration # 14     ecut=    60.00 Ry     beta= 0.20
     Davidson diagonalization with overlap
     ethr =  6.62E-09,  avg # of iterations =  1.0

     negative rho (up, down):  1.528E-04 0.000E+00

     total cpu time spent up to now is       34.3 secs

     total energy              =     -26.45410897 Ry
     estimated scf accuracy    <       0.00000143 Ry

     iteration # 15     ecut=    60.00 Ry     beta= 0.20
     Davidson diagonalization with overlap
     ethr =  6.62E-09,  avg # of iterations =  7.0

     negative rho (up, down):  1.345E-04 0.000E+00

     total cpu time spent up to now is       36.3 secs

     total energy              =     -26.45410902 Ry
     estimated scf accuracy    <       0.00000008 Ry

     iteration # 16     ecut=    60.00 Ry     beta= 0.20
     Davidson diagonalization with overlap
     ethr =  9.55E-10,  avg # of iterations =  1.0

     negative rho (up, down):  1.531E-04 0.000E+00

     total cpu time spent up to now is       37.2 secs

     total energy              =     -26.45410847 Ry
     estimated scf accuracy    <       0.00000006 Ry

     iteration # 17     ecut=    60.00 Ry     beta= 0.20
     Davidson diagonalization with overlap
     ethr =  7.94E-10,  avg # of iterations =  2.0

     negative rho (up, down):  1.791E-04 0.000E+00

     total cpu time spent up to now is       38.1 secs

     total energy              =     -26.45410870 Ry
     estimated scf accuracy    <       0.00000002 Ry

     iteration # 18     ecut=    60.00 Ry     beta= 0.20
     Davidson diagonalization with overlap
     ethr =  3.02E-10,  avg # of iterations =  2.0

     negative rho (up, down):  1.290E-04 0.000E+00

     total cpu time spent up to now is       38.9 secs

     total energy              =     -26.45410893 Ry
     estimated scf accuracy    <       0.00000002 Ry

     iteration # 19     ecut=    60.00 Ry     beta= 0.20
     Davidson diagonalization with overlap
     ethr =  2.47E-10,  avg # of iterations =  2.0

     negative rho (up, down):  1.288E-04 0.000E+00

     total cpu time spent up to now is       39.8 secs

     total energy              =     -26.45410914 Ry
     estimated scf accuracy    <          8.1E-09 Ry

     iteration # 20     ecut=    60.00 Ry     beta= 0.20
     Davidson diagonalization with overlap
     ethr =  1.02E-10,  avg # of iterations =  2.0

     negative rho (up, down):  8.900E-05 0.000E+00

     total cpu time spent up to now is       40.7 secs

     total energy              =     -26.45410915 Ry
     estimated scf accuracy    <          5.0E-09 Ry

     iteration # 21     ecut=    60.00 Ry     beta= 0.20
     Davidson diagonalization with overlap
     ethr =  6.22E-11,  avg # of iterations =  2.0

     negative rho (up, down):  4.939E-05 0.000E+00

     total cpu time spent up to now is       41.6 secs

     total energy              =     -26.45410915 Ry
     estimated scf accuracy    <       0.00000001 Ry

     iteration # 22     ecut=    60.00 Ry     beta= 0.20
     Davidson diagonalization with overlap
     ethr =  6.22E-11,  avg # of iterations =  2.0

     negative rho (up, down):  5.158E-05 0.000E+00

     total cpu time spent up to now is       42.4 secs

     total energy              =     -26.45410915 Ry
     estimated scf accuracy    <          1.2E-09 Ry

     iteration # 23     ecut=    60.00 Ry     beta= 0.20
     Davidson diagonalization with overlap
     ethr =  1.50E-11,  avg # of iterations =  1.0

     negative rho (up, down):  5.769E-05 0.000E+00

     total cpu time spent up to now is       43.1 secs

     End of self-consistent calculation

          k = 0.0000 0.0000 0.0000 (178925 PWs)   bands (ev):

   -18.5178 -10.9485  -9.0089  -6.2148  -0.8143  -0.5482   0.0866   0.4104

     the Fermi energy is    -3.6414 ev

!    total energy              =     -26.45410916 Ry
     estimated scf accuracy    <          5.9E-10 Ry
     smearing contrib. (-TS)   =       0.00000000 Ry
     internal energy E=F+TS    =     -26.45410916 Ry

     The total energy is F=E-TS. E is the sum of the following terms:
     one-electron contribution =     -41.92031445 Ry
     hartree contribution      =      21.59939416 Ry
     xc contribution           =      -9.76840846 Ry
     ewald contribution        =       3.63682602 Ry
     DFT-D3 Dispersion         =      -0.00160642 Ry

     convergence has been achieved in  23 iterations

     negative rho (up, down):  5.769E-05 0.000E+00

     Forces acting on atoms (cartesian axes, Ry/au):

     atom    1 type  1   force =     0.00000000    0.00000000   -0.01651561
     atom    2 type  2   force =     0.00722077    0.00000000    0.00825780
     atom    3 type  2   force =    -0.00722077    0.00000000    0.00825780

     Total force =     0.022659     Total SCF correction =     0.000023


     Computing stress (Cartesian axis) and pressure


     negative rho (up, down):  5.769E-05 0.000E+00
          total   stress  (Ry/bohr**3)                   (kbar)     P=        0.12
   0.00000115   0.00000000   0.00000000            0.17        0.00        0.00
   0.00000000  -0.00000000   0.00000000            0.00       -0.00        0.00
   0.00000000   0.00000000   0.00000127            0.00        0.00        0.19


     BFGS Geometry Optimization
     Energy error            =      5.1E-04 Ry
     Gradient error          =      1.7E-02 Ry/Bohr

     number of scf cycles    =   1
     number of bfgs steps    =   0

     energy             new  =     -26.4541091567 Ry

     new trust radius        =       0.0165156056 bohr
     new conv_thr            =       0.0000000010 Ry


ATOMIC_POSITIONS (angstrom)
S                7.5000000000        7.5000000000        7.0262599743
H                8.4685483458        7.5000000000        7.9693701846
H                6.5314516542        7.5000000000        7.9693701846



     Writing config-only to output data dir ./outdir/gas_h2s.save/ :
     XML data file
     NEW-OLD atomic charge density approx. for the potential

     negative rho (up, down):  6.816E-05 0.000E+00

     total cpu time spent up to now is       45.4 secs

     Self-consistent Calculation

     iteration #  1     ecut=    60.00 Ry     beta= 0.20
     Davidson diagonalization with overlap
     ethr =  1.00E-06,  avg # of iterations =  5.0

     negative rho (up, down):  1.380E-04 0.000E+00

     total cpu time spent up to now is       46.3 secs

     total energy              =     -26.45435657 Ry
     estimated scf accuracy    <       0.00005582 Ry

     iteration #  2     ecut=    60.00 Ry     beta= 0.20
     Davidson diagonalization with overlap
     ethr =  6.98E-07,  avg # of iterations =  1.0

     negative rho (up, down):  6.748E-04 0.000E+00

     total cpu time spent up to now is       47.1 secs

     total energy              =     -26.45434093 Ry
     estimated scf accuracy    <       0.00003774 Ry

     iteration #  3     ecut=    60.00 Ry     beta= 0.20
     Davidson diagonalization with overlap
     ethr =  4.72E-07,  avg # of iterations =  2.0

     negative rho (up, down):  5.672E-04 0.000E+00

     total cpu time spent up to now is       48.0 secs

     total energy              =     -26.45434747 Ry
     estimated scf accuracy    <       0.00000230 Ry

     iteration #  4     ecut=    60.00 Ry     beta= 0.20
     Davidson diagonalization with overlap
     ethr =  2.87E-08,  avg # of iterations =  1.0

     negative rho (up, down):  4.340E-04 0.000E+00

     total cpu time spent up to now is       48.8 secs

     total energy              =     -26.45434747 Ry
     estimated scf accuracy    <       0.00000130 Ry

     iteration #  5     ecut=    60.00 Ry     beta= 0.20
     Davidson diagonalization with overlap
     ethr =  1.63E-08,  avg # of iterations =  2.0

     negative rho (up, down):  3.894E-04 0.000E+00

     total cpu time spent up to now is       49.8 secs

     total energy              =     -26.45434750 Ry
     estimated scf accuracy    <       0.00000021 Ry

     iteration #  6     ecut=    60.00 Ry     beta= 0.20
     Davidson diagonalization with overlap
     ethr =  2.59E-09,  avg # of iterations =  2.0

     negative rho (up, down):  2.416E-04 0.000E+00

     total cpu time spent up to now is       50.7 secs

     total energy              =     -26.45434730 Ry
     estimated scf accuracy    <       0.00000010 Ry

     iteration #  7     ecut=    60.00 Ry     beta= 0.20
     Davidson diagonalization with overlap
     ethr =  1.28E-09,  avg # of iterations =  1.0

     negative rho (up, down):  8.608E-05 0.000E+00

     total cpu time spent up to now is       51.6 secs

     total energy              =     -26.45434713 Ry
     estimated scf accuracy    <       0.00000005 Ry

     iteration #  8     ecut=    60.00 Ry     beta= 0.20
     Davidson diagonalization with overlap
     ethr =  6.09E-10,  avg # of iterations =  2.0

     negative rho (up, down):  7.322E-05 0.000E+00

     total cpu time spent up to now is       52.5 secs

     total energy              =     -26.45434715 Ry
     estimated scf accuracy    <          4.3E-09 Ry

     iteration #  9     ecut=    60.00 Ry     beta= 0.20
     Davidson diagonalization with overlap
     ethr =  5.36E-11,  avg # of iterations =  4.0

     negative rho (up, down):  5.174E-05 0.000E+00

     total cpu time spent up to now is       54.1 secs

     total energy              =     -26.45434717 Ry
     estimated scf accuracy    <          1.3E-09 Ry

     iteration # 10     ecut=    60.00 Ry     beta= 0.20
     Davidson diagonalization with overlap
     ethr =  1.63E-11,  avg # of iterations =  3.0

     negative rho (up, down):  5.683E-05 0.000E+00

     total cpu time spent up to now is       55.1 secs

     End of self-consistent calculation

          k = 0.0000 0.0000 0.0000 (178925 PWs)   bands (ev):

   -18.4565 -10.8639  -9.0242  -6.2094  -0.8419  -0.6206   0.0813   0.4114

     the Fermi energy is    -3.6253 ev

!    total energy              =     -26.45434717 Ry
     estimated scf accuracy    <          8.8E-10 Ry
     smearing contrib. (-TS)   =       0.00000000 Ry
     internal energy E=F+TS    =     -26.45434717 Ry

     The total energy is F=E-TS. E is the sum of the following terms:
     one-electron contribution =     -41.78054039 Ry
     hartree contribution      =      21.53077117 Ry
     xc contribution           =      -9.75471007 Ry
     ewald contribution        =       3.55173831 Ry
     DFT-D3 Dispersion         =      -0.00160618 Ry

     convergence has been achieved in  10 iterations

     negative rho (up, down):  5.683E-05 0.000E+00

     Forces acting on atoms (cartesian axes, Ry/au):

     atom    1 type  1   force =     0.00000000    0.00000000    0.00106494
     atom    2 type  2   force =    -0.00043805    0.00000000   -0.00053247
     atom    3 type  2   force =     0.00043805    0.00000000   -0.00053247

     Total force =     0.001444     Total SCF correction =     0.000049


     Computing stress (Cartesian axis) and pressure


     negative rho (up, down):  5.683E-05 0.000E+00
          total   stress  (Ry/bohr**3)                   (kbar)     P=       -0.01
  -0.00000007   0.00000000   0.00000000           -0.01        0.00        0.00
   0.00000000  -0.00000000   0.00000000            0.00       -0.00        0.00
   0.00000000   0.00000000  -0.00000009            0.00        0.00       -0.01

     Energy error            =      2.4E-04 Ry
     Gradient error          =      1.1E-03 Ry/Bohr

     number of scf cycles    =   2
     number of bfgs steps    =   1

     energy             old  =     -26.4541091567 Ry
     energy             new  =     -26.4543471653 Ry

     CASE: energy            _new < energy            _old

     new trust radius        =       0.0010011253 bohr
     new conv_thr            =       0.0000000001 Ry


ATOMIC_POSITIONS (angstrom)
S                7.5000000000        7.5000000000        7.0267897470
H                8.4683304282        7.5000000000        7.9691052983
H                6.5316695718        7.5000000000        7.9691052983



     Writing config-only to output data dir ./outdir/gas_h2s.save/ :
     XML data file
     NEW-OLD atomic charge density approx. for the potential

     negative rho (up, down):  5.683E-05 0.000E+00

     total cpu time spent up to now is       57.4 secs

     Self-consistent Calculation

     iteration #  1     ecut=    60.00 Ry     beta= 0.20
     Davidson diagonalization with overlap
     ethr =  1.00E-06,  avg # of iterations =  2.0

     Threshold (ethr) on eigenvalues was too large:
     Diagonalizing with lowered threshold

     Davidson diagonalization with overlap
     ethr =  1.79E-09,  avg # of iterations =  4.0

     negative rho (up, down):  5.425E-05 0.000E+00

     total cpu time spent up to now is       58.7 secs

     total energy              =     -26.45434820 Ry
     estimated scf accuracy    <       0.00000020 Ry

     iteration #  2     ecut=    60.00 Ry     beta= 0.20
     Davidson diagonalization with overlap
     ethr =  2.48E-09,  avg # of iterations =  1.0

     negative rho (up, down):  4.423E-05 0.000E+00

     total cpu time spent up to now is       59.6 secs

     total energy              =     -26.45434816 Ry
     estimated scf accuracy    <       0.00000013 Ry

     iteration #  3     ecut=    60.00 Ry     beta= 0.20
     Davidson diagonalization with overlap
     ethr =  1.65E-09,  avg # of iterations =  2.0

     negative rho (up, down):  4.453E-05 0.000E+00

     total cpu time spent up to now is       60.5 secs

     total energy              =     -26.45434818 Ry
     estimated scf accuracy    <          4.8E-09 Ry

     iteration #  4     ecut=    60.00 Ry     beta= 0.20
     Davidson diagonalization with overlap
     ethr =  6.05E-11,  avg # of iterations =  1.0

     negative rho (up, down):  4.637E-05 0.000E+00

     total cpu time spent up to now is       61.3 secs

     total energy              =     -26.45434816 Ry
     estimated scf accuracy    <          2.9E-09 Ry

     iteration #  5     ecut=    60.00 Ry     beta= 0.20
     Davidson diagonalization with overlap
     ethr =  3.61E-11,  avg # of iterations =  2.0

     negative rho (up, down):  4.709E-05 0.000E+00

     total cpu time spent up to now is       62.2 secs

     total energy              =     -26.45434817 Ry
     estimated scf accuracy    <          2.8E-10 Ry

     iteration #  6     ecut=    60.00 Ry     beta= 0.20
     Davidson diagonalization with overlap
     ethr =  3.51E-12,  avg # of iterations =  1.0

     negative rho (up, down):  5.091E-05 0.000E+00

     total cpu time spent up to now is       63.0 secs

     total energy              =     -26.45434817 Ry
     estimated scf accuracy    <          1.6E-10 Ry

     iteration #  7     ecut=    60.00 Ry     beta= 0.20
     Davidson diagonalization with overlap
     ethr =  1.94E-12,  avg # of iterations =  1.0

     negative rho (up, down):  5.688E-05 0.000E+00

     total cpu time spent up to now is       63.7 secs

     End of self-consistent calculation

          k = 0.0000 0.0000 0.0000 (178925 PWs)   bands (ev):

   -18.4602 -10.8690  -9.0232  -6.2097  -0.8405  -0.6163   0.0815   0.4107

     the Fermi energy is    -3.6267 ev

!    total energy              =     -26.45434817 Ry
     estimated scf accuracy    <          4.6E-11 Ry
     smearing contrib. (-TS)   =       0.00000000 Ry
     internal energy E=F+TS    =     -26.45434817 Ry

     The total energy is F=E-TS. E is the sum of the following terms:
     one-electron contribution =     -41.78884012 Ry
     hartree contribution      =      21.53483287 Ry
     xc contribution           =      -9.75551953 Ry
     ewald contribution        =       3.55678481 Ry
     DFT-D3 Dispersion         =      -0.00160620 Ry

     convergence has been achieved in   7 iterations

     negative rho (up, down):  5.688E-05 0.000E+00

     Forces acting on atoms (cartesian axes, Ry/au):

     atom    1 type  1   force =     0.00000000    0.00000000    0.00003471
     atom    2 type  2   force =     0.00000158    0.00000000   -0.00001735
     atom    3 type  2   force =    -0.00000158    0.00000000   -0.00001735

     Total force =     0.000043     Total SCF correction =     0.000004


     Computing stress (Cartesian axis) and pressure


     negative rho (up, down):  5.688E-05 0.000E+00
          total   stress  (Ry/bohr**3)                   (kbar)     P=       -0.00
  -0.00000000   0.00000000   0.00000000           -0.00        0.00        0.00
   0.00000000  -0.00000000   0.00000000            0.00       -0.00        0.00
   0.00000000   0.00000000  -0.00000001            0.00        0.00       -0.00

     Energy error            =      1.0E-06 Ry
     Gradient error          =      3.5E-05 Ry/Bohr

     bfgs converged in   3 scf cycles and   2 bfgs steps
     (criteria: energy <  1.0E-05 Ry, force <  1.0E-04 Ry/Bohr)

     End of BFGS Geometry Optimization

     Final energy             =     -26.4543481680 Ry

     File ./outdir/gas_h2s.bfgs deleted, as requested
Begin final coordinates

ATOMIC_POSITIONS (angstrom)
S                7.5000000000        7.5000000000        7.0267897470
H                8.4683304282        7.5000000000        7.9691052983
H                6.5316695718        7.5000000000        7.9691052983
End final coordinates



     Writing all to output data dir ./outdir/gas_h2s.save/ :
     XML data file, charge density, pseudopotentials, collected wavefunctions
 
     init_run     :    168.35s CPU     11.26s WALL (       1 calls)
     electrons    :     70.30s CPU     48.31s WALL (       3 calls)
     update_pot   :      1.02s CPU      0.41s WALL (       2 calls)
     forces       :      2.63s CPU      1.28s WALL (       3 calls)
     force_dftd3  :      0.05s CPU      0.00s WALL (       3 calls)
     stress       :      4.00s CPU      3.84s WALL (       3 calls)
     stres_dftd3  :      0.04s CPU      0.00s WALL (       3 calls)

     Called by init_run:
     wfcinit      :      0.09s CPU      0.19s WALL (       1 calls)
     potinit      :    165.52s CPU      7.86s WALL (       1 calls)
     hinit0       :      0.52s CPU      0.44s WALL (       1 calls)

     Called by electrons:
     c_bands      :     14.14s CPU     13.92s WALL (      41 calls)
     sum_band     :     14.19s CPU     14.14s WALL (      41 calls)
     v_of_rho     :      2.52s CPU      2.48s WALL (      43 calls)
     newd         :      5.01s CPU      5.00s WALL (      43 calls)
     mix_rho      :      8.93s CPU      7.99s WALL (      41 calls)
     energy_dftd3 :      0.00s CPU      0.00s WALL (       3 calls)

     Called by c_bands:
     init_us_2    :      0.05s CPU      0.04s WALL (      86 calls)
     cegterg      :     14.06s CPU     13.86s WALL (      41 calls)

     Called by *egterg:
     cdiaghg      :      0.10s CPU      0.12s WALL (     177 calls)
                                        0.12s GPU  (     177 calls)
     h_psi        :      0.97s CPU      1.01s WALL (     181 calls)
     s_psi        :      0.08s CPU      0.09s WALL (     181 calls)
     g_psi        :      0.01s CPU      0.01s WALL (     139 calls)

     Called by h_psi:
     h_psi:calbec :      0.06s CPU      0.15s WALL (     181 calls)
     vloc_psi     :      0.78s CPU      0.73s WALL (     181 calls)
                                        0.73s GPU  (     181 calls)
     add_vuspsi   :      0.12s CPU      0.12s WALL (     181 calls)

     General routines
     calbec       :      0.07s CPU      0.15s WALL (     273 calls)
     fft          :    147.03s CPU      7.80s WALL (     631 calls)
                                        1.10s GPU  (     588 calls)
     ffts         :     41.34s CPU      3.69s WALL (    4635 calls)
                                        1.62s GPU  (    4592 calls)
     fftw         :      0.01s CPU      0.72s WALL (     403 calls)
                                        0.72s GPU  (     403 calls)
     interpolate  :    189.97s CPU     10.04s WALL (      43 calls)
 
 
     PWSCF        :   4m 8.06s CPU   1m 5.96s WALL

 
   This run was terminated on:   3:29:49  29Jun2026            

=------------------------------------------------------------------------------=
   JOB DONE.
=------------------------------------------------------------------------------=
