
     Program PWSCF v.7.5 starts on 29Jun2026 at  3:27: 5 

     This program is part of the open-source Quantum ESPRESSO suite
     for quantum simulation of materials; please cite
         "P. Giannozzi et al., J. Phys.:Condens. Matter 21 395502 (2009);
         "P. Giannozzi et al., J. Phys.:Condens. Matter 29 465901 (2017);
         "P. Giannozzi et al., J. Chem. Phys. 152 154105 (2020);
          URL http://www.quantum-espresso.org", 
     in publications or presentations arising from this work. More details at
     http://www.quantum-espresso.org/quote

     Serial multi-threaded version, running on   32 processor cores
     40220 MiB available memory on the printing compute node when the environment starts
 
     Reading input from inputs/gas_nh3.in

     Current dimensions of program PWSCF are:
     Max number of different atomic species (ntypx) = 10
     Max number of k-points (npk) =  40000
     Max angular momentum in pseudopotentials (lmaxx) =  4
     Message from routine setup:
     using ibrav=0 with symmetry is DISCOURAGED, use correct ibrav instead
 
 
     G-vector sticks info
     --------------------
     sticks:   dense  smooth     PW     G-vecs:    dense   smooth      PW
     Sum       38393   15329   3833              5653693  1429635  178925
 
     Using Slab Decomposition
 


     bravais-lattice index     =            0
     lattice parameter (alat)  =      28.3459  a.u.
     unit-cell volume          =   22775.6289 (a.u.)^3
     number of atoms/cell      =            4
     number of atomic types    =            2
     number of electrons       =         8.00
     number of Kohn-Sham states=            8
     kinetic-energy cutoff     =      60.0000  Ry
     charge density cutoff     =     600.0000  Ry
     scf convergence threshold =      1.0E-09
     mixing beta               =       0.2000
     number of iterations used =            8  local-TF  mixing
     energy convergence thresh.=      1.0E-05
     force convergence thresh. =      1.0E-04
     Exchange-correlation= PBE
                           (   1   4   3   4   0   0   0)
     nstep                     =          200


     GPU acceleration is ACTIVE.  1 visible GPUs per MPI rank


     celldm(1)=  28.345892  celldm(2)=   0.000000  celldm(3)=   0.000000
     celldm(4)=   0.000000  celldm(5)=   0.000000  celldm(6)=   0.000000

     crystal axes: (cart. coord. in units of alat)
               a(1) = (   1.000000   0.000000   0.000000 )  
               a(2) = (   0.000000   1.000000   0.000000 )  
               a(3) = (   0.000000   0.000000   1.000000 )  

     reciprocal axes: (cart. coord. in units 2 pi/alat)
               b(1) = (  1.000000  0.000000  0.000000 )  
               b(2) = (  0.000000  1.000000  0.000000 )  
               b(3) = (  0.000000  0.000000  1.000000 )  


     PseudoPot. # 1 for N  read from file:
     /home/x/Workspace/3-hEspesso/pseudo/N.pbe-n-radius_5.UPF
     MD5 check sum: 16739722b17309cd8fe442a2ace49922
     Pseudo is Ultrasoft + core correction, Zval =  5.0
     Generated using "atomic" code by A. Dal Corso  v.5.1
     Using radial grid of 1085 points,  4 beta functions with: 
                l(1) =   0
                l(2) =   0
                l(3) =   1
                l(4) =   1
     Q(r) pseudized with 0 coefficients 


     PseudoPot. # 2 for H  read from file:
     /home/x/Workspace/3-hEspesso/pseudo/H.pbe-rrkjus_psl.1.0.0.UPF
     MD5 check sum: f52b6d4d1c606e5624b1dc7b2218f220
     Pseudo is Ultrasoft, Zval =  1.0
     Generated using "atomic" code by A. Dal Corso  v.5.1
     Using radial grid of  929 points,  2 beta functions with: 
                l(1) =   0
                l(2) =   0
     Q(r) pseudized with 0 coefficients 


     atomic species   valence    mass     pseudopotential
     N                 5.00    14.00700     N ( 1.00)
     H                 1.00     1.00800     H ( 1.00)

      2 Sym. Ops. (no inversion) found



   Cartesian axes

     site n.     atom                  positions (alat units)
         1        N      tau(   1) = (   0.5000000   0.4843378   0.5129432  )
         2        H      tau(   2) = (   0.5000000   0.5469865   0.4870568  )
         3        H      tau(   3) = (   0.5542554   0.4530135   0.4870568  )
         4        H      tau(   4) = (   0.4457446   0.4530135   0.4870568  )

     --------------------------------------------
     DFT-D3 Dispersion Correction (3-body terms):
     --------------------------------------------
       Reference C6 values for interpolation: 

         atom   Coordination number   C6
         H          0.912             6.05
         H          0.000            15.18
         N          0.000            50.54
         N          0.994            44.25
         N          2.014            39.35
         N          2.990            31.16

       Values used:

         atom   Coordination number  R0_AB[au]  C6      C8
         N          2.989            2.478     31.33    691.18
         H          0.997            2.062      6.18     74.75
         H          0.997            2.062      6.18     74.75
         H          0.997            2.062      6.18     74.75

         Molecular C6 ( Ry / a.u.^6 ) =       169.34


     number of k points=     1  Marzari-Vanderbilt smearing, width (Ry)=  0.0100
                       cart. coord. in units 2pi/alat
        k(    1) = (   0.0000000   0.0000000   0.0000000), wk =   2.0000000

     Dense  grid:  5653693 G-vectors     FFT dimensions: ( 225, 225, 225)

     Smooth grid:  1429635 G-vectors     FFT dimensions: ( 144, 144, 144)

     Estimated max dynamical RAM per process >       7.51 GB

     Initial potential from superposition of free atoms

     starting charge       8.0000, renormalised to       8.0000

     negative rho (up, down):  6.643E-05 0.000E+00
     Starting wfcs are    7 randomized atomic wfcs +    1 random wfcs

     total cpu time spent up to now is       10.1 secs

     Self-consistent Calculation

     iteration #  1     ecut=    60.00 Ry     beta= 0.20
     Davidson diagonalization with overlap
     ethr =  1.00E-02,  avg # of iterations =  6.0

     negative rho (up, down):  8.125E-08 0.000E+00

     total cpu time spent up to now is       11.4 secs

     total energy              =     -23.90958547 Ry
     estimated scf accuracy    <       0.64042048 Ry

     iteration #  2     ecut=    60.00 Ry     beta= 0.20
     Davidson diagonalization with overlap
     ethr =  8.01E-03,  avg # of iterations =  1.0

     negative rho (up, down):  4.407E-08 0.000E+00

     total cpu time spent up to now is       12.2 secs

     total energy              =     -23.69973874 Ry
     estimated scf accuracy    <       0.42897805 Ry

     iteration #  3     ecut=    60.00 Ry     beta= 0.20
     Davidson diagonalization with overlap
     ethr =  5.36E-03,  avg # of iterations =  2.0

     total cpu time spent up to now is       13.2 secs

     total energy              =     -23.77712729 Ry
     estimated scf accuracy    <       0.03910914 Ry

     iteration #  4     ecut=    60.00 Ry     beta= 0.20
     Davidson diagonalization with overlap
     ethr =  4.89E-04,  avg # of iterations =  7.0

     negative rho (up, down):  9.644E-03 0.000E+00

     total cpu time spent up to now is       13.9 secs

     total energy              =     -23.77460358 Ry
     estimated scf accuracy    <       0.03150664 Ry

     iteration #  5     ecut=    60.00 Ry     beta= 0.20
     Davidson diagonalization with overlap
     ethr =  3.94E-04,  avg # of iterations =  2.0

     negative rho (up, down):  1.132E-02 0.000E+00

     total cpu time spent up to now is       14.9 secs

     total energy              =     -23.77751283 Ry
     estimated scf accuracy    <       0.02373832 Ry

     iteration #  6     ecut=    60.00 Ry     beta= 0.20
     Davidson diagonalization with overlap
     ethr =  2.97E-04,  avg # of iterations =  1.0

     negative rho (up, down):  9.164E-03 0.000E+00

     total cpu time spent up to now is       15.7 secs

     total energy              =     -23.77789508 Ry
     estimated scf accuracy    <       0.02786171 Ry

     iteration #  7     ecut=    60.00 Ry     beta= 0.20
     Davidson diagonalization with overlap
     ethr =  2.97E-04,  avg # of iterations =  1.0

     negative rho (up, down):  3.014E-02 0.000E+00

     total cpu time spent up to now is       16.4 secs

     total energy              =     -23.78539183 Ry
     estimated scf accuracy    <       0.02969669 Ry

     iteration #  8     ecut=    60.00 Ry     beta= 0.20
     Davidson diagonalization with overlap
     ethr =  2.97E-04,  avg # of iterations =  1.0

     negative rho (up, down):  8.623E-02 0.000E+00

     total cpu time spent up to now is       17.1 secs

     total energy              =     -23.75203487 Ry
     estimated scf accuracy    <       0.05688105 Ry

     iteration #  9     ecut=    60.00 Ry     beta= 0.20
     Davidson diagonalization with overlap
     ethr =  2.97E-04,  avg # of iterations =  4.0

     negative rho (up, down):  5.544E-02 0.000E+00

     total cpu time spent up to now is       18.2 secs

     total energy              =     -23.77017383 Ry
     estimated scf accuracy    <       0.03724105 Ry

     iteration # 10     ecut=    60.00 Ry     beta= 0.20
     Davidson diagonalization with overlap
     ethr =  2.97E-04,  avg # of iterations =  1.0

     negative rho (up, down):  5.020E-02 0.000E+00

     total cpu time spent up to now is       18.9 secs

     total energy              =     -23.77231870 Ry
     estimated scf accuracy    <       0.01438416 Ry

     iteration # 11     ecut=    60.00 Ry     beta= 0.20
     Davidson diagonalization with overlap
     ethr =  1.80E-04,  avg # of iterations =  4.0

     negative rho (up, down):  5.240E-02 0.000E+00

     total cpu time spent up to now is       19.7 secs

     total energy              =     -23.77238392 Ry
     estimated scf accuracy    <       0.06808812 Ry

     iteration # 12     ecut=    60.00 Ry     beta= 0.20
     Davidson diagonalization with overlap
     ethr =  1.80E-04,  avg # of iterations =  2.0

     negative rho (up, down):  3.084E-02 0.000E+00

     total cpu time spent up to now is       20.4 secs

     total energy              =     -23.77625053 Ry
     estimated scf accuracy    <       0.02836904 Ry

     iteration # 13     ecut=    60.00 Ry     beta= 0.20
     Davidson diagonalization with overlap
     ethr =  1.80E-04,  avg # of iterations =  1.0

     negative rho (up, down):  1.570E-02 0.000E+00

     total cpu time spent up to now is       21.1 secs

     total energy              =     -23.76562715 Ry
     estimated scf accuracy    <       0.02866936 Ry

     iteration # 14     ecut=    60.00 Ry     beta= 0.20
     Davidson diagonalization with overlap
     ethr =  1.80E-04,  avg # of iterations =  2.0

     negative rho (up, down):  1.159E-02 0.000E+00

     total cpu time spent up to now is       21.8 secs

     total energy              =     -23.76898831 Ry
     estimated scf accuracy    <       0.00296645 Ry

     iteration # 15     ecut=    60.00 Ry     beta= 0.20
     Davidson diagonalization with overlap
     ethr =  3.71E-05,  avg # of iterations =  4.0

     negative rho (up, down):  2.760E-03 0.000E+00

     total cpu time spent up to now is       22.6 secs

     total energy              =     -23.76923686 Ry
     estimated scf accuracy    <       0.00223400 Ry

     iteration # 16     ecut=    60.00 Ry     beta= 0.20
     Davidson diagonalization with overlap
     ethr =  2.79E-05,  avg # of iterations =  2.0

     negative rho (up, down):  3.198E-03 0.000E+00

     total cpu time spent up to now is       23.3 secs

     total energy              =     -23.76890829 Ry
     estimated scf accuracy    <       0.00145210 Ry

     iteration # 17     ecut=    60.00 Ry     beta= 0.20
     Davidson diagonalization with overlap
     ethr =  1.82E-05,  avg # of iterations =  2.0

     negative rho (up, down):  3.061E-03 0.000E+00

     total cpu time spent up to now is       24.0 secs

     total energy              =     -23.76912891 Ry
     estimated scf accuracy    <       0.00009049 Ry

     iteration # 18     ecut=    60.00 Ry     beta= 0.20
     Davidson diagonalization with overlap
     ethr =  1.13E-06,  avg # of iterations =  6.0

     negative rho (up, down):  1.381E-03 0.000E+00

     total cpu time spent up to now is       24.8 secs

     total energy              =     -23.76909186 Ry
     estimated scf accuracy    <       0.00004500 Ry

     iteration # 19     ecut=    60.00 Ry     beta= 0.20
     Davidson diagonalization with overlap
     ethr =  5.63E-07,  avg # of iterations =  6.0

     negative rho (up, down):  4.462E-04 0.000E+00

     total cpu time spent up to now is       26.4 secs

     total energy              =     -23.76910544 Ry
     estimated scf accuracy    <       0.00000468 Ry

     iteration # 20     ecut=    60.00 Ry     beta= 0.20
     Davidson diagonalization with overlap
     ethr =  5.85E-08,  avg # of iterations =  6.0

     negative rho (up, down):  6.718E-04 0.000E+00

     total cpu time spent up to now is       27.1 secs

     total energy              =     -23.76910720 Ry
     estimated scf accuracy    <       0.00000186 Ry

     iteration # 21     ecut=    60.00 Ry     beta= 0.20
     Davidson diagonalization with overlap
     ethr =  2.32E-08,  avg # of iterations =  1.0

     negative rho (up, down):  1.112E-03 0.000E+00

     total cpu time spent up to now is       27.8 secs

     total energy              =     -23.76910554 Ry
     estimated scf accuracy    <       0.00000128 Ry

     iteration # 22     ecut=    60.00 Ry     beta= 0.20
     Davidson diagonalization with overlap
     ethr =  1.59E-08,  avg # of iterations =  4.0

     negative rho (up, down):  1.065E-03 0.000E+00

     total cpu time spent up to now is       29.2 secs

     total energy              =     -23.76910556 Ry
     estimated scf accuracy    <       0.00000095 Ry

     iteration # 23     ecut=    60.00 Ry     beta= 0.20
     Davidson diagonalization with overlap
     ethr =  1.19E-08,  avg # of iterations =  1.0

     negative rho (up, down):  9.254E-04 0.000E+00

     total cpu time spent up to now is       29.9 secs

     total energy              =     -23.76910413 Ry
     estimated scf accuracy    <       0.00000092 Ry

     iteration # 24     ecut=    60.00 Ry     beta= 0.20
     Davidson diagonalization with overlap
     ethr =  1.15E-08,  avg # of iterations =  2.0

     negative rho (up, down):  3.235E-04 0.000E+00

     total cpu time spent up to now is       30.6 secs

     total energy              =     -23.76910226 Ry
     estimated scf accuracy    <       0.00000038 Ry

     iteration # 25     ecut=    60.00 Ry     beta= 0.20
     Davidson diagonalization with overlap
     ethr =  4.69E-09,  avg # of iterations =  2.0

     negative rho (up, down):  2.193E-04 0.000E+00

     total cpu time spent up to now is       31.3 secs

     total energy              =     -23.76910191 Ry
     estimated scf accuracy    <       0.00000020 Ry

     iteration # 26     ecut=    60.00 Ry     beta= 0.20
     Davidson diagonalization with overlap
     ethr =  2.52E-09,  avg # of iterations =  2.0

     negative rho (up, down):  1.572E-04 0.000E+00

     total cpu time spent up to now is       32.0 secs

     total energy              =     -23.76910199 Ry
     estimated scf accuracy    <       0.00000003 Ry

     iteration # 27     ecut=    60.00 Ry     beta= 0.20
     Davidson diagonalization with overlap
     ethr =  3.92E-10,  avg # of iterations =  4.0

     negative rho (up, down):  1.119E-04 0.000E+00

     total cpu time spent up to now is       32.8 secs

     total energy              =     -23.76910199 Ry
     estimated scf accuracy    <       0.00000004 Ry

     iteration # 28     ecut=    60.00 Ry     beta= 0.20
     Davidson diagonalization with overlap
     ethr =  3.92E-10,  avg # of iterations =  4.0

     negative rho (up, down):  1.096E-04 0.000E+00

     total cpu time spent up to now is       33.5 secs

     total energy              =     -23.76910215 Ry
     estimated scf accuracy    <       0.00000021 Ry

     iteration # 29     ecut=    60.00 Ry     beta= 0.20
     Davidson diagonalization with overlap
     ethr =  3.92E-10,  avg # of iterations =  2.0

     negative rho (up, down):  1.376E-04 0.000E+00

     total cpu time spent up to now is       34.2 secs

     total energy              =     -23.76910199 Ry
     estimated scf accuracy    <       0.00000037 Ry

     iteration # 30     ecut=    60.00 Ry     beta= 0.20
     Davidson diagonalization with overlap
     ethr =  3.92E-10,  avg # of iterations =  4.0

     negative rho (up, down):  1.273E-04 0.000E+00

     total cpu time spent up to now is       34.9 secs

     total energy              =     -23.76910205 Ry
     estimated scf accuracy    <       0.00000002 Ry

     iteration # 31     ecut=    60.00 Ry     beta= 0.20
     Davidson diagonalization with overlap
     ethr =  2.79E-10,  avg # of iterations =  1.0

     negative rho (up, down):  1.305E-04 0.000E+00

     total cpu time spent up to now is       35.6 secs

     total energy              =     -23.76910207 Ry
     estimated scf accuracy    <          7.3E-09 Ry

     iteration # 32     ecut=    60.00 Ry     beta= 0.20
     Davidson diagonalization with overlap
     ethr =  9.13E-11,  avg # of iterations =  3.0

     negative rho (up, down):  1.372E-04 0.000E+00

     total cpu time spent up to now is       36.4 secs

     total energy              =     -23.76910209 Ry
     estimated scf accuracy    <       0.00000004 Ry

     iteration # 33     ecut=    60.00 Ry     beta= 0.20
     Davidson diagonalization with overlap
     ethr =  9.13E-11,  avg # of iterations =  1.0

     negative rho (up, down):  1.361E-04 0.000E+00

     total cpu time spent up to now is       37.1 secs

     total energy              =     -23.76910205 Ry
     estimated scf accuracy    <       0.00000004 Ry

     iteration # 34     ecut=    60.00 Ry     beta= 0.20
     Davidson diagonalization with overlap
     ethr =  9.13E-11,  avg # of iterations =  3.0

     negative rho (up, down):  1.251E-04 0.000E+00

     total cpu time spent up to now is       37.8 secs

     total energy              =     -23.76910206 Ry
     estimated scf accuracy    <          7.2E-09 Ry

     iteration # 35     ecut=    60.00 Ry     beta= 0.20
     Davidson diagonalization with overlap
     ethr =  9.06E-11,  avg # of iterations =  1.0

     negative rho (up, down):  1.140E-04 0.000E+00

     total cpu time spent up to now is       38.5 secs

     total energy              =     -23.76910206 Ry
     estimated scf accuracy    <          5.2E-09 Ry

     iteration # 36     ecut=    60.00 Ry     beta= 0.20
     Davidson diagonalization with overlap
     ethr =  6.54E-11,  avg # of iterations =  2.0

     negative rho (up, down):  1.093E-04 0.000E+00

     total cpu time spent up to now is       39.2 secs

     total energy              =     -23.76910207 Ry
     estimated scf accuracy    <          1.3E-09 Ry

     iteration # 37     ecut=    60.00 Ry     beta= 0.20
     Davidson diagonalization with overlap
     ethr =  1.62E-11,  avg # of iterations =  3.0

     negative rho (up, down):  1.099E-04 0.000E+00

     total cpu time spent up to now is       40.2 secs

     total energy              =     -23.76910208 Ry
     estimated scf accuracy    <          1.6E-09 Ry

     iteration # 38     ecut=    60.00 Ry     beta= 0.20
     Davidson diagonalization with overlap
     ethr =  1.62E-11,  avg # of iterations =  2.0

     negative rho (up, down):  1.152E-04 0.000E+00

     total cpu time spent up to now is       40.8 secs

     End of self-consistent calculation

          k = 0.0000 0.0000 0.0000 (178925 PWs)   bands (ev):

   -21.1565 -11.2320 -11.2320  -6.1534  -0.7263   0.0785   0.3983   0.3991

     the Fermi energy is    -4.3095 ev

!    total energy              =     -23.76910208 Ry
     estimated scf accuracy    <          2.9E-10 Ry
     smearing contrib. (-TS)   =       0.00000000 Ry
     internal energy E=F+TS    =     -23.76910208 Ry

     The total energy is F=E-TS. E is the sum of the following terms:
     one-electron contribution =     -56.83543908 Ry
     hartree contribution      =      29.48800394 Ry
     xc contribution           =      -7.59326865 Ry
     ewald contribution        =      11.17312902 Ry
     DFT-D3 Dispersion         =      -0.00152730 Ry

     convergence has been achieved in  38 iterations

     negative rho (up, down):  1.152E-04 0.000E+00

     Forces acting on atoms (cartesian axes, Ry/au):

     atom    1 type  1   force =     0.00000000    0.00000010    0.00507128
     atom    2 type  2   force =     0.00000000    0.00659763   -0.00168955
     atom    3 type  2   force =     0.00571407   -0.00329886   -0.00169086
     atom    4 type  2   force =    -0.00571407   -0.00329886   -0.00169086

     Total force =     0.012841     Total SCF correction =     0.000007


     Computing stress (Cartesian axis) and pressure


     negative rho (up, down):  1.152E-04 0.000E+00
          total   stress  (Ry/bohr**3)                   (kbar)     P=        0.07
   0.00000067   0.00000000   0.00000000            0.10        0.00        0.00
   0.00000000   0.00000067   0.00000000            0.00        0.10        0.00
   0.00000000   0.00000000   0.00000004            0.00        0.00        0.01


     BFGS Geometry Optimization
     Energy error            =      1.6E-04 Ry
     Gradient error          =      6.6E-03 Ry/Bohr

     number of scf cycles    =   1
     number of bfgs steps    =   0

     energy             new  =     -23.7691020781 Ry

     new trust radius        =       0.0068111804 bohr
     new conv_thr            =       0.0000000010 Ry


ATOMIC_POSITIONS (angstrom)
N                7.5000000000        7.2650670513        7.6968321039
H                7.5000000000        8.2082893170        7.3049574281
H                8.3168547582        6.7934563159        7.3049567340
H                6.6831452418        6.7934563159        7.3049567340



     Writing config-only to output data dir ./outdir/gas_nh3.save/ :
     XML data file
     NEW-OLD atomic charge density approx. for the potential

     negative rho (up, down):  1.144E-04 0.000E+00

     total cpu time spent up to now is       42.0 secs

     Self-consistent Calculation

     iteration #  1     ecut=    60.00 Ry     beta= 0.20
     Davidson diagonalization with overlap
     ethr =  1.00E-06,  avg # of iterations =  3.0

     negative rho (up, down):  2.295E-04 0.000E+00

     total cpu time spent up to now is       42.8 secs

     total energy              =     -23.76918980 Ry
     estimated scf accuracy    <       0.00009504 Ry

     iteration #  2     ecut=    60.00 Ry     beta= 0.20
     Davidson diagonalization with overlap
     ethr =  1.19E-06,  avg # of iterations =  1.0

     negative rho (up, down):  1.004E-03 0.000E+00

     total cpu time spent up to now is       43.5 secs

     total energy              =     -23.76915667 Ry
     estimated scf accuracy    <       0.00006167 Ry

     iteration #  3     ecut=    60.00 Ry     beta= 0.20
     Davidson diagonalization with overlap
     ethr =  7.71E-07,  avg # of iterations =  2.0

     negative rho (up, down):  8.190E-04 0.000E+00

     total cpu time spent up to now is       44.2 secs

     total energy              =     -23.76917521 Ry
     estimated scf accuracy    <       0.00000476 Ry

     iteration #  4     ecut=    60.00 Ry     beta= 0.20
     Davidson diagonalization with overlap
     ethr =  5.95E-08,  avg # of iterations =  2.0

     negative rho (up, down):  6.383E-04 0.000E+00

     total cpu time spent up to now is       44.9 secs

     total energy              =     -23.76917491 Ry
     estimated scf accuracy    <       0.00000349 Ry

     iteration #  5     ecut=    60.00 Ry     beta= 0.20
     Davidson diagonalization with overlap
     ethr =  4.36E-08,  avg # of iterations =  1.0

     negative rho (up, down):  3.891E-04 0.000E+00

     total cpu time spent up to now is       45.6 secs

     total energy              =     -23.76917427 Ry
     estimated scf accuracy    <       0.00000149 Ry

     iteration #  6     ecut=    60.00 Ry     beta= 0.20
     Davidson diagonalization with overlap
     ethr =  1.87E-08,  avg # of iterations =  2.0

     negative rho (up, down):  3.872E-04 0.000E+00

     total cpu time spent up to now is       46.4 secs

     total energy              =     -23.76917465 Ry
     estimated scf accuracy    <       0.00000026 Ry

     iteration #  7     ecut=    60.00 Ry     beta= 0.20
     Davidson diagonalization with overlap
     ethr =  3.20E-09,  avg # of iterations =  1.0

     negative rho (up, down):  3.826E-04 0.000E+00

     total cpu time spent up to now is       47.1 secs

     total energy              =     -23.76917453 Ry
     estimated scf accuracy    <       0.00000030 Ry

     iteration #  8     ecut=    60.00 Ry     beta= 0.20
     Davidson diagonalization with overlap
     ethr =  3.20E-09,  avg # of iterations =  1.0

     negative rho (up, down):  3.310E-04 0.000E+00

     total cpu time spent up to now is       47.9 secs

     total energy              =     -23.76917444 Ry
     estimated scf accuracy    <       0.00000007 Ry

     iteration #  9     ecut=    60.00 Ry     beta= 0.20
     Davidson diagonalization with overlap
     ethr =  9.23E-10,  avg # of iterations =  3.0

     negative rho (up, down):  2.385E-04 0.000E+00

     total cpu time spent up to now is       48.7 secs

     total energy              =     -23.76917439 Ry
     estimated scf accuracy    <       0.00000009 Ry

     iteration # 10     ecut=    60.00 Ry     beta= 0.20
     Davidson diagonalization with overlap
     ethr =  9.23E-10,  avg # of iterations =  2.0

     negative rho (up, down):  1.406E-04 0.000E+00

     total cpu time spent up to now is       49.5 secs

     total energy              =     -23.76917434 Ry
     estimated scf accuracy    <          8.0E-09 Ry

     iteration # 11     ecut=    60.00 Ry     beta= 0.20
     Davidson diagonalization with overlap
     ethr =  1.00E-10,  avg # of iterations =  4.0

     negative rho (up, down):  1.267E-04 0.000E+00

     total cpu time spent up to now is       50.3 secs

     total energy              =     -23.76917431 Ry
     estimated scf accuracy    <       0.00000010 Ry

     iteration # 12     ecut=    60.00 Ry     beta= 0.20
     Davidson diagonalization with overlap
     ethr =  1.00E-10,  avg # of iterations =  4.0

     negative rho (up, down):  1.149E-04 0.000E+00

     total cpu time spent up to now is       51.1 secs

     total energy              =     -23.76917429 Ry
     estimated scf accuracy    <       0.00000002 Ry

     iteration # 13     ecut=    60.00 Ry     beta= 0.20
     Davidson diagonalization with overlap
     ethr =  1.00E-10,  avg # of iterations =  4.0

     negative rho (up, down):  1.140E-04 0.000E+00

     total cpu time spent up to now is       51.6 secs

     End of self-consistent calculation

          k = 0.0000 0.0000 0.0000 (178925 PWs)   bands (ev):

   -21.1133 -11.1962 -11.1962  -6.1592  -0.7363   0.0767   0.3959   0.3969

     the Fermi energy is    -4.3004 ev

!    total energy              =     -23.76917431 Ry
     estimated scf accuracy    <          2.6E-10 Ry
     smearing contrib. (-TS)   =       0.00000000 Ry
     internal energy E=F+TS    =     -23.76917431 Ry

     The total energy is F=E-TS. E is the sum of the following terms:
     one-electron contribution =     -56.70498836 Ry
     hartree contribution      =      29.42341617 Ry
     xc contribution           =      -7.58187218 Ry
     ewald contribution        =      11.09579723 Ry
     DFT-D3 Dispersion         =      -0.00152717 Ry

     convergence has been achieved in  13 iterations

     negative rho (up, down):  1.140E-04 0.000E+00

     Forces acting on atoms (cartesian axes, Ry/au):

     atom    1 type  1   force =     0.00000000   -0.00000029   -0.00228339
     atom    2 type  2   force =     0.00000000   -0.00021889    0.00076165
     atom    3 type  2   force =    -0.00018965    0.00010959    0.00076087
     atom    4 type  2   force =     0.00018965    0.00010959    0.00076087

     Total force =     0.002664     Total SCF correction =     0.000012


     Computing stress (Cartesian axis) and pressure


     negative rho (up, down):  1.140E-04 0.000E+00
          total   stress  (Ry/bohr**3)                   (kbar)     P=       -0.02
  -0.00000013   0.00000000   0.00000000           -0.02        0.00        0.00
   0.00000000  -0.00000013   0.00000000            0.00       -0.02        0.00
   0.00000000   0.00000000  -0.00000020            0.00        0.00       -0.03

     Energy error            =      7.2E-05 Ry
     Gradient error          =      2.3E-03 Ry/Bohr

     number of scf cycles    =   2
     number of bfgs steps    =   1

     energy             old  =     -23.7691020781 Ry
     energy             new  =     -23.7691743107 Ry

     CASE: energy            _new < energy            _old

     new trust radius        =       0.0019230297 bohr
     new conv_thr            =            7.2E-11 Ry


ATOMIC_POSITIONS (angstrom)
N                7.5000000000        7.2650669141        7.6958144805
H                7.5000000000        8.2082656427        7.3052968916
H                8.3168342220        6.7934682216        7.3052958140
H                6.6831657780        6.7934682216        7.3052958140



     Writing config-only to output data dir ./outdir/gas_nh3.save/ :
     XML data file
     NEW-OLD atomic charge density approx. for the potential

     negative rho (up, down):  1.140E-04 0.000E+00

     total cpu time spent up to now is       52.9 secs

     Self-consistent Calculation

     iteration #  1     ecut=    60.00 Ry     beta= 0.20
     Davidson diagonalization with overlap
     ethr =  1.00E-06,  avg # of iterations =  2.0

     Threshold (ethr) on eigenvalues was too large:
     Diagonalizing with lowered threshold

     Davidson diagonalization with overlap
     ethr =  1.67E-08,  avg # of iterations =  2.0

     negative rho (up, down):  1.017E-04 0.000E+00

     total cpu time spent up to now is       54.0 secs

     total energy              =     -23.76917898 Ry
     estimated scf accuracy    <       0.00000172 Ry

     iteration #  2     ecut=    60.00 Ry     beta= 0.20
     Davidson diagonalization with overlap
     ethr =  2.15E-08,  avg # of iterations =  1.0

     negative rho (up, down):  7.600E-05 0.000E+00

     total cpu time spent up to now is       54.7 secs

     total energy              =     -23.76917856 Ry
     estimated scf accuracy    <       0.00000094 Ry

     iteration #  3     ecut=    60.00 Ry     beta= 0.20
     Davidson diagonalization with overlap
     ethr =  1.18E-08,  avg # of iterations =  2.0

     negative rho (up, down):  7.960E-05 0.000E+00

     total cpu time spent up to now is       55.4 secs

     total energy              =     -23.76917874 Ry
     estimated scf accuracy    <       0.00000005 Ry

     iteration #  4     ecut=    60.00 Ry     beta= 0.20
     Davidson diagonalization with overlap
     ethr =  6.81E-10,  avg # of iterations =  3.0

     negative rho (up, down):  9.552E-05 0.000E+00

     total cpu time spent up to now is       56.2 secs

     total energy              =     -23.76917872 Ry
     estimated scf accuracy    <       0.00000005 Ry

     iteration #  5     ecut=    60.00 Ry     beta= 0.20
     Davidson diagonalization with overlap
     ethr =  5.90E-10,  avg # of iterations =  3.0

     negative rho (up, down):  9.496E-05 0.000E+00

     total cpu time spent up to now is       56.9 secs

     total energy              =     -23.76917872 Ry
     estimated scf accuracy    <       0.00000004 Ry

     iteration #  6     ecut=    60.00 Ry     beta= 0.20
     Davidson diagonalization with overlap
     ethr =  4.80E-10,  avg # of iterations =  2.0

     negative rho (up, down):  9.681E-05 0.000E+00

     total cpu time spent up to now is       57.7 secs

     total energy              =     -23.76917874 Ry
     estimated scf accuracy    <          2.1E-09 Ry

     iteration #  7     ecut=    60.00 Ry     beta= 0.20
     Davidson diagonalization with overlap
     ethr =  2.60E-11,  avg # of iterations =  3.0

     negative rho (up, down):  1.069E-04 0.000E+00

     total cpu time spent up to now is       58.5 secs

     total energy              =     -23.76917874 Ry
     estimated scf accuracy    <          2.6E-09 Ry

     iteration #  8     ecut=    60.00 Ry     beta= 0.20
     Davidson diagonalization with overlap
     ethr =  2.60E-11,  avg # of iterations =  3.0

     negative rho (up, down):  1.075E-04 0.000E+00

     total cpu time spent up to now is       59.3 secs

     total energy              =     -23.76917875 Ry
     estimated scf accuracy    <          2.3E-09 Ry

     iteration #  9     ecut=    60.00 Ry     beta= 0.20
     Davidson diagonalization with overlap
     ethr =  2.60E-11,  avg # of iterations =  1.0

     negative rho (up, down):  1.076E-04 0.000E+00

     total cpu time spent up to now is       60.1 secs

     total energy              =     -23.76917875 Ry
     estimated scf accuracy    <          7.4E-10 Ry

     iteration # 10     ecut=    60.00 Ry     beta= 0.20
     Davidson diagonalization with overlap
     ethr =  9.21E-12,  avg # of iterations =  1.0

     negative rho (up, down):  1.091E-04 0.000E+00

     total cpu time spent up to now is       60.9 secs

     total energy              =     -23.76917875 Ry
     estimated scf accuracy    <          5.8E-10 Ry

     iteration # 11     ecut=    60.00 Ry     beta= 0.20
     Davidson diagonalization with overlap
     ethr =  7.19E-12,  avg # of iterations =  2.0

     negative rho (up, down):  1.107E-04 0.000E+00

     total cpu time spent up to now is       61.9 secs

     total energy              =     -23.76917875 Ry
     estimated scf accuracy    <          2.6E-10 Ry

     iteration # 12     ecut=    60.00 Ry     beta= 0.20
     Davidson diagonalization with overlap
     ethr =  3.19E-12,  avg # of iterations =  1.0

     negative rho (up, down):  1.107E-04 0.000E+00

     total cpu time spent up to now is       62.7 secs

     total energy              =     -23.76917875 Ry
     estimated scf accuracy    <          2.9E-10 Ry

     iteration # 13     ecut=    60.00 Ry     beta= 0.20
     Davidson diagonalization with overlap
     ethr =  3.19E-12,  avg # of iterations =  1.0

     negative rho (up, down):  1.109E-04 0.000E+00

     total cpu time spent up to now is       63.4 secs

     total energy              =     -23.76917875 Ry
     estimated scf accuracy    <          3.1E-10 Ry

     iteration # 14     ecut=    60.00 Ry     beta= 0.20
     Davidson diagonalization with overlap
     ethr =  3.19E-12,  avg # of iterations =  1.0

     negative rho (up, down):  1.110E-04 0.000E+00

     total cpu time spent up to now is       64.2 secs

     total energy              =     -23.76917875 Ry
     estimated scf accuracy    <          1.1E-10 Ry

     iteration # 15     ecut=    60.00 Ry     beta= 0.20
     Davidson diagonalization with overlap
     ethr =  1.33E-12,  avg # of iterations =  1.0

     negative rho (up, down):  1.141E-04 0.000E+00

     total cpu time spent up to now is       64.8 secs

     End of self-consistent calculation

          k = 0.0000 0.0000 0.0000 (178925 PWs)   bands (ev):

   -21.1157 -11.2026 -11.2026  -6.1544  -0.7347   0.0770   0.3963   0.3972

     the Fermi energy is    -4.3007 ev

!    total energy              =     -23.76917875 Ry
     estimated scf accuracy    <          7.0E-11 Ry
     smearing contrib. (-TS)   =       0.00000000 Ry
     internal energy E=F+TS    =     -23.76917875 Ry

     The total energy is F=E-TS. E is the sum of the following terms:
     one-electron contribution =     -56.71914672 Ry
     hartree contribution      =      29.43056266 Ry
     xc contribution           =      -7.58315054 Ry
     ewald contribution        =      11.10408300 Ry
     DFT-D3 Dispersion         =      -0.00152716 Ry

     convergence has been achieved in  15 iterations

     negative rho (up, down):  1.141E-04 0.000E+00

     Forces acting on atoms (cartesian axes, Ry/au):

     atom    1 type  1   force =     0.00000000   -0.00000109   -0.00119556
     atom    2 type  2   force =     0.00000000    0.00039716    0.00039911
     atom    3 type  2   force =     0.00034333   -0.00019804    0.00039823
     atom    4 type  2   force =    -0.00034333   -0.00019804    0.00039823

     Total force =     0.001542     Total SCF correction =     0.000015


     Computing stress (Cartesian axis) and pressure


     negative rho (up, down):  1.141E-04 0.000E+00
          total   stress  (Ry/bohr**3)                   (kbar)     P=       -0.01
  -0.00000006   0.00000000   0.00000000           -0.01        0.00        0.00
   0.00000000  -0.00000006  -0.00000000            0.00       -0.01       -0.00
   0.00000000  -0.00000000  -0.00000016            0.00       -0.00       -0.02

     Energy error            =      4.4E-06 Ry
     Gradient error          =      1.2E-03 Ry/Bohr

     number of scf cycles    =   3
     number of bfgs steps    =   2

     energy             old  =     -23.7691743107 Ry
     energy             new  =     -23.7691787535 Ry

     CASE: energy            _new < energy            _old

     new trust radius        =       0.0021153327 bohr
     new conv_thr            =            1.0E-11 Ry


ATOMIC_POSITIONS (angstrom)
N                7.5000000000        7.2650661298        7.6946950949
H                7.5000000000        8.2086066342        7.3056705237
H                8.3171291027        6.7932981180        7.3056686907
H                6.6828708973        6.7932981180        7.3056686907



     Writing config-only to output data dir ./outdir/gas_nh3.save/ :
     XML data file
     NEW-OLD atomic charge density approx. for the potential

     negative rho (up, down):  1.141E-04 0.000E+00

     total cpu time spent up to now is       66.0 secs

     Self-consistent Calculation

     iteration #  1     ecut=    60.00 Ry     beta= 0.20
     Davidson diagonalization with overlap
     ethr =  1.00E-06,  avg # of iterations =  2.0

     Threshold (ethr) on eigenvalues was too large:
     Diagonalizing with lowered threshold

     Davidson diagonalization with overlap
     ethr =  9.46E-09,  avg # of iterations =  2.0

     negative rho (up, down):  1.053E-04 0.000E+00

     total cpu time spent up to now is       67.1 secs

     total energy              =     -23.76918206 Ry
     estimated scf accuracy    <       0.00000084 Ry

     iteration #  2     ecut=    60.00 Ry     beta= 0.20
     Davidson diagonalization with overlap
     ethr =  1.05E-08,  avg # of iterations =  1.0

     negative rho (up, down):  8.456E-05 0.000E+00

     total cpu time spent up to now is       67.8 secs

     total energy              =     -23.76918186 Ry
     estimated scf accuracy    <       0.00000051 Ry

     iteration #  3     ecut=    60.00 Ry     beta= 0.20
     Davidson diagonalization with overlap
     ethr =  6.32E-09,  avg # of iterations =  2.0

     negative rho (up, down):  9.297E-05 0.000E+00

     total cpu time spent up to now is       68.5 secs

     total energy              =     -23.76918200 Ry
     estimated scf accuracy    <       0.00000006 Ry

     iteration #  4     ecut=    60.00 Ry     beta= 0.20
     Davidson diagonalization with overlap
     ethr =  7.17E-10,  avg # of iterations =  2.0

     negative rho (up, down):  1.094E-04 0.000E+00

     total cpu time spent up to now is       69.3 secs

     total energy              =     -23.76918198 Ry
     estimated scf accuracy    <       0.00000003 Ry

     iteration #  5     ecut=    60.00 Ry     beta= 0.20
     Davidson diagonalization with overlap
     ethr =  4.23E-10,  avg # of iterations =  3.0

     negative rho (up, down):  1.023E-04 0.000E+00

     total cpu time spent up to now is       70.3 secs

     total energy              =     -23.76918199 Ry
     estimated scf accuracy    <       0.00000005 Ry

     iteration #  6     ecut=    60.00 Ry     beta= 0.20
     Davidson diagonalization with overlap
     ethr =  4.23E-10,  avg # of iterations =  2.0

     negative rho (up, down):  1.044E-04 0.000E+00

     total cpu time spent up to now is       71.1 secs

     total energy              =     -23.76918200 Ry
     estimated scf accuracy    <          2.8E-09 Ry

     iteration #  7     ecut=    60.00 Ry     beta= 0.20
     Davidson diagonalization with overlap
     ethr =  3.51E-11,  avg # of iterations =  3.0

     negative rho (up, down):  1.088E-04 0.000E+00

     total cpu time spent up to now is       71.9 secs

     total energy              =     -23.76918201 Ry
     estimated scf accuracy    <          1.2E-09 Ry

     iteration #  8     ecut=    60.00 Ry     beta= 0.20
     Davidson diagonalization with overlap
     ethr =  1.52E-11,  avg # of iterations =  2.0

     negative rho (up, down):  1.102E-04 0.000E+00

     total cpu time spent up to now is       73.0 secs

     total energy              =     -23.76918201 Ry
     estimated scf accuracy    <          2.0E-10 Ry

     iteration #  9     ecut=    60.00 Ry     beta= 0.20
     Davidson diagonalization with overlap
     ethr =  2.51E-12,  avg # of iterations =  2.0

     negative rho (up, down):  1.137E-04 0.000E+00

     total cpu time spent up to now is       74.1 secs

     total energy              =     -23.76918202 Ry
     estimated scf accuracy    <          1.5E-10 Ry

     iteration # 10     ecut=    60.00 Ry     beta= 0.20
     Davidson diagonalization with overlap
     ethr =  1.84E-12,  avg # of iterations =  2.0

     negative rho (up, down):  1.142E-04 0.000E+00

     total cpu time spent up to now is       74.7 secs

     End of self-consistent calculation

          k = 0.0000 0.0000 0.0000 (178925 PWs)   bands (ev):

   -21.1142 -11.2076 -11.2075  -6.1484  -0.7338   0.0772   0.3963   0.3972

     the Fermi energy is    -4.3003 ev

!    total energy              =     -23.76918202 Ry
     estimated scf accuracy    <          9.9E-12 Ry
     smearing contrib. (-TS)   =       0.00000000 Ry
     internal energy E=F+TS    =     -23.76918202 Ry

     The total energy is F=E-TS. E is the sum of the following terms:
     one-electron contribution =     -56.72473698 Ry
     hartree contribution      =      29.43350966 Ry
     xc contribution           =      -7.58369536 Ry
     ewald contribution        =      11.10726780 Ry
     DFT-D3 Dispersion         =      -0.00152714 Ry

     convergence has been achieved in  10 iterations

     negative rho (up, down):  1.142E-04 0.000E+00

     Forces acting on atoms (cartesian axes, Ry/au):

     atom    1 type  1   force =     0.00000000    0.00000105   -0.00047634
     atom    2 type  2   force =     0.00000000    0.00052861    0.00015984
     atom    3 type  2   force =     0.00045853   -0.00026483    0.00015825
     atom    4 type  2   force =    -0.00045853   -0.00026483    0.00015825

     Total force =     0.001069     Total SCF correction =     0.000001


     Computing stress (Cartesian axis) and pressure


     negative rho (up, down):  1.142E-04 0.000E+00
          total   stress  (Ry/bohr**3)                   (kbar)     P=       -0.01
  -0.00000004   0.00000000   0.00000000           -0.01        0.00        0.00
   0.00000000  -0.00000004   0.00000000            0.00       -0.01        0.00
   0.00000000   0.00000000  -0.00000014            0.00        0.00       -0.02

     Energy error            =      3.3E-06 Ry
     Gradient error          =      5.3E-04 Ry/Bohr

     number of scf cycles    =   4
     number of bfgs steps    =   3

     energy             old  =     -23.7691787535 Ry
     energy             new  =     -23.7691820174 Ry

     CASE: energy            _new < energy            _old

     new trust radius        =       0.0030883423 bohr
     new conv_thr            =            1.0E-11 Ry


ATOMIC_POSITIONS (angstrom)
N                7.5000000000        7.2650671441        7.6930608148
H                7.5000000000        8.2093991252        7.3062169280
H                8.3178162148        6.7929013654        7.3062126286
H                6.6821837852        6.7929013654        7.3062126286



     Writing config-only to output data dir ./outdir/gas_nh3.save/ :
     XML data file
     NEW-OLD atomic charge density approx. for the potential

     negative rho (up, down):  1.141E-04 0.000E+00

     total cpu time spent up to now is       76.0 secs

     Self-consistent Calculation

     iteration #  1     ecut=    60.00 Ry     beta= 0.20
     Davidson diagonalization with overlap
     ethr =  1.00E-06,  avg # of iterations =  2.0

     Threshold (ethr) on eigenvalues was too large:
     Diagonalizing with lowered threshold

     Davidson diagonalization with overlap
     ethr =  1.35E-08,  avg # of iterations =  4.0

     negative rho (up, down):  1.065E-04 0.000E+00

     total cpu time spent up to now is       77.0 secs

     total energy              =     -23.76918451 Ry
     estimated scf accuracy    <       0.00000108 Ry

     iteration #  2     ecut=    60.00 Ry     beta= 0.20
     Davidson diagonalization with overlap
     ethr =  1.35E-08,  avg # of iterations =  1.0

     negative rho (up, down):  9.086E-05 0.000E+00

     total cpu time spent up to now is       77.7 secs

     total energy              =     -23.76918433 Ry
     estimated scf accuracy    <       0.00000064 Ry

     iteration #  3     ecut=    60.00 Ry     beta= 0.20
     Davidson diagonalization with overlap
     ethr =  7.98E-09,  avg # of iterations =  2.0

     negative rho (up, down):  9.645E-05 0.000E+00

     total cpu time spent up to now is       78.8 secs

     total energy              =     -23.76918441 Ry
     estimated scf accuracy    <       0.00000004 Ry

     iteration #  4     ecut=    60.00 Ry     beta= 0.20
     Davidson diagonalization with overlap
     ethr =  5.27E-10,  avg # of iterations =  2.0

     negative rho (up, down):  1.041E-04 0.000E+00

     total cpu time spent up to now is       79.5 secs

     total energy              =     -23.76918442 Ry
     estimated scf accuracy    <       0.00000001 Ry

     iteration #  5     ecut=    60.00 Ry     beta= 0.20
     Davidson diagonalization with overlap
     ethr =  1.68E-10,  avg # of iterations =  2.0

     negative rho (up, down):  1.155E-04 0.000E+00

     total cpu time spent up to now is       80.6 secs

     total energy              =     -23.76918445 Ry
     estimated scf accuracy    <          3.9E-09 Ry

     iteration #  6     ecut=    60.00 Ry     beta= 0.20
     Davidson diagonalization with overlap
     ethr =  4.86E-11,  avg # of iterations =  2.0

     negative rho (up, down):  1.165E-04 0.000E+00

     total cpu time spent up to now is       81.4 secs

     total energy              =     -23.76918445 Ry
     estimated scf accuracy    <          9.2E-10 Ry

     iteration #  7     ecut=    60.00 Ry     beta= 0.20
     Davidson diagonalization with overlap
     ethr =  1.15E-11,  avg # of iterations =  2.0

     negative rho (up, down):  1.157E-04 0.000E+00

     total cpu time spent up to now is       82.4 secs

     total energy              =     -23.76918446 Ry
     estimated scf accuracy    <          4.9E-10 Ry

     iteration #  8     ecut=    60.00 Ry     beta= 0.20
     Davidson diagonalization with overlap
     ethr =  6.18E-12,  avg # of iterations =  2.0

     negative rho (up, down):  1.151E-04 0.000E+00

     total cpu time spent up to now is       83.2 secs

     total energy              =     -23.76918445 Ry
     estimated scf accuracy    <          1.3E-10 Ry

     iteration #  9     ecut=    60.00 Ry     beta= 0.20
     Davidson diagonalization with overlap
     ethr =  1.57E-12,  avg # of iterations =  2.0

     negative rho (up, down):  1.158E-04 0.000E+00

     total cpu time spent up to now is       84.3 secs

     total energy              =     -23.76918446 Ry
     estimated scf accuracy    <          1.0E-10 Ry

     iteration # 10     ecut=    60.00 Ry     beta= 0.20
     Davidson diagonalization with overlap
     ethr =  1.29E-12,  avg # of iterations =  2.0

     negative rho (up, down):  1.159E-04 0.000E+00

     total cpu time spent up to now is       85.4 secs

     total energy              =     -23.76918446 Ry
     estimated scf accuracy    <          1.6E-11 Ry

     iteration # 11     ecut=    60.00 Ry     beta= 0.20
     Davidson diagonalization with overlap
     ethr =  2.05E-13,  avg # of iterations =  2.0

     negative rho (up, down):  1.142E-04 0.000E+00

     total cpu time spent up to now is       85.9 secs

     End of self-consistent calculation

          k = 0.0000 0.0000 0.0000 (178925 PWs)   bands (ev):

   -21.1088 -11.2131 -11.2131  -6.1390  -0.7328   0.0774   0.3961   0.3971

     the Fermi energy is    -4.2991 ev

!    total energy              =     -23.76918445 Ry
     estimated scf accuracy    <          7.9E-12 Ry
     smearing contrib. (-TS)   =       0.00000000 Ry
     internal energy E=F+TS    =     -23.76918445 Ry

     The total energy is F=E-TS. E is the sum of the following terms:
     one-electron contribution =     -56.72480428 Ry
     hartree contribution      =      29.43385576 Ry
     xc contribution           =      -7.58379618 Ry
     ewald contribution        =      11.10708734 Ry
     DFT-D3 Dispersion         =      -0.00152709 Ry

     convergence has been achieved in  11 iterations

     negative rho (up, down):  1.142E-04 0.000E+00

     Forces acting on atoms (cartesian axes, Ry/au):

     atom    1 type  1   force =     0.00000000   -0.00000411    0.00017889
     atom    2 type  2   force =     0.00000000    0.00027805   -0.00005987
     atom    3 type  2   force =     0.00023787   -0.00013697   -0.00005951
     atom    4 type  2   force =    -0.00023787   -0.00013697   -0.00005951

     Total force =     0.000520     Total SCF correction =     0.000003


     Computing stress (Cartesian axis) and pressure


     negative rho (up, down):  1.142E-04 0.000E+00
          total   stress  (Ry/bohr**3)                   (kbar)     P=       -0.01
  -0.00000007   0.00000000   0.00000000           -0.01        0.00        0.00
   0.00000000  -0.00000007  -0.00000000            0.00       -0.01       -0.00
   0.00000000  -0.00000000  -0.00000012            0.00       -0.00       -0.02

     Energy error            =      2.4E-06 Ry
     Gradient error          =      2.8E-04 Ry/Bohr

     number of scf cycles    =   5
     number of bfgs steps    =   4

     energy             old  =     -23.7691820174 Ry
     energy             new  =     -23.7691844534 Ry

     CASE: energy            _new < energy            _old

     new trust radius        =       0.0003652748 bohr
     new conv_thr            =            1.0E-11 Ry


ATOMIC_POSITIONS (angstrom)
N                7.5000000000        7.2650647287        7.6929180935
H                7.5000000000        8.2095864821        7.3062644715
H                8.3179767600        6.7928088946        7.3062602175
H                6.6820232400        6.7928088946        7.3062602175



     Writing config-only to output data dir ./outdir/gas_nh3.save/ :
     XML data file
     NEW-OLD atomic charge density approx. for the potential

     negative rho (up, down):  1.142E-04 0.000E+00

     total cpu time spent up to now is       87.2 secs

     Self-consistent Calculation

     iteration #  1     ecut=    60.00 Ry     beta= 0.20
     Davidson diagonalization with overlap
     ethr =  1.00E-06,  avg # of iterations =  2.0

     Threshold (ethr) on eigenvalues was too large:
     Diagonalizing with lowered threshold

     Davidson diagonalization with overlap
     ethr =  2.16E-10,  avg # of iterations =  4.0

     negative rho (up, down):  1.152E-04 0.000E+00

     total cpu time spent up to now is       88.3 secs

     total energy              =     -23.76918460 Ry
     estimated scf accuracy    <       0.00000005 Ry

     iteration #  2     ecut=    60.00 Ry     beta= 0.20
     Davidson diagonalization with overlap
     ethr =  6.01E-10,  avg # of iterations =  1.0

     negative rho (up, down):  1.191E-04 0.000E+00

     total cpu time spent up to now is       89.0 secs

     total energy              =     -23.76918459 Ry
     estimated scf accuracy    <       0.00000003 Ry

     iteration #  3     ecut=    60.00 Ry     beta= 0.20
     Davidson diagonalization with overlap
     ethr =  3.64E-10,  avg # of iterations =  2.0

     negative rho (up, down):  1.178E-04 0.000E+00

     total cpu time spent up to now is       89.7 secs

     total energy              =     -23.76918460 Ry
     estimated scf accuracy    <          2.4E-09 Ry

     iteration #  4     ecut=    60.00 Ry     beta= 0.20
     Davidson diagonalization with overlap
     ethr =  2.94E-11,  avg # of iterations =  1.0

     negative rho (up, down):  1.158E-04 0.000E+00

     total cpu time spent up to now is       90.4 secs

     total energy              =     -23.76918460 Ry
     estimated scf accuracy    <          1.2E-09 Ry

     iteration #  5     ecut=    60.00 Ry     beta= 0.20
     Davidson diagonalization with overlap
     ethr =  1.45E-11,  avg # of iterations =  2.0

     negative rho (up, down):  1.163E-04 0.000E+00

     total cpu time spent up to now is       91.2 secs

     total energy              =     -23.76918460 Ry
     estimated scf accuracy    <          1.2E-09 Ry

     iteration #  6     ecut=    60.00 Ry     beta= 0.20
     Davidson diagonalization with overlap
     ethr =  1.45E-11,  avg # of iterations =  2.0

     negative rho (up, down):  1.159E-04 0.000E+00

     total cpu time spent up to now is       92.2 secs

     total energy              =     -23.76918460 Ry
     estimated scf accuracy    <          7.3E-11 Ry

     iteration #  7     ecut=    60.00 Ry     beta= 0.20
     Davidson diagonalization with overlap
     ethr =  9.11E-13,  avg # of iterations =  4.0

     negative rho (up, down):  1.154E-04 0.000E+00

     total cpu time spent up to now is       93.0 secs

     total energy              =     -23.76918460 Ry
     estimated scf accuracy    <          5.0E-11 Ry

     iteration #  8     ecut=    60.00 Ry     beta= 0.20
     Davidson diagonalization with overlap
     ethr =  6.23E-13,  avg # of iterations =  1.0

     negative rho (up, down):  1.145E-04 0.000E+00

     total cpu time spent up to now is       93.7 secs

     total energy              =     -23.76918460 Ry
     estimated scf accuracy    <          1.3E-11 Ry

     iteration #  9     ecut=    60.00 Ry     beta= 0.20
     Davidson diagonalization with overlap
     ethr =  1.66E-13,  avg # of iterations =  4.0

     negative rho (up, down):  1.144E-04 0.000E+00

     total cpu time spent up to now is       94.5 secs

     total energy              =     -23.76918460 Ry
     estimated scf accuracy    <          3.5E-11 Ry

     iteration # 10     ecut=    60.00 Ry     beta= 0.20
     Davidson diagonalization with overlap
     ethr =  1.66E-13,  avg # of iterations =  1.0

     negative rho (up, down):  1.143E-04 0.000E+00

     total cpu time spent up to now is       95.2 secs

     total energy              =     -23.76918460 Ry
     estimated scf accuracy    <          2.5E-11 Ry

     iteration # 11     ecut=    60.00 Ry     beta= 0.20
     Davidson diagonalization with overlap
     ethr =  1.66E-13,  avg # of iterations =  2.0

     negative rho (up, down):  1.142E-04 0.000E+00

     total cpu time spent up to now is       95.8 secs

     End of self-consistent calculation

          k = 0.0000 0.0000 0.0000 (178925 PWs)   bands (ev):

   -21.1071 -11.2130 -11.2129  -6.1380  -0.7329   0.0774   0.3961   0.3971

     the Fermi energy is    -4.2986 ev

!    total energy              =     -23.76918460 Ry
     estimated scf accuracy    <          1.9E-12 Ry
     smearing contrib. (-TS)   =       0.00000000 Ry
     internal energy E=F+TS    =     -23.76918460 Ry

     The total energy is F=E-TS. E is the sum of the following terms:
     one-electron contribution =     -56.72164132 Ry
     hartree contribution      =      29.43233085 Ry
     xc contribution           =      -7.58353237 Ry
     ewald contribution        =      11.10518533 Ry
     DFT-D3 Dispersion         =      -0.00152708 Ry

     convergence has been achieved in  11 iterations

     negative rho (up, down):  1.142E-04 0.000E+00

     Forces acting on atoms (cartesian axes, Ry/au):

     atom    1 type  1   force =     0.00000000    0.00000432    0.00008570
     atom    2 type  2   force =     0.00000000    0.00007595   -0.00002650
     atom    3 type  2   force =     0.00006940   -0.00004014   -0.00002960
     atom    4 type  2   force =    -0.00006940   -0.00004014   -0.00002960

     Total force =     0.000169     Total SCF correction =     0.000002


     Computing stress (Cartesian axis) and pressure


     negative rho (up, down):  1.142E-04 0.000E+00
          total   stress  (Ry/bohr**3)                   (kbar)     P=       -0.02
  -0.00000009   0.00000000   0.00000000           -0.01        0.00        0.00
   0.00000000  -0.00000009   0.00000000            0.00       -0.01        0.00
   0.00000000   0.00000000  -0.00000012            0.00        0.00       -0.02

     Energy error            =      1.4E-07 Ry
     Gradient error          =      8.6E-05 Ry/Bohr

     bfgs converged in   6 scf cycles and   5 bfgs steps
     (criteria: energy <  1.0E-05 Ry, force <  1.0E-04 Ry/Bohr)

     End of BFGS Geometry Optimization

     Final energy             =     -23.7691845957 Ry

     File ./outdir/gas_nh3.bfgs deleted, as requested
Begin final coordinates

ATOMIC_POSITIONS (angstrom)
N                7.5000000000        7.2650647287        7.6929180935
H                7.5000000000        8.2095864821        7.3062644715
H                8.3179767600        6.7928088946        7.3062602175
H                6.6820232400        6.7928088946        7.3062602175
End final coordinates



     Writing all to output data dir ./outdir/gas_nh3.save/ :
     XML data file, charge density, pseudopotentials, collected wavefunctions
 
     init_run     :    137.95s CPU     10.06s WALL (       1 calls)
     electrons    :    130.41s CPU     80.47s WALL (       6 calls)
     update_pot   :      2.62s CPU      1.02s WALL (       5 calls)
     forces       :      4.84s CPU      2.05s WALL (       6 calls)
     force_dftd3  :      0.11s CPU      0.00s WALL (       6 calls)
     stress       :      2.66s CPU      2.43s WALL (       6 calls)
     stres_dftd3  :      0.09s CPU      0.00s WALL (       6 calls)

     Called by init_run:
     wfcinit      :      0.07s CPU      0.19s WALL (       1 calls)
     potinit      :    135.17s CPU      6.73s WALL (       1 calls)
     hinit0       :      0.55s CPU      0.43s WALL (       1 calls)

     Called by electrons:
     c_bands      :      9.47s CPU      9.28s WALL (     102 calls)
     sum_band     :     27.28s CPU     27.26s WALL (     102 calls)
     v_of_rho     :      6.07s CPU      5.92s WALL (     104 calls)
     newd         :      4.71s CPU      4.68s WALL (     104 calls)
     mix_rho      :     22.12s CPU     19.59s WALL (     102 calls)
     energy_dftd3 :      0.00s CPU      0.00s WALL (       6 calls)

     Called by c_bands:
     init_us_2    :      0.09s CPU      0.08s WALL (     211 calls)
     cegterg      :      9.33s CPU      9.15s WALL (     102 calls)

     Called by *egterg:
     cdiaghg      :      0.16s CPU      0.19s WALL (     329 calls)
                                        0.19s GPU  (     329 calls)
     h_psi        :      2.09s CPU      2.11s WALL (     339 calls)
     s_psi        :      0.13s CPU      0.13s WALL (     339 calls)
     g_psi        :      0.01s CPU      0.01s WALL (     236 calls)

     Called by h_psi:
     h_psi:calbec :      0.05s CPU      0.16s WALL (     339 calls)
     vloc_psi     :      1.76s CPU      1.67s WALL (     339 calls)
                                        1.67s GPU  (     339 calls)
     add_vuspsi   :      0.26s CPU      0.27s WALL (     339 calls)

     General routines
     calbec       :      0.07s CPU      0.16s WALL (     543 calls)
     fft          :    149.77s CPU     10.05s WALL (    1499 calls)
                                        2.61s GPU  (    1395 calls)
     ffts         :     38.98s CPU      5.98s WALL (   11506 calls)
                                        4.01s GPU  (   11402 calls)
     fftw         :      0.01s CPU      1.67s WALL (     780 calls)
                                        1.66s GPU  (     780 calls)
     interpolate  :    192.79s CPU     14.08s WALL (     104 calls)
 
 
     PWSCF        :   4m41.85s CPU   1m37.11s WALL

 
   This run was terminated on:   3:28:43  29Jun2026            

=------------------------------------------------------------------------------=
   JOB DONE.
=------------------------------------------------------------------------------=
