
     Program PWSCF v.7.5 starts on 29Jun2026 at  3:29:50 

     This program is part of the open-source Quantum ESPRESSO suite
     for quantum simulation of materials; please cite
         "P. Giannozzi et al., J. Phys.:Condens. Matter 21 395502 (2009);
         "P. Giannozzi et al., J. Phys.:Condens. Matter 29 465901 (2017);
         "P. Giannozzi et al., J. Chem. Phys. 152 154105 (2020);
          URL http://www.quantum-espresso.org", 
     in publications or presentations arising from this work. More details at
     http://www.quantum-espresso.org/quote

     Serial multi-threaded version, running on   32 processor cores
     39959 MiB available memory on the printing compute node when the environment starts
 
     Reading input from inputs/gas_c2h4.in

     Current dimensions of program PWSCF are:
     Max number of different atomic species (ntypx) = 10
     Max number of k-points (npk) =  40000
     Max angular momentum in pseudopotentials (lmaxx) =  4
     file C.pbe-n-kjpaw_psl.1.0.0.UPF: wavefunction(s)  2S 2P renormalized
     Message from routine setup:
     using ibrav=0 with symmetry is DISCOURAGED, use correct ibrav instead
 
 
     G-vector sticks info
     --------------------
     sticks:   dense  smooth     PW     G-vecs:    dense   smooth      PW
     Sum       38393   15329   3833              5653693  1429635  178925
 
     Using Slab Decomposition
 


     bravais-lattice index     =            0
     lattice parameter (alat)  =      28.3459  a.u.
     unit-cell volume          =   22775.6289 (a.u.)^3
     number of atoms/cell      =            6
     number of atomic types    =            2
     number of electrons       =        12.00
     number of Kohn-Sham states=           10
     kinetic-energy cutoff     =      60.0000  Ry
     charge density cutoff     =     600.0000  Ry
     scf convergence threshold =      1.0E-09
     mixing beta               =       0.2000
     number of iterations used =            8  local-TF  mixing
     energy convergence thresh.=      1.0E-05
     force convergence thresh. =      1.0E-04
     Exchange-correlation= PBE
                           (   1   4   3   4   0   0   0)
     nstep                     =          200


     GPU acceleration is ACTIVE.  1 visible GPUs per MPI rank


     celldm(1)=  28.345892  celldm(2)=   0.000000  celldm(3)=   0.000000
     celldm(4)=   0.000000  celldm(5)=   0.000000  celldm(6)=   0.000000

     crystal axes: (cart. coord. in units of alat)
               a(1) = (   1.000000   0.000000   0.000000 )  
               a(2) = (   0.000000   1.000000   0.000000 )  
               a(3) = (   0.000000   0.000000   1.000000 )  

     reciprocal axes: (cart. coord. in units 2 pi/alat)
               b(1) = (  1.000000  0.000000  0.000000 )  
               b(2) = (  0.000000  1.000000  0.000000 )  
               b(3) = (  0.000000  0.000000  1.000000 )  


     PseudoPot. # 1 for C  read from file:
     /home/x/Workspace/3-hEspesso/pseudo/C.pbe-n-kjpaw_psl.1.0.0.UPF
     MD5 check sum: 5d2aebdfa2cae82b50a7e79e9516da0f
     Pseudo is Projector augmented-wave + core cor, Zval =  4.0
     Generated using "atomic" code by A. Dal Corso  v.5.1
     Shape of augmentation charge: PSQ
     Using radial grid of 1073 points,  4 beta functions with: 
                l(1) =   0
                l(2) =   0
                l(3) =   1
                l(4) =   1
     Q(r) pseudized with 0 coefficients 


     PseudoPot. # 2 for H  read from file:
     /home/x/Workspace/3-hEspesso/pseudo/H.pbe-rrkjus_psl.1.0.0.UPF
     MD5 check sum: f52b6d4d1c606e5624b1dc7b2218f220
     Pseudo is Ultrasoft, Zval =  1.0
     Generated using "atomic" code by A. Dal Corso  v.5.1
     Using radial grid of  929 points,  2 beta functions with: 
                l(1) =   0
                l(2) =   0
     Q(r) pseudized with 0 coefficients 


     atomic species   valence    mass     pseudopotential
     C                 4.00    12.01100     C ( 1.00)
     H                 1.00     1.00800     H ( 1.00)

      8 Sym. Ops., with inversion, found



   Cartesian axes

     site n.     atom                  positions (alat units)
         1        C      tau(   1) = (   0.5000000   0.5000000   0.5444987  )
         2        C      tau(   2) = (   0.5000000   0.5000000   0.4555013  )
         3        H      tau(   3) = (   0.5000000   0.5615221   0.5825130  )
         4        H      tau(   4) = (   0.5000000   0.4384779   0.5825130  )
         5        H      tau(   5) = (   0.5000000   0.5615221   0.4174870  )
         6        H      tau(   6) = (   0.5000000   0.4384779   0.4174870  )

     --------------------------------------------
     DFT-D3 Dispersion Correction (3-body terms):
     --------------------------------------------
       Reference C6 values for interpolation: 

         atom   Coordination number   C6
         H          0.912             6.05
         H          0.000            15.18
         C          0.000            98.23
         C          0.987            86.49
         C          1.998            58.72
         C          2.999            51.56
         C          3.984            36.41

       Values used:

         atom   Coordination number  R0_AB[au]  C6      C8
         C          2.998            2.750     51.35   1485.19
         C          2.998            2.750     51.35   1485.19
         H          0.999            2.062      6.18     74.73
         H          0.999            2.062      6.18     74.73
         H          0.999            2.062      6.18     74.73
         H          0.999            2.062      6.18     74.73

         Molecular C6 ( Ry / a.u.^6 ) =       588.98


     number of k points=     1  Marzari-Vanderbilt smearing, width (Ry)=  0.0100
                       cart. coord. in units 2pi/alat
        k(    1) = (   0.0000000   0.0000000   0.0000000), wk =   2.0000000

     Dense  grid:  5653693 G-vectors     FFT dimensions: ( 225, 225, 225)

     Smooth grid:  1429635 G-vectors     FFT dimensions: ( 144, 144, 144)

     Estimated max dynamical RAM per process >       7.80 GB

     Initial potential from superposition of free atoms

     starting charge      11.9999, renormalised to      12.0000

     negative rho (up, down):  8.604E-05 0.000E+00
     Starting wfcs are   12 randomized atomic wfcs

     total cpu time spent up to now is       14.2 secs

     Self-consistent Calculation

     iteration #  1     ecut=    60.00 Ry     beta= 0.20
     Davidson diagonalization with overlap
     ethr =  1.00E-02,  avg # of iterations =  5.0

     negative rho (up, down):  7.715E-08 0.000E+00

     total cpu time spent up to now is       18.1 secs

     total energy              =     -41.77262253 Ry
     estimated scf accuracy    <       0.73033741 Ry

     iteration #  2     ecut=    60.00 Ry     beta= 0.20
     Davidson diagonalization with overlap
     ethr =  6.09E-03,  avg # of iterations =  1.0

     negative rho (up, down):  2.701E-07 0.000E+00

     total cpu time spent up to now is       21.2 secs

     total energy              =     -41.44256103 Ry
     estimated scf accuracy    <       0.55193336 Ry

     iteration #  3     ecut=    60.00 Ry     beta= 0.20
     Davidson diagonalization with overlap
     ethr =  4.60E-03,  avg # of iterations =  2.0

     negative rho (up, down):  1.948E-08 0.000E+00

     total cpu time spent up to now is       24.3 secs

     total energy              =     -41.56887863 Ry
     estimated scf accuracy    <       0.08821174 Ry

     iteration #  4     ecut=    60.00 Ry     beta= 0.20
     Davidson diagonalization with overlap
     ethr =  7.35E-04,  avg # of iterations =  4.0

     negative rho (up, down):  6.728E-02 0.000E+00

     total cpu time spent up to now is       27.9 secs

     total energy              =     -41.56357605 Ry
     estimated scf accuracy    <       0.04632709 Ry

     iteration #  5     ecut=    60.00 Ry     beta= 0.20
     Davidson diagonalization with overlap
     ethr =  3.86E-04,  avg # of iterations =  5.0

     negative rho (up, down):  2.627E-02 0.000E+00

     total cpu time spent up to now is       31.2 secs

     total energy              =     -41.56964766 Ry
     estimated scf accuracy    <       0.03946392 Ry

     iteration #  6     ecut=    60.00 Ry     beta= 0.20
     Davidson diagonalization with overlap
     ethr =  3.29E-04,  avg # of iterations =  1.0

     negative rho (up, down):  1.173E-01 0.000E+00

     total cpu time spent up to now is       34.2 secs

     total energy              =     -41.54355688 Ry
     estimated scf accuracy    <       0.03876157 Ry

     iteration #  7     ecut=    60.00 Ry     beta= 0.20
     Davidson diagonalization with overlap
     ethr =  3.23E-04,  avg # of iterations =  2.0

     negative rho (up, down):  6.783E-02 0.000E+00

     total cpu time spent up to now is       37.3 secs

     total energy              =     -41.55725584 Ry
     estimated scf accuracy    <       0.01598518 Ry

     iteration #  8     ecut=    60.00 Ry     beta= 0.20
     Davidson diagonalization with overlap
     ethr =  1.33E-04,  avg # of iterations =  2.0

     negative rho (up, down):  6.031E-02 0.000E+00

     total cpu time spent up to now is       40.4 secs

     total energy              =     -41.55780119 Ry
     estimated scf accuracy    <       0.00506553 Ry

     iteration #  9     ecut=    60.00 Ry     beta= 0.20
     Davidson diagonalization with overlap
     ethr =  4.22E-05,  avg # of iterations =  5.0

     negative rho (up, down):  4.695E-02 0.000E+00

     total cpu time spent up to now is       43.6 secs

     total energy              =     -41.55809463 Ry
     estimated scf accuracy    <       0.00044692 Ry

     iteration # 10     ecut=    60.00 Ry     beta= 0.20
     Davidson diagonalization with overlap
     ethr =  3.72E-06,  avg # of iterations =  9.0

     negative rho (up, down):  2.321E-02 0.000E+00

     total cpu time spent up to now is       48.0 secs

     total energy              =     -41.55784106 Ry
     estimated scf accuracy    <       0.00077515 Ry

     iteration # 11     ecut=    60.00 Ry     beta= 0.20
     Davidson diagonalization with overlap
     ethr =  3.72E-06,  avg # of iterations =  3.0

     negative rho (up, down):  9.423E-03 0.000E+00

     total cpu time spent up to now is       51.1 secs

     total energy              =     -41.55792611 Ry
     estimated scf accuracy    <       0.00009316 Ry

     iteration # 12     ecut=    60.00 Ry     beta= 0.20
     Davidson diagonalization with overlap
     ethr =  7.76E-07,  avg # of iterations =  8.0

     negative rho (up, down):  1.592E-03 0.000E+00

     total cpu time spent up to now is       55.1 secs

     total energy              =     -41.55782434 Ry
     estimated scf accuracy    <       0.00002993 Ry

     iteration # 13     ecut=    60.00 Ry     beta= 0.20
     Davidson diagonalization with overlap
     ethr =  2.49E-07,  avg # of iterations = 13.0

     negative rho (up, down):  8.008E-04 0.000E+00

     total cpu time spent up to now is       59.8 secs

     total energy              =     -41.55783863 Ry
     estimated scf accuracy    <       0.00000345 Ry

     iteration # 14     ecut=    60.00 Ry     beta= 0.20
     Davidson diagonalization with overlap
     ethr =  2.88E-08,  avg # of iterations =  2.0

     negative rho (up, down):  1.515E-04 0.000E+00

     total cpu time spent up to now is       63.0 secs

     total energy              =     -41.55783012 Ry
     estimated scf accuracy    <       0.00000030 Ry

     iteration # 15     ecut=    60.00 Ry     beta= 0.20
     Davidson diagonalization with overlap
     ethr =  2.46E-09,  avg # of iterations =  3.0

     negative rho (up, down):  3.027E-04 0.000E+00

     total cpu time spent up to now is       66.4 secs

     total energy              =     -41.55783223 Ry
     estimated scf accuracy    <       0.00000021 Ry

     iteration # 16     ecut=    60.00 Ry     beta= 0.20
     Davidson diagonalization with overlap
     ethr =  1.79E-09,  avg # of iterations =  2.0

     negative rho (up, down):  2.208E-04 0.000E+00

     total cpu time spent up to now is       69.6 secs

     total energy              =     -41.55783120 Ry
     estimated scf accuracy    <       0.00000004 Ry

     iteration # 17     ecut=    60.00 Ry     beta= 0.20
     Davidson diagonalization with overlap
     ethr =  3.17E-10,  avg # of iterations =  2.0

     negative rho (up, down):  1.495E-04 0.000E+00

     total cpu time spent up to now is       72.6 secs

     total energy              =     -41.55783072 Ry
     estimated scf accuracy    <       0.00000005 Ry

     iteration # 18     ecut=    60.00 Ry     beta= 0.20
     Davidson diagonalization with overlap
     ethr =  3.17E-10,  avg # of iterations =  2.0

     negative rho (up, down):  1.662E-04 0.000E+00

     total cpu time spent up to now is       75.7 secs

     total energy              =     -41.55783073 Ry
     estimated scf accuracy    <       0.00000004 Ry

     iteration # 19     ecut=    60.00 Ry     beta= 0.20
     Davidson diagonalization with overlap
     ethr =  3.17E-10,  avg # of iterations =  2.0

     negative rho (up, down):  1.489E-04 0.000E+00

     total cpu time spent up to now is       78.8 secs

     total energy              =     -41.55783071 Ry
     estimated scf accuracy    <          1.0E-09 Ry

     iteration # 20     ecut=    60.00 Ry     beta= 0.20
     Davidson diagonalization with overlap
     ethr =  8.68E-12,  avg # of iterations =  2.0

     negative rho (up, down):  1.394E-04 0.000E+00

     total cpu time spent up to now is       82.0 secs

     total energy              =     -41.55783072 Ry
     estimated scf accuracy    <          1.7E-09 Ry

     iteration # 21     ecut=    60.00 Ry     beta= 0.20
     Davidson diagonalization with overlap
     ethr =  8.68E-12,  avg # of iterations =  3.0

     negative rho (up, down):  1.321E-04 0.000E+00

     total cpu time spent up to now is       84.9 secs

     End of self-consistent calculation

          k = 0.0000 0.0000 0.0000 (178925 PWs)   bands (ev):

   -18.7290 -14.1978 -11.4026 -10.1247  -8.4633  -6.6804  -1.0277  -0.3735
     0.2140   0.2499

     the Fermi energy is    -3.8145 ev

!    total energy              =     -41.55783070 Ry
     estimated scf accuracy    <          8.1E-10 Ry
     smearing contrib. (-TS)   =       0.00000000 Ry
     internal energy E=F+TS    =     -41.55783070 Ry

     The total energy is F=E-TS. E is the sum of the following terms:
     one-electron contribution =     -86.66491249 Ry
     hartree contribution      =      44.78496840 Ry
     xc contribution           =     -12.00784233 Ry
     ewald contribution        =      24.67193527 Ry
     DFT-D3 Dispersion         =      -0.00470628 Ry
     one-center paw contrib.   =     -12.33727327 Ry

     convergence has been achieved in  21 iterations

     negative rho (up, down):  1.321E-04 0.000E+00

     Forces acting on atoms (cartesian axes, Ry/au):

     atom    1 type  1   force =     0.00000000    0.00000000   -0.01299664
     atom    2 type  1   force =     0.00000000    0.00000000    0.01299664
     atom    3 type  2   force =     0.00000000    0.00716685    0.00400848
     atom    4 type  2   force =     0.00000000   -0.00716685    0.00400848
     atom    5 type  2   force =     0.00000000    0.00716685   -0.00400848
     atom    6 type  2   force =     0.00000000   -0.00716685   -0.00400848

     Total force =     0.024649     Total SCF correction =     0.000032


     Computing stress (Cartesian axis) and pressure


     negative rho (up, down):  1.321E-04 0.000E+00
          total   stress  (Ry/bohr**3)                   (kbar)     P=        0.11
  -0.00000007   0.00000000   0.00000000           -0.01        0.00        0.00
   0.00000000   0.00000212   0.00000000            0.00        0.31        0.00
   0.00000000   0.00000000   0.00000013            0.00        0.00        0.02


     BFGS Geometry Optimization
     Energy error            =      6.1E-04 Ry
     Gradient error          =      1.3E-02 Ry/Bohr

     number of scf cycles    =   1
     number of bfgs steps    =   0

     energy             new  =     -41.5578306973 Ry

     new trust radius        =       0.0129966356 bohr
     new conv_thr            =       0.0000000010 Ry


ATOMIC_POSITIONS (angstrom)
C                7.5000000000        7.5000000000        8.1606024766
C                7.5000000000        7.5000000000        6.8393975234
H                7.5000000000        8.4266245321        8.7398161969
H                7.5000000000        6.5733754679        8.7398161969
H                7.5000000000        8.4266245321        6.2601838031
H                7.5000000000        6.5733754679        6.2601838031



     Writing config-only to output data dir ./outdir/gas_c2h4.save/ :
     XML data file
     NEW-OLD atomic charge density approx. for the potential

     negative rho (up, down):  1.313E-04 0.000E+00

     total cpu time spent up to now is       95.5 secs

     Self-consistent Calculation

     iteration #  1     ecut=    60.00 Ry     beta= 0.20
     Davidson diagonalization with overlap
     ethr =  1.00E-06,  avg # of iterations =  4.0

     negative rho (up, down):  1.415E-04 0.000E+00

     total cpu time spent up to now is       98.9 secs

     total energy              =     -41.55778206 Ry
     estimated scf accuracy    <       0.00015864 Ry

     iteration #  2     ecut=    60.00 Ry     beta= 0.20
     Davidson diagonalization with overlap
     ethr =  1.32E-06,  avg # of iterations =  1.0

     negative rho (up, down):  4.073E-04 0.000E+00

     total cpu time spent up to now is      101.9 secs

     total energy              =     -41.55772356 Ry
     estimated scf accuracy    <       0.00010998 Ry

     iteration #  3     ecut=    60.00 Ry     beta= 0.20
     Davidson diagonalization with overlap
     ethr =  9.17E-07,  avg # of iterations =  2.0

     negative rho (up, down):  3.249E-04 0.000E+00

     total cpu time spent up to now is      105.0 secs

     total energy              =     -41.55774128 Ry
     estimated scf accuracy    <       0.00000157 Ry

     iteration #  4     ecut=    60.00 Ry     beta= 0.20
     Davidson diagonalization with overlap
     ethr =  1.31E-08,  avg # of iterations =  2.0

     negative rho (up, down):  2.931E-04 0.000E+00

     total cpu time spent up to now is      108.0 secs

     total energy              =     -41.55774163 Ry
     estimated scf accuracy    <       0.00000051 Ry

     iteration #  5     ecut=    60.00 Ry     beta= 0.20
     Davidson diagonalization with overlap
     ethr =  4.26E-09,  avg # of iterations =  1.0

     negative rho (up, down):  2.642E-04 0.000E+00

     total cpu time spent up to now is      111.1 secs

     total energy              =     -41.55774165 Ry
     estimated scf accuracy    <       0.00000051 Ry

     iteration #  6     ecut=    60.00 Ry     beta= 0.20
     Davidson diagonalization with overlap
     ethr =  4.25E-09,  avg # of iterations =  1.0

     negative rho (up, down):  2.918E-04 0.000E+00

     total cpu time spent up to now is      114.2 secs

     total energy              =     -41.55774154 Ry
     estimated scf accuracy    <       0.00000055 Ry

     iteration #  7     ecut=    60.00 Ry     beta= 0.20
     Davidson diagonalization with overlap
     ethr =  4.25E-09,  avg # of iterations =  2.0

     negative rho (up, down):  2.727E-04 0.000E+00

     total cpu time spent up to now is      117.4 secs

     total energy              =     -41.55774168 Ry
     estimated scf accuracy    <       0.00000017 Ry

     iteration #  8     ecut=    60.00 Ry     beta= 0.20
     Davidson diagonalization with overlap
     ethr =  1.46E-09,  avg # of iterations =  2.0

     negative rho (up, down):  2.435E-04 0.000E+00

     total cpu time spent up to now is      120.5 secs

     total energy              =     -41.55774169 Ry
     estimated scf accuracy    <       0.00000004 Ry

     iteration #  9     ecut=    60.00 Ry     beta= 0.20
     Davidson diagonalization with overlap
     ethr =  3.62E-10,  avg # of iterations =  2.0

     negative rho (up, down):  2.094E-04 0.000E+00

     total cpu time spent up to now is      123.6 secs

     total energy              =     -41.55774174 Ry
     estimated scf accuracy    <       0.00000001 Ry

     iteration # 10     ecut=    60.00 Ry     beta= 0.20
     Davidson diagonalization with overlap
     ethr =  9.57E-11,  avg # of iterations =  2.0

     negative rho (up, down):  1.969E-04 0.000E+00

     total cpu time spent up to now is      126.6 secs

     total energy              =     -41.55774175 Ry
     estimated scf accuracy    <          6.1E-09 Ry

     iteration # 11     ecut=    60.00 Ry     beta= 0.20
     Davidson diagonalization with overlap
     ethr =  5.07E-11,  avg # of iterations =  1.0

     negative rho (up, down):  1.776E-04 0.000E+00

     total cpu time spent up to now is      129.7 secs

     total energy              =     -41.55774173 Ry
     estimated scf accuracy    <          7.2E-09 Ry

     iteration # 12     ecut=    60.00 Ry     beta= 0.20
     Davidson diagonalization with overlap
     ethr =  5.07E-11,  avg # of iterations =  1.0

     negative rho (up, down):  1.550E-04 0.000E+00

     total cpu time spent up to now is      132.7 secs

     total energy              =     -41.55774172 Ry
     estimated scf accuracy    <          5.8E-09 Ry

     iteration # 13     ecut=    60.00 Ry     beta= 0.20
     Davidson diagonalization with overlap
     ethr =  4.87E-11,  avg # of iterations =  2.0

     negative rho (up, down):  1.435E-04 0.000E+00

     total cpu time spent up to now is      136.1 secs

     total energy              =     -41.55774172 Ry
     estimated scf accuracy    <          1.7E-09 Ry

     iteration # 14     ecut=    60.00 Ry     beta= 0.20
     Davidson diagonalization with overlap
     ethr =  1.38E-11,  avg # of iterations =  2.0

     negative rho (up, down):  1.326E-04 0.000E+00

     total cpu time spent up to now is      138.9 secs

     End of self-consistent calculation

          k = 0.0000 0.0000 0.0000 (178925 PWs)   bands (ev):

   -18.7796 -14.1214 -11.3749 -10.1687  -8.3670  -6.7347  -0.9565  -0.3753
     0.2097   0.2402

     the Fermi energy is    -3.8345 ev

!    total energy              =     -41.55774173 Ry
     estimated scf accuracy    <          6.7E-10 Ry
     smearing contrib. (-TS)   =       0.00000000 Ry
     internal energy E=F+TS    =     -41.55774173 Ry

     The total energy is F=E-TS. E is the sum of the following terms:
     one-electron contribution =     -86.71498488 Ry
     hartree contribution      =      44.81058809 Ry
     xc contribution           =     -12.00296676 Ry
     ewald contribution        =      24.69191879 Ry
     DFT-D3 Dispersion         =      -0.00470520 Ry
     one-center paw contrib.   =     -12.33759176 Ry

     convergence has been achieved in  14 iterations

     negative rho (up, down):  1.326E-04 0.000E+00

     Forces acting on atoms (cartesian axes, Ry/au):

     atom    1 type  1   force =     0.00000000    0.00000000    0.02835123
     atom    2 type  1   force =     0.00000000    0.00000000   -0.02835123
     atom    3 type  2   force =     0.00000000   -0.00098281   -0.00165733
     atom    4 type  2   force =     0.00000000    0.00098281   -0.00165733
     atom    5 type  2   force =     0.00000000   -0.00098281    0.00165733
     atom    6 type  2   force =     0.00000000    0.00098281    0.00165733

     Total force =     0.040279     Total SCF correction =     0.000042


     Computing stress (Cartesian axis) and pressure


     negative rho (up, down):  1.326E-04 0.000E+00
          total   stress  (Ry/bohr**3)                   (kbar)     P=        0.09
  -0.00000007   0.00000000   0.00000000           -0.01        0.00        0.00
   0.00000000  -0.00000038   0.00000000            0.00       -0.06        0.00
   0.00000000   0.00000000   0.00000235            0.00        0.00        0.35

     Energy error            =      8.9E-05 Ry
     Gradient error          =      2.8E-02 Ry/Bohr

     number of scf cycles    =   2
     number of bfgs steps    =   1

     energy             old  =     -41.5578306973 Ry
     energy             new  =     -41.5577417262 Ry

     CASE: energy            _new > energy            _old

     new trust radius        =       0.0056682476 bohr
     new conv_thr            =       0.0000000010 Ry


ATOMIC_POSITIONS (angstrom)
C                7.5000000000        7.5000000000        8.1644804925
C                7.5000000000        7.5000000000        6.8355195075
H                7.5000000000        8.4244860443        8.7386201217
H                7.5000000000        6.5755139557        8.7386201217
H                7.5000000000        8.4244860443        6.2613798783
H                7.5000000000        6.5755139557        6.2613798783



     Writing config-only to output data dir ./outdir/gas_c2h4.save/ :
     XML data file
     NEW-OLD atomic charge density approx. for the potential

     negative rho (up, down):  1.326E-04 0.000E+00

     total cpu time spent up to now is      149.7 secs

     Self-consistent Calculation

     iteration #  1     ecut=    60.00 Ry     beta= 0.20
     Davidson diagonalization with overlap
     ethr =  1.00E-06,  avg # of iterations =  3.0

     negative rho (up, down):  1.265E-04 0.000E+00

     total cpu time spent up to now is      152.8 secs

     total energy              =     -41.55797668 Ry
     estimated scf accuracy    <       0.00004934 Ry

     iteration #  2     ecut=    60.00 Ry     beta= 0.20
     Davidson diagonalization with overlap
     ethr =  4.11E-07,  avg # of iterations =  1.0

     negative rho (up, down):  2.051E-04 0.000E+00

     total cpu time spent up to now is      155.9 secs

     total energy              =     -41.55795734 Ry
     estimated scf accuracy    <       0.00003512 Ry

     iteration #  3     ecut=    60.00 Ry     beta= 0.20
     Davidson diagonalization with overlap
     ethr =  2.93E-07,  avg # of iterations =  2.0

     negative rho (up, down):  1.581E-04 0.000E+00

     total cpu time spent up to now is      159.0 secs

     total energy              =     -41.55796368 Ry
     estimated scf accuracy    <       0.00000171 Ry

     iteration #  4     ecut=    60.00 Ry     beta= 0.20
     Davidson diagonalization with overlap
     ethr =  1.43E-08,  avg # of iterations =  2.0

     negative rho (up, down):  1.395E-04 0.000E+00

     total cpu time spent up to now is      162.1 secs

     total energy              =     -41.55796394 Ry
     estimated scf accuracy    <       0.00000032 Ry

     iteration #  5     ecut=    60.00 Ry     beta= 0.20
     Davidson diagonalization with overlap
     ethr =  2.68E-09,  avg # of iterations =  1.0

     negative rho (up, down):  1.103E-04 0.000E+00

     total cpu time spent up to now is      165.2 secs

     total energy              =     -41.55796383 Ry
     estimated scf accuracy    <       0.00000037 Ry

     iteration #  6     ecut=    60.00 Ry     beta= 0.20
     Davidson diagonalization with overlap
     ethr =  2.68E-09,  avg # of iterations =  2.0

     negative rho (up, down):  1.063E-04 0.000E+00

     total cpu time spent up to now is      168.3 secs

     total energy              =     -41.55796387 Ry
     estimated scf accuracy    <       0.00000002 Ry

     iteration #  7     ecut=    60.00 Ry     beta= 0.20
     Davidson diagonalization with overlap
     ethr =  1.64E-10,  avg # of iterations =  2.0

     negative rho (up, down):  1.170E-04 0.000E+00

     total cpu time spent up to now is      171.4 secs

     total energy              =     -41.55796386 Ry
     estimated scf accuracy    <       0.00000001 Ry

     iteration #  8     ecut=    60.00 Ry     beta= 0.20
     Davidson diagonalization with overlap
     ethr =  8.90E-11,  avg # of iterations =  2.0

     negative rho (up, down):  1.139E-04 0.000E+00

     total cpu time spent up to now is      174.5 secs

     total energy              =     -41.55796387 Ry
     estimated scf accuracy    <          2.5E-09 Ry

     iteration #  9     ecut=    60.00 Ry     beta= 0.20
     Davidson diagonalization with overlap
     ethr =  2.06E-11,  avg # of iterations =  1.0

     negative rho (up, down):  1.257E-04 0.000E+00

     total cpu time spent up to now is      177.6 secs

     total energy              =     -41.55796387 Ry
     estimated scf accuracy    <          1.6E-09 Ry

     iteration # 10     ecut=    60.00 Ry     beta= 0.20
     Davidson diagonalization with overlap
     ethr =  1.32E-11,  avg # of iterations =  2.0

     negative rho (up, down):  1.323E-04 0.000E+00

     total cpu time spent up to now is      180.5 secs

     End of self-consistent calculation

          k = 0.0000 0.0000 0.0000 (178925 PWs)   bands (ev):

   -18.7508 -14.1646 -11.3903 -10.1442  -8.4213  -6.7039  -0.9968  -0.3744
     0.2121   0.2455

     the Fermi energy is    -3.8233 ev

!    total energy              =     -41.55796386 Ry
     estimated scf accuracy    <          2.4E-10 Ry
     smearing contrib. (-TS)   =       0.00000000 Ry
     internal energy E=F+TS    =     -41.55796386 Ry

     The total energy is F=E-TS. E is the sum of the following terms:
     one-electron contribution =     -86.68623384 Ry
     hartree contribution      =      44.79585681 Ry
     xc contribution           =     -12.00563770 Ry
     ewald contribution        =      24.68015721 Ry
     DFT-D3 Dispersion         =      -0.00470580 Ry
     one-center paw contrib.   =     -12.33740054 Ry

     convergence has been achieved in  10 iterations

     negative rho (up, down):  1.323E-04 0.000E+00

     Forces acting on atoms (cartesian axes, Ry/au):

     atom    1 type  1   force =     0.00000000    0.00000000    0.00480033
     atom    2 type  1   force =     0.00000000    0.00000000   -0.00480033
     atom    3 type  2   force =     0.00000000    0.00355946    0.00151564
     atom    4 type  2   force =     0.00000000   -0.00355946    0.00151564
     atom    5 type  2   force =     0.00000000    0.00355946   -0.00151564
     atom    6 type  2   force =     0.00000000   -0.00355946   -0.00151564

     Total force =     0.010293     Total SCF correction =     0.000004


     Computing stress (Cartesian axis) and pressure


     negative rho (up, down):  1.323E-04 0.000E+00
          total   stress  (Ry/bohr**3)                   (kbar)     P=        0.10
  -0.00000007   0.00000000   0.00000000           -0.01        0.00        0.00
   0.00000000   0.00000102   0.00000000            0.00        0.15        0.00
   0.00000000   0.00000000   0.00000107            0.00        0.00        0.16

     Energy error            =      1.3E-04 Ry
     Gradient error          =      4.8E-03 Ry/Bohr

     number of scf cycles    =   3
     number of bfgs steps    =   1

     energy             old  =     -41.5578306973 Ry
     energy             new  =     -41.5579638580 Ry

     CASE: energy            _new < energy            _old

     new trust radius        =       0.0053001565 bohr
     new conv_thr            =       0.0000000001 Ry


ATOMIC_POSITIONS (angstrom)
C                7.5000000000        7.5000000000        8.1658317354
C                7.5000000000        7.5000000000        6.8341682646
H                7.5000000000        8.4270337670        8.7397929706
H                7.5000000000        6.5729662330        8.7397929706
H                7.5000000000        8.4270337670        6.2602070294
H                7.5000000000        6.5729662330        6.2602070294



     Writing config-only to output data dir ./outdir/gas_c2h4.save/ :
     XML data file
     NEW-OLD atomic charge density approx. for the potential

     negative rho (up, down):  1.317E-04 0.000E+00

     total cpu time spent up to now is      191.4 secs

     Self-consistent Calculation

     iteration #  1     ecut=    60.00 Ry     beta= 0.20
     Davidson diagonalization with overlap
     ethr =  1.00E-06,  avg # of iterations =  3.0

     negative rho (up, down):  1.854E-04 0.000E+00

     total cpu time spent up to now is      194.5 secs

     total energy              =     -41.55803740 Ry
     estimated scf accuracy    <       0.00003205 Ry

     iteration #  2     ecut=    60.00 Ry     beta= 0.20
     Davidson diagonalization with overlap
     ethr =  2.67E-07,  avg # of iterations =  1.0

     negative rho (up, down):  7.933E-04 0.000E+00

     total cpu time spent up to now is      197.6 secs

     total energy              =     -41.55802262 Ry
     estimated scf accuracy    <       0.00002422 Ry

     iteration #  3     ecut=    60.00 Ry     beta= 0.20
     Davidson diagonalization with overlap
     ethr =  2.02E-07,  avg # of iterations =  2.0

     negative rho (up, down):  5.756E-04 0.000E+00

     total cpu time spent up to now is      200.7 secs

     total energy              =     -41.55803038 Ry
     estimated scf accuracy    <       0.00000640 Ry

     iteration #  4     ecut=    60.00 Ry     beta= 0.20
     Davidson diagonalization with overlap
     ethr =  5.33E-08,  avg # of iterations =  1.0

     negative rho (up, down):  5.696E-04 0.000E+00

     total cpu time spent up to now is      203.8 secs

     total energy              =     -41.55803078 Ry
     estimated scf accuracy    <       0.00000082 Ry

     iteration #  5     ecut=    60.00 Ry     beta= 0.20
     Davidson diagonalization with overlap
     ethr =  6.81E-09,  avg # of iterations =  1.0

     negative rho (up, down):  4.652E-04 0.000E+00

     total cpu time spent up to now is      206.9 secs

     total energy              =     -41.55803067 Ry
     estimated scf accuracy    <       0.00000043 Ry

     iteration #  6     ecut=    60.00 Ry     beta= 0.20
     Davidson diagonalization with overlap
     ethr =  3.55E-09,  avg # of iterations =  3.0

     negative rho (up, down):  4.642E-04 0.000E+00

     total cpu time spent up to now is      210.3 secs

     total energy              =     -41.55803101 Ry
     estimated scf accuracy    <       0.00000098 Ry

     iteration #  7     ecut=    60.00 Ry     beta= 0.20
     Davidson diagonalization with overlap
     ethr =  3.55E-09,  avg # of iterations =  1.0

     negative rho (up, down):  3.971E-04 0.000E+00

     total cpu time spent up to now is      213.3 secs

     total energy              =     -41.55803057 Ry
     estimated scf accuracy    <       0.00000081 Ry

     iteration #  8     ecut=    60.00 Ry     beta= 0.20
     Davidson diagonalization with overlap
     ethr =  3.55E-09,  avg # of iterations =  2.0

     negative rho (up, down):  3.125E-04 0.000E+00

     total cpu time spent up to now is      216.4 secs

     total energy              =     -41.55803084 Ry
     estimated scf accuracy    <       0.00000004 Ry

     iteration #  9     ecut=    60.00 Ry     beta= 0.20
     Davidson diagonalization with overlap
     ethr =  2.97E-10,  avg # of iterations =  3.0

     negative rho (up, down):  1.690E-04 0.000E+00

     total cpu time spent up to now is      219.5 secs

     total energy              =     -41.55803066 Ry
     estimated scf accuracy    <       0.00000040 Ry

     iteration # 10     ecut=    60.00 Ry     beta= 0.20
     Davidson diagonalization with overlap
     ethr =  2.97E-10,  avg # of iterations =  3.0

     negative rho (up, down):  1.658E-04 0.000E+00

     total cpu time spent up to now is      222.7 secs

     total energy              =     -41.55803074 Ry
     estimated scf accuracy    <          1.7E-09 Ry

     iteration # 11     ecut=    60.00 Ry     beta= 0.20
     Davidson diagonalization with overlap
     ethr =  1.40E-11,  avg # of iterations =  2.0

     negative rho (up, down):  1.398E-04 0.000E+00

     total cpu time spent up to now is      225.8 secs

     total energy              =     -41.55803072 Ry
     estimated scf accuracy    <          5.0E-09 Ry

     iteration # 12     ecut=    60.00 Ry     beta= 0.20
     Davidson diagonalization with overlap
     ethr =  1.40E-11,  avg # of iterations =  3.0

     negative rho (up, down):  1.303E-04 0.000E+00

     total cpu time spent up to now is      228.9 secs

     total energy              =     -41.55803071 Ry
     estimated scf accuracy    <          4.8E-09 Ry

     iteration # 13     ecut=    60.00 Ry     beta= 0.20
     Davidson diagonalization with overlap
     ethr =  1.40E-11,  avg # of iterations =  2.0

     negative rho (up, down):  1.311E-04 0.000E+00

     total cpu time spent up to now is      232.1 secs

     total energy              =     -41.55803072 Ry
     estimated scf accuracy    <          1.5E-10 Ry

     iteration # 14     ecut=    60.00 Ry     beta= 0.20
     Davidson diagonalization with overlap
     ethr =  1.25E-12,  avg # of iterations =  2.0

     negative rho (up, down):  1.317E-04 0.000E+00

     total cpu time spent up to now is      235.0 secs

     End of self-consistent calculation

          k = 0.0000 0.0000 0.0000 (178925 PWs)   bands (ev):

   -18.7322 -14.1526 -11.3798 -10.1260  -8.4259  -6.6944  -1.0103  -0.3758
     0.2102   0.2437

     the Fermi energy is    -3.8200 ev

!    total energy              =     -41.55803072 Ry
     estimated scf accuracy    <          8.4E-11 Ry
     smearing contrib. (-TS)   =       0.00000000 Ry
     internal energy E=F+TS    =     -41.55803072 Ry

     The total energy is F=E-TS. E is the sum of the following terms:
     one-electron contribution =     -86.55702666 Ry
     hartree contribution      =      44.72983536 Ry
     xc contribution           =     -11.99631163 Ry
     ewald contribution        =      24.60727105 Ry
     DFT-D3 Dispersion         =      -0.00470379 Ry
     one-center paw contrib.   =     -12.33709504 Ry

     convergence has been achieved in  14 iterations

     negative rho (up, down):  1.317E-04 0.000E+00

     Forces acting on atoms (cartesian axes, Ry/au):

     atom    1 type  1   force =     0.00000000    0.00000000    0.00111428
     atom    2 type  1   force =     0.00000000    0.00000000   -0.00111428
     atom    3 type  2   force =     0.00000000    0.00098337    0.00029957
     atom    4 type  2   force =     0.00000000   -0.00098337    0.00029957
     atom    5 type  2   force =     0.00000000    0.00098337   -0.00029957
     atom    6 type  2   force =     0.00000000   -0.00098337   -0.00029957

     Total force =     0.002590     Total SCF correction =     0.000011


     Computing stress (Cartesian axis) and pressure


     negative rho (up, down):  1.317E-04 0.000E+00
          total   stress  (Ry/bohr**3)                   (kbar)     P=        0.02
  -0.00000007   0.00000000   0.00000000           -0.01        0.00        0.00
   0.00000000   0.00000022   0.00000000            0.00        0.03        0.00
   0.00000000   0.00000000   0.00000017            0.00        0.00        0.02

     Energy error            =      6.7E-05 Ry
     Gradient error          =      1.1E-03 Ry/Bohr

     number of scf cycles    =   4
     number of bfgs steps    =   2

     energy             old  =     -41.5579638580 Ry
     energy             new  =     -41.5580307172 Ry

     CASE: energy            _new < energy            _old

     new trust radius        =       0.0018686832 bohr
     new conv_thr            =            6.7E-11 Ry


ATOMIC_POSITIONS (angstrom)
C                7.5000000000        7.5000000000        8.1662681341
C                7.5000000000        7.5000000000        6.8337318659
H                7.5000000000        8.4279627458        8.7401318681
H                7.5000000000        6.5720372542        8.7401318681
H                7.5000000000        8.4279627458        6.2598681319
H                7.5000000000        6.5720372542        6.2598681319



     Writing config-only to output data dir ./outdir/gas_c2h4.save/ :
     XML data file
     NEW-OLD atomic charge density approx. for the potential

     negative rho (up, down):  1.316E-04 0.000E+00

     total cpu time spent up to now is      245.8 secs

     Self-consistent Calculation

     iteration #  1     ecut=    60.00 Ry     beta= 0.20
     Davidson diagonalization with overlap
     ethr =  1.00E-06,  avg # of iterations =  2.0

     Threshold (ethr) on eigenvalues was too large:
     Diagonalizing with lowered threshold

     Davidson diagonalization with overlap
     ethr =  2.33E-08,  avg # of iterations =  2.0

     negative rho (up, down):  1.469E-04 0.000E+00

     total cpu time spent up to now is      249.1 secs

     total energy              =     -41.55803631 Ry
     estimated scf accuracy    <       0.00000358 Ry

     iteration #  2     ecut=    60.00 Ry     beta= 0.20
     Davidson diagonalization with overlap
     ethr =  2.99E-08,  avg # of iterations =  1.0

     negative rho (up, down):  2.754E-04 0.000E+00

     total cpu time spent up to now is      252.2 secs

     total energy              =     -41.55803464 Ry
     estimated scf accuracy    <       0.00000265 Ry

     iteration #  3     ecut=    60.00 Ry     beta= 0.20
     Davidson diagonalization with overlap
     ethr =  2.21E-08,  avg # of iterations =  2.0

     negative rho (up, down):  2.262E-04 0.000E+00

     total cpu time spent up to now is      255.3 secs

     total energy              =     -41.55803545 Ry
     estimated scf accuracy    <       0.00000064 Ry

     iteration #  4     ecut=    60.00 Ry     beta= 0.20
     Davidson diagonalization with overlap
     ethr =  5.33E-09,  avg # of iterations =  2.0

     negative rho (up, down):  2.287E-04 0.000E+00

     total cpu time spent up to now is      258.4 secs

     total energy              =     -41.55803554 Ry
     estimated scf accuracy    <       0.00000005 Ry

     iteration #  5     ecut=    60.00 Ry     beta= 0.20
     Davidson diagonalization with overlap
     ethr =  4.34E-10,  avg # of iterations =  2.0

     negative rho (up, down):  2.177E-04 0.000E+00

     total cpu time spent up to now is      261.7 secs

     total energy              =     -41.55803556 Ry
     estimated scf accuracy    <       0.00000001 Ry

     iteration #  6     ecut=    60.00 Ry     beta= 0.20
     Davidson diagonalization with overlap
     ethr =  1.01E-10,  avg # of iterations =  3.0

     negative rho (up, down):  1.966E-04 0.000E+00

     total cpu time spent up to now is      264.8 secs

     total energy              =     -41.55803556 Ry
     estimated scf accuracy    <       0.00000004 Ry

     iteration #  7     ecut=    60.00 Ry     beta= 0.20
     Davidson diagonalization with overlap
     ethr =  1.01E-10,  avg # of iterations =  2.0

     negative rho (up, down):  1.846E-04 0.000E+00

     total cpu time spent up to now is      267.9 secs

     total energy              =     -41.55803557 Ry
     estimated scf accuracy    <          4.6E-09 Ry

     iteration #  8     ecut=    60.00 Ry     beta= 0.20
     Davidson diagonalization with overlap
     ethr =  3.80E-11,  avg # of iterations =  2.0

     negative rho (up, down):  1.370E-04 0.000E+00

     total cpu time spent up to now is      271.0 secs

     total energy              =     -41.55803555 Ry
     estimated scf accuracy    <          1.3E-09 Ry

     iteration #  9     ecut=    60.00 Ry     beta= 0.20
     Davidson diagonalization with overlap
     ethr =  1.05E-11,  avg # of iterations =  2.0

     negative rho (up, down):  1.350E-04 0.000E+00

     total cpu time spent up to now is      274.0 secs

     total energy              =     -41.55803555 Ry
     estimated scf accuracy    <          2.3E-10 Ry

     iteration # 10     ecut=    60.00 Ry     beta= 0.20
     Davidson diagonalization with overlap
     ethr =  1.88E-12,  avg # of iterations =  1.0

     negative rho (up, down):  1.316E-04 0.000E+00

     total cpu time spent up to now is      277.1 secs

     total energy              =     -41.55803555 Ry
     estimated scf accuracy    <          1.3E-10 Ry

     iteration # 11     ecut=    60.00 Ry     beta= 0.20
     Davidson diagonalization with overlap
     ethr =  1.07E-12,  avg # of iterations =  2.0

     negative rho (up, down):  1.316E-04 0.000E+00

     total cpu time spent up to now is      279.9 secs

     End of self-consistent calculation

          k = 0.0000 0.0000 0.0000 (178925 PWs)   bands (ev):

   -18.7262 -14.1479 -11.3765 -10.1195  -8.4273  -6.6914  -1.0147  -0.3762
     0.2096   0.2429

     the Fermi energy is    -3.8191 ev

!    total energy              =     -41.55803555 Ry
     estimated scf accuracy    <          9.2E-12 Ry
     smearing contrib. (-TS)   =       0.00000000 Ry
     internal energy E=F+TS    =     -41.55803555 Ry

     The total energy is F=E-TS. E is the sum of the following terms:
     one-electron contribution =     -86.51348223 Ry
     hartree contribution      =      44.70762019 Ry
     xc contribution           =     -11.99312131 Ry
     ewald contribution        =      24.58264474 Ry
     DFT-D3 Dispersion         =      -0.00470314 Ry
     one-center paw contrib.   =     -12.33699381 Ry

     convergence has been achieved in  11 iterations

     negative rho (up, down):  1.316E-04 0.000E+00

     Forces acting on atoms (cartesian axes, Ry/au):

     atom    1 type  1   force =     0.00000000    0.00000000   -0.00000149
     atom    2 type  1   force =     0.00000000    0.00000000    0.00000149
     atom    3 type  2   force =     0.00000000    0.00006272   -0.00011500
     atom    4 type  2   force =     0.00000000   -0.00006272   -0.00011500
     atom    5 type  2   force =     0.00000000    0.00006272    0.00011500
     atom    6 type  2   force =     0.00000000   -0.00006272    0.00011500

     Total force =     0.000262     Total SCF correction =     0.000002


     Computing stress (Cartesian axis) and pressure


     negative rho (up, down):  1.316E-04 0.000E+00
          total   stress  (Ry/bohr**3)                   (kbar)     P=       -0.01
  -0.00000007   0.00000000   0.00000000           -0.01        0.00        0.00
   0.00000000  -0.00000006   0.00000000            0.00       -0.01        0.00
   0.00000000   0.00000000  -0.00000013            0.00        0.00       -0.02

     Energy error            =      4.8E-06 Ry
     Gradient error          =      1.1E-04 Ry/Bohr

     number of scf cycles    =   5
     number of bfgs steps    =   3

     energy             old  =     -41.5580307172 Ry
     energy             new  =     -41.5580355536 Ry

     CASE: energy            _new < energy            _old

     new trust radius        =       0.0001376976 bohr
     new conv_thr            =            1.0E-11 Ry


ATOMIC_POSITIONS (angstrom)
C                7.5000000000        7.5000000000        8.1662701377
C                7.5000000000        7.5000000000        6.8337298623
H                7.5000000000        8.4280078928        8.7400746731
H                7.5000000000        6.5719921072        8.7400746731
H                7.5000000000        8.4280078928        6.2599253269
H                7.5000000000        6.5719921072        6.2599253269



     Writing config-only to output data dir ./outdir/gas_c2h4.save/ :
     XML data file
     NEW-OLD atomic charge density approx. for the potential

     negative rho (up, down):  1.316E-04 0.000E+00

     total cpu time spent up to now is      290.5 secs

     Self-consistent Calculation

     iteration #  1     ecut=    60.00 Ry     beta= 0.20
     Davidson diagonalization with overlap
     ethr =  1.00E-06,  avg # of iterations =  1.0

     Threshold (ethr) on eigenvalues was too large:
     Diagonalizing with lowered threshold

     Davidson diagonalization with overlap
     ethr =  1.01E-11,  avg # of iterations =  3.0

     negative rho (up, down):  1.317E-04 0.000E+00

     total cpu time spent up to now is      294.1 secs

     total energy              =     -41.55803562 Ry
     estimated scf accuracy    <          1.9E-09 Ry

     iteration #  2     ecut=    60.00 Ry     beta= 0.20
     Davidson diagonalization with overlap
     ethr =  1.59E-11,  avg # of iterations =  1.0

     negative rho (up, down):  1.321E-04 0.000E+00

     total cpu time spent up to now is      297.0 secs

     total energy              =     -41.55803562 Ry
     estimated scf accuracy    <          1.3E-09 Ry

     iteration #  3     ecut=    60.00 Ry     beta= 0.20
     Davidson diagonalization with overlap
     ethr =  1.12E-11,  avg # of iterations =  2.0

     negative rho (up, down):  1.321E-04 0.000E+00

     total cpu time spent up to now is      300.0 secs

     total energy              =     -41.55803562 Ry
     estimated scf accuracy    <          3.4E-11 Ry

     iteration #  4     ecut=    60.00 Ry     beta= 0.20
     Davidson diagonalization with overlap
     ethr =  2.81E-13,  avg # of iterations =  2.0

     negative rho (up, down):  1.321E-04 0.000E+00

     total cpu time spent up to now is      303.3 secs

     total energy              =     -41.55803562 Ry
     estimated scf accuracy    <          1.7E-11 Ry

     iteration #  5     ecut=    60.00 Ry     beta= 0.20
     Davidson diagonalization with overlap
     ethr =  1.42E-13,  avg # of iterations =  1.0

     negative rho (up, down):  1.316E-04 0.000E+00

     total cpu time spent up to now is      306.1 secs

     End of self-consistent calculation

          k = 0.0000 0.0000 0.0000 (178925 PWs)   bands (ev):

   -18.7262 -14.1477 -11.3768 -10.1191  -8.4275  -6.6914  -1.0147  -0.3763
     0.2096   0.2427

     the Fermi energy is    -3.8192 ev

!    total energy              =     -41.55803562 Ry
     estimated scf accuracy    <          3.0E-12 Ry
     smearing contrib. (-TS)   =       0.00000000 Ry
     internal energy E=F+TS    =     -41.55803562 Ry

     The total energy is F=E-TS. E is the sum of the following terms:
     one-electron contribution =     -86.51346542 Ry
     hartree contribution      =      44.70762213 Ry
     xc contribution           =     -11.99310141 Ry
     ewald contribution        =      24.58260599 Ry
     DFT-D3 Dispersion         =      -0.00470316 Ry
     one-center paw contrib.   =     -12.33699374 Ry

     convergence has been achieved in   5 iterations

     negative rho (up, down):  1.316E-04 0.000E+00

     Forces acting on atoms (cartesian axes, Ry/au):

     atom    1 type  1   force =     0.00000000    0.00000000   -0.00001602
     atom    2 type  1   force =     0.00000000    0.00000000    0.00001602
     atom    3 type  2   force =     0.00000000    0.00004142   -0.00010345
     atom    4 type  2   force =     0.00000000   -0.00004142   -0.00010345
     atom    5 type  2   force =     0.00000000    0.00004142    0.00010345
     atom    6 type  2   force =     0.00000000   -0.00004142    0.00010345

     Total force =     0.000224     Total SCF correction =     0.000002


     Computing stress (Cartesian axis) and pressure


     negative rho (up, down):  1.316E-04 0.000E+00
          total   stress  (Ry/bohr**3)                   (kbar)     P=       -0.01
  -0.00000007   0.00000000   0.00000000           -0.01        0.00        0.00
   0.00000000  -0.00000006   0.00000000            0.00       -0.01        0.00
   0.00000000   0.00000000  -0.00000012            0.00        0.00       -0.02

     Energy error            =      6.4E-08 Ry
     Gradient error          =      1.0E-04 Ry/Bohr

     number of scf cycles    =   6
     number of bfgs steps    =   4

     energy             old  =     -41.5580355536 Ry
     energy             new  =     -41.5580356178 Ry

     CASE: energy            _new < energy            _old


     WARNING: bfgs curvature condition failed, Theta= 0.969
     new trust radius        =       0.0001514674 bohr
     new conv_thr            =            1.0E-11 Ry


ATOMIC_POSITIONS (angstrom)
C                7.5000000000        7.5000000000        8.1662658510
C                7.5000000000        7.5000000000        6.8337341490
H                7.5000000000        8.4280457093        8.7400040018
H                7.5000000000        6.5719542907        8.7400040018
H                7.5000000000        8.4280457093        6.2599959982
H                7.5000000000        6.5719542907        6.2599959982



     Writing config-only to output data dir ./outdir/gas_c2h4.save/ :
     XML data file
     NEW-OLD atomic charge density approx. for the potential

     negative rho (up, down):  1.316E-04 0.000E+00

     total cpu time spent up to now is      316.7 secs

     Self-consistent Calculation

     iteration #  1     ecut=    60.00 Ry     beta= 0.20
     Davidson diagonalization with overlap
     ethr =  1.00E-06,  avg # of iterations =  1.0

     Threshold (ethr) on eigenvalues was too large:
     Diagonalizing with lowered threshold

     Davidson diagonalization with overlap
     ethr =  1.33E-11,  avg # of iterations =  3.0

     negative rho (up, down):  1.315E-04 0.000E+00

     total cpu time spent up to now is      320.0 secs

     total energy              =     -41.55803568 Ry
     estimated scf accuracy    <          3.3E-09 Ry

     iteration #  2     ecut=    60.00 Ry     beta= 0.20
     Davidson diagonalization with overlap
     ethr =  2.73E-11,  avg # of iterations =  1.0

     negative rho (up, down):  1.309E-04 0.000E+00

     total cpu time spent up to now is      323.0 secs

     total energy              =     -41.55803568 Ry
     estimated scf accuracy    <          2.2E-09 Ry

     iteration #  3     ecut=    60.00 Ry     beta= 0.20
     Davidson diagonalization with overlap
     ethr =  1.85E-11,  avg # of iterations =  2.0

     negative rho (up, down):  1.309E-04 0.000E+00

     total cpu time spent up to now is      326.0 secs

     total energy              =     -41.55803568 Ry
     estimated scf accuracy    <          7.3E-11 Ry

     iteration #  4     ecut=    60.00 Ry     beta= 0.20
     Davidson diagonalization with overlap
     ethr =  6.08E-13,  avg # of iterations =  1.0

     negative rho (up, down):  1.309E-04 0.000E+00

     total cpu time spent up to now is      329.0 secs

     total energy              =     -41.55803568 Ry
     estimated scf accuracy    <          7.6E-11 Ry

     iteration #  5     ecut=    60.00 Ry     beta= 0.20
     Davidson diagonalization with overlap
     ethr =  6.08E-13,  avg # of iterations =  1.0

     negative rho (up, down):  1.312E-04 0.000E+00

     total cpu time spent up to now is      332.1 secs

     total energy              =     -41.55803568 Ry
     estimated scf accuracy    <          9.8E-11 Ry

     iteration #  6     ecut=    60.00 Ry     beta= 0.20
     Davidson diagonalization with overlap
     ethr =  6.08E-13,  avg # of iterations =  2.0

     negative rho (up, down):  1.316E-04 0.000E+00

     total cpu time spent up to now is      334.9 secs

     End of self-consistent calculation

          k = 0.0000 0.0000 0.0000 (178925 PWs)   bands (ev):

   -18.7264 -14.1474 -11.3772 -10.1187  -8.4277  -6.6914  -1.0146  -0.3763
     0.2096   0.2426

     the Fermi energy is    -3.8194 ev

!    total energy              =     -41.55803568 Ry
     estimated scf accuracy    <          7.1E-12 Ry
     smearing contrib. (-TS)   =       0.00000000 Ry
     internal energy E=F+TS    =     -41.55803568 Ry

     The total energy is F=E-TS. E is the sum of the following terms:
     one-electron contribution =     -86.51408941 Ry
     hartree contribution      =      44.70794450 Ry
     xc contribution           =     -11.99312412 Ry
     ewald contribution        =      24.58293155 Ry
     DFT-D3 Dispersion         =      -0.00470320 Ry
     one-center paw contrib.   =     -12.33699500 Ry

     convergence has been achieved in   6 iterations

     negative rho (up, down):  1.316E-04 0.000E+00

     Forces acting on atoms (cartesian axes, Ry/au):

     atom    1 type  1   force =     0.00000000    0.00000000   -0.00001651
     atom    2 type  1   force =     0.00000000    0.00000000    0.00001651
     atom    3 type  2   force =     0.00000000    0.00003136   -0.00008396
     atom    4 type  2   force =     0.00000000   -0.00003136   -0.00008396
     atom    5 type  2   force =     0.00000000    0.00003136    0.00008396
     atom    6 type  2   force =     0.00000000   -0.00003136    0.00008396

     Total force =     0.000181     Total SCF correction =     0.000004


     Computing stress (Cartesian axis) and pressure


     negative rho (up, down):  1.316E-04 0.000E+00
          total   stress  (Ry/bohr**3)                   (kbar)     P=       -0.01
  -0.00000007   0.00000000   0.00000000           -0.01        0.00        0.00
   0.00000000  -0.00000007   0.00000000            0.00       -0.01        0.00
   0.00000000   0.00000000  -0.00000011            0.00        0.00       -0.02

     Energy error            =      6.2E-08 Ry
     Gradient error          =      8.4E-05 Ry/Bohr

     bfgs converged in   7 scf cycles and   5 bfgs steps
     (criteria: energy <  1.0E-05 Ry, force <  1.0E-04 Ry/Bohr)

     End of BFGS Geometry Optimization

     Final energy             =     -41.5580356799 Ry

     File ./outdir/gas_c2h4.bfgs deleted, as requested
Begin final coordinates

ATOMIC_POSITIONS (angstrom)
C                7.5000000000        7.5000000000        8.1662658510
C                7.5000000000        7.5000000000        6.8337341490
H                7.5000000000        8.4280457093        8.7400040018
H                7.5000000000        6.5719542907        8.7400040018
H                7.5000000000        8.4280457093        6.2599959982
H                7.5000000000        6.5719542907        6.2599959982
End final coordinates



     Writing all to output data dir ./outdir/gas_c2h4.save/ :
     XML data file, charge density, pseudopotentials, collected wavefunctions
 
     init_run     :    185.70s CPU     14.14s WALL (       1 calls)
     electrons    :    317.00s CPU    257.85s WALL (       7 calls)
     update_pot   :      4.50s CPU      1.30s WALL (       6 calls)
     forces       :     56.57s CPU     51.54s WALL (       7 calls)
     force_dftd3  :      0.12s CPU      0.01s WALL (       7 calls)
     stress       :      3.27s CPU      2.99s WALL (       7 calls)
     stres_dftd3  :      0.14s CPU      0.01s WALL (       7 calls)

     Called by init_run:
     wfcinit      :      0.07s CPU      0.20s WALL (       1 calls)
     potinit      :    180.54s CPU      8.50s WALL (       1 calls)
     hinit0       :      0.57s CPU      0.43s WALL (       1 calls)

     Called by electrons:
     c_bands      :     10.88s CPU     10.64s WALL (      84 calls)
     sum_band     :     17.15s CPU     16.95s WALL (      84 calls)
     v_of_rho     :      5.30s CPU      5.12s WALL (      88 calls)
     newd         :    213.96s CPU    210.98s WALL (      88 calls)
     PAW_pot      :     17.03s CPU      0.94s WALL (      94 calls)
     mix_rho      :     18.07s CPU     15.89s WALL (      84 calls)
     energy_dftd3 :      0.01s CPU      0.01s WALL (       7 calls)

     Called by c_bands:
     init_us_2    :      0.11s CPU      0.08s WALL (     182 calls)
     cegterg      :     10.73s CPU     10.50s WALL (      84 calls)

     Called by *egterg:
     cdiaghg      :      0.17s CPU      0.21s WALL (     269 calls)
                                        0.20s GPU  (     269 calls)
     h_psi        :      2.26s CPU      2.26s WALL (     279 calls)
     s_psi        :      0.19s CPU      0.18s WALL (     279 calls)
     g_psi        :      0.01s CPU      0.01s WALL (     194 calls)

     Called by h_psi:
     h_psi:calbec :      0.05s CPU      0.15s WALL (     279 calls)
     vloc_psi     :      1.85s CPU      1.75s WALL (     279 calls)
                                        1.75s GPU  (     279 calls)
     add_vuspsi   :      0.34s CPU      0.35s WALL (     279 calls)

     General routines
     calbec       :      0.06s CPU      0.16s WALL (     488 calls)
     fft          :    177.90s CPU     10.70s WALL (    1314 calls)
                                        2.29s GPU  (    1226 calls)
     ffts         :     49.90s CPU      5.65s WALL (    9274 calls)
                                        3.23s GPU  (    9186 calls)
     fftw         :      0.01s CPU      1.74s WALL (     642 calls)
                                        1.73s GPU  (     642 calls)
     interpolate  :    231.32s CPU     16.79s WALL (      88 calls)
 
 
     PWSCF        :   9m45.66s CPU   5m43.20s WALL

 
   This run was terminated on:   3:35:33  29Jun2026            

=------------------------------------------------------------------------------=
   JOB DONE.
=------------------------------------------------------------------------------=
