
     Program PWSCF v.7.5 starts on 29Jun2026 at  4: 4:49 

     This program is part of the open-source Quantum ESPRESSO suite
     for quantum simulation of materials; please cite
         "P. Giannozzi et al., J. Phys.:Condens. Matter 21 395502 (2009);
         "P. Giannozzi et al., J. Phys.:Condens. Matter 29 465901 (2017);
         "P. Giannozzi et al., J. Chem. Phys. 152 154105 (2020);
          URL http://www.quantum-espresso.org", 
     in publications or presentations arising from this work. More details at
     http://www.quantum-espresso.org/quote

     Serial multi-threaded version, running on   32 processor cores
     39361 MiB available memory on the printing compute node when the environment starts
 
     Reading input from inputs/slab.in

     Current dimensions of program PWSCF are:
     Max number of different atomic species (ntypx) = 10
     Max number of k-points (npk) =  40000
     Max angular momentum in pseudopotentials (lmaxx) =  4
     file O.pbe-n-kjpaw_psl.0.1.UPF: wavefunction(s)  2P renormalized
     Found identity + (  0.0000  0.3333  0.0000) symmetry
     This is a supercell, fractional translations are disabled
     Message from routine setup:
     using ibrav=0 with symmetry is DISCOURAGED, use correct ibrav instead
 
 
     G-vector sticks info
     --------------------
     sticks:   dense  smooth     PW     G-vecs:    dense   smooth      PW
     Sum       21023    8415   2217              5479777  1386253  187883
 
     Using Slab Decomposition
 


     bravais-lattice index     =            0
     lattice parameter (alat)  =      21.9217  a.u.
     unit-cell volume          =   22078.8226 (a.u.)^3
     number of atoms/cell      =           84
     number of atomic types    =            2
     number of electrons       =       672.00
     number of Kohn-Sham states=          403
     kinetic-energy cutoff     =      60.0000  Ry
     charge density cutoff     =     600.0000  Ry
     scf convergence threshold =      1.0E-09
     mixing beta               =       0.2000
     number of iterations used =            8  local-TF  mixing
     energy convergence thresh.=      1.0E-05
     force convergence thresh. =      1.0E-04
     Exchange-correlation= SLA  PW   PBX  PBC
                           (   1   4   3   4   0   0   0)
     nstep                     =          200


     GPU acceleration is ACTIVE.  1 visible GPUs per MPI rank


     Effective Screening Medium Method
     =================================
     Boundary Conditions: Vacuum-Slab-Vacuum
     total charge in unit cell        =   0.0000
     grid points for fit at edges     =        4 
 

     celldm(1)=  21.921702  celldm(2)=   0.000000  celldm(3)=   0.000000
     celldm(4)=   0.000000  celldm(5)=   0.000000  celldm(6)=   0.000000

     crystal axes: (cart. coord. in units of alat)
               a(1) = (   1.000000   0.000000   0.000000 )  
               a(2) = (   0.000000   0.916399   0.000000 )  
               a(3) = (   0.000000   0.000000   2.287012 )  

     reciprocal axes: (cart. coord. in units 2 pi/alat)
               b(1) = (  1.000000  0.000000  0.000000 )  
               b(2) = (  0.000000  1.091228  0.000000 )  
               b(3) = (  0.000000  0.000000  0.437252 )  


     PseudoPot. # 1 for V  read from file:
     /home/x/Workspace/3-hEspesso/pseudo/v_pbe_v1.4.uspp.F.UPF
     MD5 check sum: 22b79981416ebb76fdaf5b1b8640f6fb
     Pseudo is Ultrasoft + core correction, Zval = 13.0
     Generated by new atomic code, or converted to UPF format
     Using radial grid of  853 points,  6 beta functions with: 
                l(1) =   0
                l(2) =   0
                l(3) =   1
                l(4) =   1
                l(5) =   2
                l(6) =   2
     Q(r) pseudized with  8 coefficients,  rinner =    1.100   1.100   1.100
                                                       1.100   1.100

     PseudoPot. # 2 for O  read from file:
     /home/x/Workspace/3-hEspesso/pseudo/O.pbe-n-kjpaw_psl.0.1.UPF
     MD5 check sum: 0234752ac141de4415c5fc33072bef88
     Pseudo is Projector augmented-wave + core cor, Zval =  6.0
     Generated using "atomic" code by A. Dal Corso  v.5.0.99 svn rev. 10869
     Shape of augmentation charge: BESSEL
     Using radial grid of 1095 points,  4 beta functions with: 
                l(1) =   0
                l(2) =   0
                l(3) =   1
                l(4) =   1
     Q(r) pseudized with 0 coefficients 


     atomic species   valence    mass     pseudopotential
     V                13.00    50.94150     V ( 1.00)
     O                 6.00    15.99900     O ( 1.00)

      4 Sym. Ops. (no inversion) found



   Cartesian axes

     site n.     atom                  positions (alat units)
         1        V      tau(   1) = (   0.6478532   0.0000000  -0.1462784  )
         2        V      tau(   2) = (   0.8521468   0.1527332  -0.2310634  )
         3        V      tau(   3) = (   0.1478532   0.1527332  -0.2310634  )
         4        V      tau(   4) = (   0.3521468   0.0000000  -0.1462784  )
         5        O      tau(   5) = (   0.6811663   0.1527332  -0.1872885  )
         6        O      tau(   6) = (   0.8188337   0.0000000  -0.1900533  )
         7        O      tau(   7) = (   0.1811663   0.0000000  -0.1900533  )
         8        O      tau(   8) = (   0.3188337   0.1527332  -0.1872885  )
         9        O      tau(   9) = (   0.3550519   0.0000000  -0.0096667  )
        10        O      tau(  10) = (   0.1449481   0.1527332  -0.3676751  )
        11        O      tau(  11) = (   0.8550519   0.1527332  -0.3676751  )
        12        O      tau(  12) = (   0.0000000   0.1527332  -0.1902123  )
        13        O      tau(  13) = (   0.5000000   0.0000000  -0.1871295  )
        14        O      tau(  14) = (   0.6449481   0.0000000  -0.0096667  )
        15        V      tau(  15) = (   0.6478532   0.0000000   0.2310634  )
        16        V      tau(  16) = (   0.8521468   0.1527332   0.1462784  )
        17        V      tau(  17) = (   0.1478532   0.1527332   0.1462784  )
        18        V      tau(  18) = (   0.3521468   0.0000000   0.2310634  )
        19        O      tau(  19) = (   0.6811663   0.1527332   0.1900533  )
        20        O      tau(  20) = (   0.8188337   0.0000000   0.1872885  )
        21        O      tau(  21) = (   0.1811663   0.0000000   0.1872885  )
        22        O      tau(  22) = (   0.3188337   0.1527332   0.1900533  )
        23        O      tau(  23) = (   0.3550519   0.0000000   0.3676751  )
        24        O      tau(  24) = (   0.1449481   0.1527332   0.0096667  )
        25        O      tau(  25) = (   0.8550519   0.1527332   0.0096667  )
        26        O      tau(  26) = (   0.0000000   0.1527332   0.1871295  )
        27        O      tau(  27) = (   0.5000000   0.0000000   0.1902123  )
        28        O      tau(  28) = (   0.6449481   0.0000000   0.3676751  )
        29        V      tau(  29) = (   0.6478532   0.3054664  -0.1462784  )
        30        V      tau(  30) = (   0.8521468   0.4581995  -0.2310634  )
        31        V      tau(  31) = (   0.1478532   0.4581995  -0.2310634  )
        32        V      tau(  32) = (   0.3521468   0.3054664  -0.1462784  )
        33        O      tau(  33) = (   0.6811663   0.4581995  -0.1872885  )
        34        O      tau(  34) = (   0.8188337   0.3054664  -0.1900533  )
        35        O      tau(  35) = (   0.1811663   0.3054664  -0.1900533  )
        36        O      tau(  36) = (   0.3188337   0.4581995  -0.1872885  )
        37        O      tau(  37) = (   0.3550519   0.3054664  -0.0096667  )
        38        O      tau(  38) = (   0.1449481   0.4581995  -0.3676751  )
        39        O      tau(  39) = (   0.8550519   0.4581995  -0.3676751  )
        40        O      tau(  40) = (   0.0000000   0.4581995  -0.1902123  )
        41        O      tau(  41) = (   0.5000000   0.3054664  -0.1871295  )
        42        O      tau(  42) = (   0.6449481   0.3054664  -0.0096667  )
        43        V      tau(  43) = (   0.6478532   0.3054664   0.2310634  )
        44        V      tau(  44) = (   0.8521468   0.4581995   0.1462784  )
        45        V      tau(  45) = (   0.1478532   0.4581995   0.1462784  )
        46        V      tau(  46) = (   0.3521468   0.3054664   0.2310634  )
        47        O      tau(  47) = (   0.6811663   0.4581995   0.1900533  )
        48        O      tau(  48) = (   0.8188337   0.3054664   0.1872885  )
        49        O      tau(  49) = (   0.1811663   0.3054664   0.1872885  )
        50        O      tau(  50) = (   0.3188337   0.4581995   0.1900533  )
        51        O      tau(  51) = (   0.3550519   0.3054664   0.3676751  )
        52        O      tau(  52) = (   0.1449481   0.4581995   0.0096667  )
        53        O      tau(  53) = (   0.8550519   0.4581995   0.0096667  )
        54        O      tau(  54) = (   0.0000000   0.4581995   0.1871295  )
        55        O      tau(  55) = (   0.5000000   0.3054664   0.1902123  )
        56        O      tau(  56) = (   0.6449481   0.3054664   0.3676751  )
        57        V      tau(  57) = (   0.6478532   0.6109327  -0.1462784  )
        58        V      tau(  58) = (   0.8521468   0.7636659  -0.2310634  )
        59        V      tau(  59) = (   0.1478532   0.7636659  -0.2310634  )
        60        V      tau(  60) = (   0.3521468   0.6109327  -0.1462784  )
        61        O      tau(  61) = (   0.6811663   0.7636659  -0.1872885  )
        62        O      tau(  62) = (   0.8188337   0.6109327  -0.1900533  )
        63        O      tau(  63) = (   0.1811663   0.6109327  -0.1900533  )
        64        O      tau(  64) = (   0.3188337   0.7636659  -0.1872885  )
        65        O      tau(  65) = (   0.3550519   0.6109327  -0.0096667  )
        66        O      tau(  66) = (   0.1449481   0.7636659  -0.3676751  )
        67        O      tau(  67) = (   0.8550519   0.7636659  -0.3676751  )
        68        O      tau(  68) = (   0.0000000   0.7636659  -0.1902123  )
        69        O      tau(  69) = (   0.5000000   0.6109327  -0.1871295  )
        70        O      tau(  70) = (   0.6449481   0.6109327  -0.0096667  )
        71        V      tau(  71) = (   0.6478532   0.6109327   0.2310634  )
        72        V      tau(  72) = (   0.8521468   0.7636659   0.1462784  )
        73        V      tau(  73) = (   0.1478532   0.7636659   0.1462784  )
        74        V      tau(  74) = (   0.3521468   0.6109327   0.2310634  )
        75        O      tau(  75) = (   0.6811663   0.7636659   0.1900533  )
        76        O      tau(  76) = (   0.8188337   0.6109327   0.1872885  )
        77        O      tau(  77) = (   0.1811663   0.6109327   0.1872885  )
        78        O      tau(  78) = (   0.3188337   0.7636659   0.1900533  )
        79        O      tau(  79) = (   0.3550519   0.6109327   0.3676751  )
        80        O      tau(  80) = (   0.1449481   0.7636659   0.0096667  )
        81        O      tau(  81) = (   0.8550519   0.7636659   0.0096667  )
        82        O      tau(  82) = (   0.0000000   0.7636659   0.1871295  )
        83        O      tau(  83) = (   0.5000000   0.6109327   0.1902123  )
        84        O      tau(  84) = (   0.6449481   0.6109327   0.3676751  )

     --------------------------------------------
     DFT-D3 Dispersion Correction (3-body terms):
     --------------------------------------------
       Reference C6 values for interpolation: 

         atom   Coordination number   C6
         O          0.000            31.01
         O          0.993            25.63
         O          1.989            20.74
         V          0.000          2232.20
         V          1.914           580.29
         V          2.911           538.67

       Values used:

         atom   Coordination number  R0_AB[au]  C6      C8
         V          6.986            3.516    538.67  59684.75
         V          7.071            3.516    538.67  59684.75
         V          7.071            3.516    538.67  59684.75
         V          6.986            3.516    538.67  59684.75
         O          2.984            2.345     20.74    418.58
         O          2.986            2.345     20.74    418.58
         O          2.986            2.345     20.74    418.58
         O          2.984            2.345     20.74    418.58
         O          1.177            2.345     25.26    509.74
         O          1.026            2.345     25.58    516.23
         O          1.026            2.345     25.58    516.23
         O          2.029            2.345     20.80    419.81
         O          2.025            2.345     20.80    419.85
         O          1.177            2.345     25.26    509.74
         V          7.071            3.516    538.67  59684.75
         V          6.986            3.516    538.67  59684.75
         V          6.986            3.516    538.67  59684.75
         V          7.071            3.516    538.67  59684.75
         O          2.986            2.345     20.74    418.58
         O          2.984            2.345     20.74    418.58
         O          2.984            2.345     20.74    418.58
         O          2.986            2.345     20.74    418.58
         O          1.026            2.345     25.58    516.23
         O          1.177            2.345     25.26    509.74
         O          1.177            2.345     25.26    509.74
         O          2.025            2.345     20.80    419.85
         O          2.029            2.345     20.80    419.81
         O          1.026            2.345     25.58    516.23
         V          6.986            3.516    538.67  59684.75
         V          7.071            3.516    538.67  59684.75
         V          7.071            3.516    538.67  59684.75
         V          6.986            3.516    538.67  59684.75
         O          2.984            2.345     20.74    418.58
         O          2.986            2.345     20.74    418.58
         O          2.986            2.345     20.74    418.58
         O          2.984            2.345     20.74    418.58
         O          1.177            2.345     25.26    509.74
         O          1.026            2.345     25.58    516.23
         O          1.026            2.345     25.58    516.23
         O          2.029            2.345     20.80    419.81
         O          2.025            2.345     20.80    419.85
         O          1.177            2.345     25.26    509.74
         V          7.071            3.516    538.67  59684.75
         V          6.986            3.516    538.67  59684.75
         V          6.986            3.516    538.67  59684.75
         V          7.071            3.516    538.67  59684.75
         O          2.986            2.345     20.74    418.58
         O          2.984            2.345     20.74    418.58
         O          2.984            2.345     20.74    418.58
         O          2.986            2.345     20.74    418.58
         O          1.026            2.345     25.58    516.23
         O          1.177            2.345     25.26    509.74
         O          1.177            2.345     25.26    509.74
         O          2.025            2.345     20.80    419.85
         O          2.029            2.345     20.80    419.81
         O          1.026            2.345     25.58    516.23
         V          6.986            3.516    538.67  59684.75
         V          7.071            3.516    538.67  59684.75
         V          7.071            3.516    538.67  59684.75
         V          6.986            3.516    538.67  59684.75
         O          2.984            2.345     20.74    418.58
         O          2.986            2.345     20.74    418.58
         O          2.986            2.345     20.74    418.58
         O          2.984            2.345     20.74    418.58
         O          1.177            2.345     25.26    509.74
         O          1.026            2.345     25.58    516.23
         O          1.026            2.345     25.58    516.23
         O          2.029            2.345     20.80    419.81
         O          2.025            2.345     20.80    419.85
         O          1.177            2.345     25.26    509.74
         V          7.071            3.516    538.67  59684.75
         V          6.986            3.516    538.67  59684.75
         V          6.986            3.516    538.67  59684.75
         V          7.071            3.516    538.67  59684.75
         O          2.986            2.345     20.74    418.58
         O          2.984            2.345     20.74    418.58
         O          2.984            2.345     20.74    418.58
         O          2.986            2.345     20.74    418.58
         O          1.026            2.345     25.58    516.23
         O          1.177            2.345     25.26    509.74
         O          1.177            2.345     25.26    509.74
         O          2.025            2.345     20.80    419.85
         O          2.029            2.345     20.80    419.81
         O          1.026            2.345     25.58    516.23

         Molecular C6 ( Ry / a.u.^6 ) =    676226.64


     number of k points=     4  Marzari-Vanderbilt smearing, width (Ry)=  0.0100
                       cart. coord. in units 2pi/alat
        k(    1) = (   0.0000000   0.0000000   0.0000000), wk =   0.5000000
        k(    2) = (   0.0000000  -0.5456138   0.0000000), wk =   0.5000000
        k(    3) = (  -0.5000000   0.0000000   0.0000000), wk =   0.5000000
        k(    4) = (  -0.5000000  -0.5456138   0.0000000), wk =   0.5000000

     Dense  grid:  5479777 G-vectors     FFT dimensions: ( 180, 160, 400)

     Smooth grid:  1386253 G-vectors     FFT dimensions: ( 120, 100, 250)

     Estimated max dynamical RAM per process >      40.46 GB

     Check: negative core charge=   -0.000001

     Initial potential from superposition of free atoms

     starting charge     671.9705, renormalised to     672.0000

     negative rho (up, down):  1.823E-02 0.000E+00
     Starting wfcs are  480 randomized atomic wfcs

     total cpu time spent up to now is      103.3 secs

     Self-consistent Calculation

     iteration #  1     ecut=    60.00 Ry     beta= 0.20
     Davidson diagonalization with overlap
     ethr =  1.00E-02,  avg # of iterations =  1.3

     negative rho (up, down):  2.818E-02 0.000E+00

     total cpu time spent up to now is      145.3 secs

     total energy              =   -5987.73804309 Ry
     estimated scf accuracy    <      52.11889613 Ry

     iteration #  2     ecut=    60.00 Ry     beta= 0.20
     Davidson diagonalization with overlap
     ethr =  7.76E-03,  avg # of iterations =  1.0

     negative rho (up, down):  6.547E-02 0.000E+00

     total cpu time spent up to now is      170.7 secs

     total energy              =   -5975.03894024 Ry
     estimated scf accuracy    <      29.76887886 Ry

     iteration #  3     ecut=    60.00 Ry     beta= 0.20
     Davidson diagonalization with overlap
     ethr =  4.43E-03,  avg # of iterations =  6.5

     negative rho (up, down):  4.974E-02 0.000E+00

     total cpu time spent up to now is      213.0 secs

     total energy              =   -5985.97219629 Ry
     estimated scf accuracy    <      70.72543853 Ry

     iteration #  4     ecut=    60.00 Ry     beta= 0.20
     Davidson diagonalization with overlap
     ethr =  4.43E-03,  avg # of iterations =  1.0
     Minimization algorithm failed to find Fermi energy: reverting to bisection
     Possible cause: smearing is larger than the electronic band-gap.

     negative rho (up, down):  3.785E-02 0.000E+00

     total cpu time spent up to now is      238.5 secs

     total energy              =   -5985.44057204 Ry
     estimated scf accuracy    <      16.92009782 Ry

     iteration #  5     ecut=    60.00 Ry     beta= 0.20
     Davidson diagonalization with overlap
     ethr =  2.52E-03,  avg # of iterations =  1.5

     negative rho (up, down):  4.473E-02 0.000E+00

     total cpu time spent up to now is      265.9 secs

     total energy              =   -5987.26500253 Ry
     estimated scf accuracy    <       1.83088400 Ry

     iteration #  6     ecut=    60.00 Ry     beta= 0.20
     Davidson diagonalization with overlap
     ethr =  2.72E-04,  avg # of iterations =  9.0

     negative rho (up, down):  4.123E-02 0.000E+00

     total cpu time spent up to now is      315.2 secs

     total energy              =   -5987.56330306 Ry
     estimated scf accuracy    <       8.58949920 Ry

     iteration #  7     ecut=    60.00 Ry     beta= 0.20
     Davidson diagonalization with overlap
     ethr =  2.72E-04,  avg # of iterations =  5.5

     negative rho (up, down):  4.221E-02 0.000E+00

     total cpu time spent up to now is      346.2 secs

     total energy              =   -5987.67440435 Ry
     estimated scf accuracy    <       1.64290303 Ry

     iteration #  8     ecut=    60.00 Ry     beta= 0.20
     Davidson diagonalization with overlap
     ethr =  2.44E-04,  avg # of iterations =  5.0

     negative rho (up, down):  4.228E-02 0.000E+00

     total cpu time spent up to now is      376.7 secs

     total energy              =   -5987.81088166 Ry
     estimated scf accuracy    <       0.28450123 Ry

     iteration #  9     ecut=    60.00 Ry     beta= 0.20
     Davidson diagonalization with overlap
     c_bands:  1 eigenvalues not converged
     c_bands:  4 eigenvalues not converged
     ethr =  4.23E-05,  avg # of iterations = 23.3

     negative rho (up, down):  4.189E-02 0.000E+00

     total cpu time spent up to now is      447.5 secs

     total energy              =   -5988.01817283 Ry
     estimated scf accuracy    <       0.11074078 Ry

     iteration # 10     ecut=    60.00 Ry     beta= 0.20
     Davidson diagonalization with overlap
     c_bands:  3 eigenvalues not converged
     ethr =  1.65E-05,  avg # of iterations = 13.0

     negative rho (up, down):  4.032E-02 0.000E+00

     total cpu time spent up to now is      489.9 secs

     total energy              =   -5988.02191393 Ry
     estimated scf accuracy    <       0.10037391 Ry

     iteration # 11     ecut=    60.00 Ry     beta= 0.20
     Davidson diagonalization with overlap
     ethr =  1.49E-05,  avg # of iterations =  2.0

     negative rho (up, down):  3.921E-02 0.000E+00

     total cpu time spent up to now is      519.0 secs

     total energy              =   -5988.00905092 Ry
     estimated scf accuracy    <       0.04981082 Ry

     iteration # 12     ecut=    60.00 Ry     beta= 0.20
     Davidson diagonalization with overlap
     c_bands:  3 eigenvalues not converged
     c_bands:  2 eigenvalues not converged
     ethr =  7.41E-06,  avg # of iterations = 28.3

     negative rho (up, down):  4.005E-02 0.000E+00

     total cpu time spent up to now is      603.3 secs

     total energy              =   -5988.01744743 Ry
     estimated scf accuracy    <       0.11719631 Ry

     iteration # 13     ecut=    60.00 Ry     beta= 0.20
     Davidson diagonalization with overlap
     c_bands:  1 eigenvalues not converged
     ethr =  7.41E-06,  avg # of iterations =  9.8

     negative rho (up, down):  4.031E-02 0.000E+00

     total cpu time spent up to now is      640.7 secs

     total energy              =   -5988.03142418 Ry
     estimated scf accuracy    <       0.01839489 Ry

     iteration # 14     ecut=    60.00 Ry     beta= 0.20
     Davidson diagonalization with overlap
     c_bands:  5 eigenvalues not converged
     c_bands:  1 eigenvalues not converged
     ethr =  2.74E-06,  avg # of iterations = 17.8

     negative rho (up, down):  4.032E-02 0.000E+00

     total cpu time spent up to now is      713.2 secs

     total energy              =   -5988.03849265 Ry
     estimated scf accuracy    <       0.10489464 Ry

     iteration # 15     ecut=    60.00 Ry     beta= 0.20
     Davidson diagonalization with overlap
     c_bands:  1 eigenvalues not converged
     ethr =  2.74E-06,  avg # of iterations = 13.5

     negative rho (up, down):  4.013E-02 0.000E+00

     total cpu time spent up to now is      754.8 secs

     total energy              =   -5988.02093031 Ry
     estimated scf accuracy    <       0.05237652 Ry

     iteration # 16     ecut=    60.00 Ry     beta= 0.20
     Davidson diagonalization with overlap
     c_bands:  1 eigenvalues not converged
     ethr =  2.74E-06,  avg # of iterations = 14.3

     negative rho (up, down):  4.076E-02 0.000E+00

     total cpu time spent up to now is      814.6 secs

     total energy              =   -5988.03812941 Ry
     estimated scf accuracy    <       0.02351045 Ry

     iteration # 17     ecut=    60.00 Ry     beta= 0.20
     Davidson diagonalization with overlap
     ethr =  2.74E-06,  avg # of iterations =  5.0

     negative rho (up, down):  5.328E-02 0.000E+00

     total cpu time spent up to now is      846.7 secs

     total energy              =   -5988.03356729 Ry
     estimated scf accuracy    <       0.01754861 Ry

     iteration # 18     ecut=    60.00 Ry     beta= 0.20
     Davidson diagonalization with overlap
     ethr =  2.61E-06,  avg # of iterations =  6.3

     negative rho (up, down):  4.367E-02 0.000E+00

     total cpu time spent up to now is      888.7 secs

     total energy              =   -5988.03749729 Ry
     estimated scf accuracy    <       0.03689826 Ry

     iteration # 19     ecut=    60.00 Ry     beta= 0.20
     Davidson diagonalization with overlap
     ethr =  2.61E-06,  avg # of iterations =  1.8

     negative rho (up, down):  6.402E-02 0.000E+00

     total cpu time spent up to now is      916.2 secs

     total energy              =   -5988.03346954 Ry
     estimated scf accuracy    <       0.01920537 Ry

     iteration # 20     ecut=    60.00 Ry     beta= 0.20
     Davidson diagonalization with overlap
     ethr =  2.61E-06,  avg # of iterations =  5.5

     negative rho (up, down):  5.869E-02 0.000E+00

     total cpu time spent up to now is      949.1 secs

     total energy              =   -5988.03608062 Ry
     estimated scf accuracy    <       0.00286618 Ry

     iteration # 21     ecut=    60.00 Ry     beta= 0.20
     Davidson diagonalization with overlap
     ethr =  4.27E-07,  avg # of iterations =  7.8

     negative rho (up, down):  4.779E-02 0.000E+00

     total cpu time spent up to now is      988.3 secs

     total energy              =   -5988.03638653 Ry
     estimated scf accuracy    <       0.00209894 Ry

     iteration # 22     ecut=    60.00 Ry     beta= 0.20
     Davidson diagonalization with overlap
     ethr =  3.12E-07,  avg # of iterations =  2.0

     negative rho (up, down):  6.486E-02 0.000E+00

     total cpu time spent up to now is     1016.9 secs

     total energy              =   -5988.03541443 Ry
     estimated scf accuracy    <       0.00151940 Ry

     iteration # 23     ecut=    60.00 Ry     beta= 0.20
     Davidson diagonalization with overlap
     ethr =  2.26E-07,  avg # of iterations =  7.5

     negative rho (up, down):  5.679E-02 0.000E+00

     total cpu time spent up to now is     1050.5 secs

     total energy              =   -5988.03495922 Ry
     estimated scf accuracy    <       0.00096050 Ry

     iteration # 24     ecut=    60.00 Ry     beta= 0.20
     Davidson diagonalization with overlap
     ethr =  1.43E-07,  avg # of iterations =  2.0

     negative rho (up, down):  4.650E-02 0.000E+00

     total cpu time spent up to now is     1079.6 secs

     total energy              =   -5988.03414167 Ry
     estimated scf accuracy    <       0.00042631 Ry

     iteration # 25     ecut=    60.00 Ry     beta= 0.20
     Davidson diagonalization with overlap
     c_bands:  2 eigenvalues not converged
     ethr =  6.34E-08,  avg # of iterations = 11.5

     negative rho (up, down):  4.369E-02 0.000E+00

     total cpu time spent up to now is     1131.8 secs

     total energy              =   -5988.03429599 Ry
     estimated scf accuracy    <       0.00062454 Ry

     iteration # 26     ecut=    60.00 Ry     beta= 0.20
     Davidson diagonalization with overlap
     ethr =  6.34E-08,  avg # of iterations =  1.3

     negative rho (up, down):  4.105E-02 0.000E+00

     total cpu time spent up to now is     1158.4 secs

     total energy              =   -5988.03331873 Ry
     estimated scf accuracy    <       0.00029657 Ry

     iteration # 27     ecut=    60.00 Ry     beta= 0.20
     Davidson diagonalization with overlap
     ethr =  4.41E-08,  avg # of iterations =  5.8

     negative rho (up, down):  4.392E-02 0.000E+00

     total cpu time spent up to now is     1201.1 secs

     total energy              =   -5988.03333183 Ry
     estimated scf accuracy    <       0.00023473 Ry

     iteration # 28     ecut=    60.00 Ry     beta= 0.20
     Davidson diagonalization with overlap
     ethr =  3.49E-08,  avg # of iterations =  2.0

     negative rho (up, down):  4.533E-02 0.000E+00

     total cpu time spent up to now is     1230.4 secs

     total energy              =   -5988.03317957 Ry
     estimated scf accuracy    <       0.00003771 Ry

     iteration # 29     ecut=    60.00 Ry     beta= 0.20
     Davidson diagonalization with overlap
     ethr =  5.61E-09,  avg # of iterations =  9.0

     negative rho (up, down):  4.350E-02 0.000E+00

     total cpu time spent up to now is     1285.9 secs

     total energy              =   -5988.03316713 Ry
     estimated scf accuracy    <       0.00003560 Ry

     iteration # 30     ecut=    60.00 Ry     beta= 0.20
     Davidson diagonalization with overlap
     ethr =  5.30E-09,  avg # of iterations =  1.0

     negative rho (up, down):  4.241E-02 0.000E+00

     total cpu time spent up to now is     1311.0 secs

     total energy              =   -5988.03297077 Ry
     estimated scf accuracy    <       0.00002148 Ry

     iteration # 31     ecut=    60.00 Ry     beta= 0.20
     Davidson diagonalization with overlap
     ethr =  3.20E-09,  avg # of iterations =  3.0

     negative rho (up, down):  4.234E-02 0.000E+00

     total cpu time spent up to now is     1340.8 secs

     total energy              =   -5988.03295319 Ry
     estimated scf accuracy    <       0.00001623 Ry

     iteration # 32     ecut=    60.00 Ry     beta= 0.20
     Davidson diagonalization with overlap
     ethr =  2.42E-09,  avg # of iterations =  2.0

     negative rho (up, down):  4.291E-02 0.000E+00

     total cpu time spent up to now is     1369.0 secs

     total energy              =   -5988.03268448 Ry
     estimated scf accuracy    <       0.00001008 Ry

     iteration # 33     ecut=    60.00 Ry     beta= 0.20
     Davidson diagonalization with overlap
     ethr =  1.50E-09,  avg # of iterations =  5.0

     negative rho (up, down):  4.302E-02 0.000E+00

     total cpu time spent up to now is     1412.7 secs

     total energy              =   -5988.03272359 Ry
     estimated scf accuracy    <       0.00000465 Ry

     iteration # 34     ecut=    60.00 Ry     beta= 0.20
     Davidson diagonalization with overlap
     ethr =  6.92E-10,  avg # of iterations =  5.3

     negative rho (up, down):  4.344E-02 0.000E+00

     total cpu time spent up to now is     1444.9 secs

     total energy              =   -5988.03267808 Ry
     estimated scf accuracy    <       0.00000194 Ry

     iteration # 35     ecut=    60.00 Ry     beta= 0.20
     Davidson diagonalization with overlap
     ethr =  2.89E-10,  avg # of iterations =  6.8

     negative rho (up, down):  4.323E-02 0.000E+00

     total cpu time spent up to now is     1485.2 secs

     total energy              =   -5988.03270863 Ry
     estimated scf accuracy    <       0.00000074 Ry

     iteration # 36     ecut=    60.00 Ry     beta= 0.20
     Davidson diagonalization with overlap
     ethr =  1.10E-10,  avg # of iterations =  7.8

     negative rho (up, down):  4.324E-02 0.000E+00

     total cpu time spent up to now is     1530.0 secs

     total energy              =   -5988.03271622 Ry
     estimated scf accuracy    <       0.00000046 Ry

     iteration # 37     ecut=    60.00 Ry     beta= 0.20
     Davidson diagonalization with overlap
     ethr =  6.90E-11,  avg # of iterations =  2.0

     negative rho (up, down):  4.332E-02 0.000E+00

     total cpu time spent up to now is     1558.4 secs

     total energy              =   -5988.03267999 Ry
     estimated scf accuracy    <       0.00000034 Ry

     iteration # 38     ecut=    60.00 Ry     beta= 0.20
     Davidson diagonalization with overlap
     ethr =  5.04E-11,  avg # of iterations =  8.3

     negative rho (up, down):  4.351E-02 0.000E+00

     total cpu time spent up to now is     1596.4 secs

     total energy              =   -5988.03266174 Ry
     estimated scf accuracy    <       0.00000013 Ry

     iteration # 39     ecut=    60.00 Ry     beta= 0.20
     Davidson diagonalization with overlap
     ethr =  1.90E-11,  avg # of iterations =  9.5

     negative rho (up, down):  4.352E-02 0.000E+00

     total cpu time spent up to now is     1644.5 secs

     total energy              =   -5988.03265919 Ry
     estimated scf accuracy    <       0.00000005 Ry

     iteration # 40     ecut=    60.00 Ry     beta= 0.20
     Davidson diagonalization with overlap
     ethr =  8.00E-12,  avg # of iterations =  7.0

     negative rho (up, down):  4.351E-02 0.000E+00

     total cpu time spent up to now is     1681.1 secs

     total energy              =   -5988.03265674 Ry
     estimated scf accuracy    <       0.00000004 Ry

     iteration # 41     ecut=    60.00 Ry     beta= 0.20
     Davidson diagonalization with overlap
     ethr =  6.68E-12,  avg # of iterations =  2.8

     negative rho (up, down):  4.352E-02 0.000E+00

     total cpu time spent up to now is     1710.0 secs

     total energy              =   -5988.03265958 Ry
     estimated scf accuracy    <       0.00000003 Ry

     iteration # 42     ecut=    60.00 Ry     beta= 0.20
     Davidson diagonalization with overlap
     ethr =  4.11E-12,  avg # of iterations =  6.5

     negative rho (up, down):  4.354E-02 0.000E+00

     total cpu time spent up to now is     1745.1 secs

     total energy              =   -5988.03266192 Ry
     estimated scf accuracy    <       0.00000001 Ry

     iteration # 43     ecut=    60.00 Ry     beta= 0.20
     Davidson diagonalization with overlap
     ethr =  1.77E-12,  avg # of iterations =  8.8

     negative rho (up, down):  4.355E-02 0.000E+00

     total cpu time spent up to now is     1792.1 secs

     total energy              =   -5988.03265975 Ry
     estimated scf accuracy    <       0.00000001 Ry

     iteration # 44     ecut=    60.00 Ry     beta= 0.20
     Davidson diagonalization with overlap
     ethr =  1.77E-12,  avg # of iterations =  2.5

     negative rho (up, down):  4.356E-02 0.000E+00

     total cpu time spent up to now is     1821.7 secs

     total energy              =   -5988.03265974 Ry
     estimated scf accuracy    <          3.1E-09 Ry

     iteration # 45     ecut=    60.00 Ry     beta= 0.20
     Davidson diagonalization with overlap
     ethr =  4.69E-13,  avg # of iterations =  7.8

     negative rho (up, down):  4.357E-02 0.000E+00

     total cpu time spent up to now is     1871.4 secs

     total energy              =   -5988.03266042 Ry
     estimated scf accuracy    <          1.6E-09 Ry

     iteration # 46     ecut=    60.00 Ry     beta= 0.20
     Davidson diagonalization with overlap
     ethr =  2.37E-13,  avg # of iterations =  6.0

     negative rho (up, down):  4.358E-02 0.000E+00

     total cpu time spent up to now is     1910.1 secs

     End of self-consistent calculation

          k = 0.0000 0.0000 0.0000 (173197 PWs)   bands (ev):

   -72.7093 -72.7093 -72.7076 -72.7076 -72.7075 -72.7075 -72.7074 -72.7074
   -72.7056 -72.7056 -72.7056 -72.7056 -72.3280 -72.3280 -72.3263 -72.3263
   -72.3263 -72.3263 -72.3261 -72.3260 -72.3244 -72.3244 -72.3243 -72.3243
   -46.7549 -46.7538 -46.7515 -46.7515 -46.7512 -46.7509 -46.7509 -46.7502
   -46.7478 -46.7478 -46.7473 -46.7473 -46.6227 -46.6225 -46.6190 -46.6190
   -46.6189 -46.6189 -46.5804 -46.5804 -46.5804 -46.5804 -46.5797 -46.5797
   -46.5795 -46.5795 -46.5704 -46.5702 -46.5649 -46.5649 -46.5648 -46.5648
   -46.5286 -46.5285 -46.5261 -46.5260 -46.3310 -46.3310 -46.3285 -46.3285
   -46.3284 -46.3284 -46.3264 -46.3264 -46.3241 -46.3241 -46.3240 -46.3240
   -46.2582 -46.2582 -46.2551 -46.2551 -46.2550 -46.2550 -46.2124 -46.2124
   -46.2123 -46.2123 -46.2097 -46.2097 -46.2097 -46.2097 -46.2064 -46.2064
   -46.2035 -46.2035 -46.2034 -46.2034 -46.1668 -46.1668 -46.1644 -46.1643
   -26.2164 -26.1562 -26.0919 -26.0408 -25.6538 -25.6538 -25.6016 -25.6016
   -25.5109 -25.5109 -25.4728 -25.4728 -25.1741 -25.1366 -25.1292 -25.1292
   -25.1072 -25.1072 -25.0241 -25.0189 -25.0080 -24.9912 -24.8699 -24.8699
   -24.8686 -24.8686 -24.8565 -24.8565 -24.8446 -24.8446 -24.7399 -24.7311
   -24.7201 -24.7201 -24.7120 -24.7120 -24.6092 -24.6062 -24.5363 -24.5363
   -24.5344 -24.5344 -24.4723 -24.4723 -24.4474 -24.4474 -24.4292 -24.4259
   -24.0040 -24.0039 -23.9821 -23.9808 -23.9761 -23.9761 -23.9757 -23.9757
   -23.9585 -23.9585 -23.9565 -23.9565 -13.5532 -13.5532 -13.5497 -13.5497
   -13.4768 -13.4768 -13.4701 -13.4701 -13.0742 -13.0719 -13.0573 -13.0341
   -13.0196 -13.0069 -12.9076 -12.8912 -12.8912 -12.8695 -12.8490 -12.8490
   -12.8278 -12.8099 -12.8099 -12.7508 -12.7508 -12.7505 -12.5542 -12.5542
   -12.5462 -12.5274 -12.5274 -12.4581 -12.4581 -12.3640 -12.3640 -12.3513
   -12.3513 -12.2460 -12.2460 -12.1957 -12.1749 -12.1343 -12.1022 -12.0777
   -12.0777 -12.0645 -12.0645 -12.0303 -11.9559 -11.9559 -11.9230 -11.9230
   -11.8012 -11.8012 -11.7819 -11.6781 -11.6781 -11.6771 -11.6321 -11.6321
   -11.6182 -11.6182 -11.5445 -11.5445 -11.4055 -11.3861 -11.3861 -11.3852
   -11.3068 -11.2674 -11.2674 -11.2555 -11.2555 -11.2454 -11.2304 -11.1536
   -11.1536 -11.1430 -11.1430 -11.0971 -11.0971 -11.0573 -11.0197 -11.0197
   -11.0016 -10.9468 -10.9468 -10.9183 -10.9183 -10.9152 -10.8670 -10.7291
   -10.7291 -10.7133 -10.7133 -10.6331 -10.6290 -10.5886 -10.5188 -10.5122
   -10.5122 -10.4581 -10.4581 -10.4564 -10.4115 -10.4115 -10.3744 -10.3744
   -10.3688 -10.3154 -10.3092 -10.3092 -10.2952 -10.2952 -10.2911 -10.2837
   -10.2837 -10.2227 -10.1882 -10.1606 -10.1262 -10.1262 -10.1169 -10.1046
   -10.0555 -10.0555 -10.0469 -10.0335  -9.9746  -9.9746  -9.8851  -9.8582
    -9.8582  -9.8559  -9.8357  -9.7520  -9.7464  -9.7464  -9.7075  -9.7075
    -9.6323  -9.6323  -9.5539  -9.4804  -9.4665  -9.4663  -9.4543  -9.4442
    -9.4312  -9.4248  -9.4248  -9.4090  -9.3569  -9.3364  -9.3364  -9.3205
    -9.3205  -9.1974  -9.1551  -9.1551  -9.1215  -9.0715  -9.0715  -9.0482
    -9.0482  -9.0463  -9.0424  -9.0424  -8.9574  -8.9574  -8.8997  -8.8308
    -8.8239  -8.8239  -8.8218  -8.8218  -8.7326  -8.7326  -8.7098  -8.7098
    -6.8135  -6.7668  -6.4414  -6.4414  -6.4387  -6.4387  -6.4217  -6.3724
    -6.1222  -6.1222  -6.0982  -6.0982  -5.6206  -5.6206  -5.6128  -5.6128
    -5.4430  -5.4017  -5.3028  -5.3028  -5.2900  -5.2899  -5.2833  -5.2833
    -5.2539  -5.1853  -5.1309  -5.1097  -5.1097  -5.0741  -5.0741  -5.0642
    -5.0544  -5.0382  -4.9874  -4.9873  -4.9701  -4.9701  -4.9337  -4.9337
    -4.8826  -4.8826  -4.8520  -4.8520  -4.7184  -4.6749  -4.5356  -4.5355
    -4.5055  -4.5054  -4.4880  -4.4880  -4.4714  -4.4705  -4.4424  -4.4424
    -4.4349  -4.4192  -4.4188  -4.4076  -4.4074  -4.4019  -4.4018  -4.3562
    -4.3427  -4.3427  -4.1046

          k = 0.0000-0.5456 0.0000 (173286 PWs)   bands (ev):

   -72.7087 -72.7087 -72.7087 -72.7087 -72.7070 -72.7069 -72.7068 -72.7068
   -72.7068 -72.7068 -72.7050 -72.7050 -72.3274 -72.3274 -72.3274 -72.3274
   -72.3257 -72.3257 -72.3255 -72.3255 -72.3255 -72.3255 -72.3238 -72.3238
   -46.7538 -46.7538 -46.7529 -46.7529 -46.7501 -46.7501 -46.7501 -46.7501
   -46.7492 -46.7492 -46.7464 -46.7464 -46.6215 -46.6215 -46.6214 -46.6214
   -46.6171 -46.6171 -46.5982 -46.5982 -46.5950 -46.5949 -46.5700 -46.5700
   -46.5697 -46.5697 -46.5655 -46.5655 -46.5459 -46.5459 -46.5458 -46.5458
   -46.5426 -46.5426 -46.5425 -46.5425 -46.3302 -46.3302 -46.3301 -46.3301
   -46.3276 -46.3275 -46.3256 -46.3256 -46.3256 -46.3256 -46.3233 -46.3232
   -46.2571 -46.2571 -46.2570 -46.2570 -46.2542 -46.2541 -46.2275 -46.2274
   -46.2240 -46.2240 -46.2056 -46.2056 -46.2055 -46.2055 -46.2032 -46.2032
   -46.1821 -46.1821 -46.1821 -46.1821 -46.1794 -46.1794 -46.1793 -46.1793
   -26.0512 -26.0512 -25.9926 -25.9926 -25.9225 -25.9225 -25.8739 -25.8739
   -25.2808 -25.2808 -25.2304 -25.2304 -25.1596 -25.1596 -25.1411 -25.1411
   -25.1148 -25.1148 -24.9694 -24.9694 -24.9642 -24.9641 -24.9492 -24.9492
   -24.9461 -24.9461 -24.9296 -24.9296 -24.8389 -24.8388 -24.7303 -24.7303
   -24.7260 -24.7260 -24.6981 -24.6980 -24.5882 -24.5882 -24.5842 -24.5842
   -24.4955 -24.4955 -24.4827 -24.4827 -24.4402 -24.4402 -24.4297 -24.4297
   -23.9945 -23.9945 -23.9943 -23.9943 -23.9741 -23.9741 -23.9724 -23.9724
   -23.9668 -23.9668 -23.9495 -23.9495 -13.3685 -13.3685 -13.3608 -13.3608
   -13.3414 -13.3414 -13.3312 -13.3312 -13.2456 -13.2456 -13.2406 -13.2406
   -13.0801 -13.0800 -13.0043 -13.0042 -12.9951 -12.9951 -12.9342 -12.9342
   -12.8255 -12.8255 -12.7979 -12.7979 -12.7854 -12.7854 -12.6883 -12.6883
   -12.6375 -12.6375 -12.4928 -12.4928 -12.4674 -12.4674 -12.1911 -12.1911
   -12.1646 -12.1646 -12.1333 -12.1333 -12.0948 -12.0948 -12.0694 -12.0694
   -12.0448 -12.0447 -11.9990 -11.9990 -11.9668 -11.9668 -11.9141 -11.9141
   -11.7731 -11.7731 -11.6872 -11.6872 -11.6732 -11.6732 -11.6322 -11.6322
   -11.6002 -11.6002 -11.5926 -11.5926 -11.4466 -11.4466 -11.4371 -11.4371
   -11.4242 -11.4242 -11.4088 -11.4088 -11.2865 -11.2865 -11.2519 -11.2519
   -11.2475 -11.2475 -11.1707 -11.1707 -10.9698 -10.9698 -10.9611 -10.9611
   -10.9563 -10.9563 -10.9469 -10.9469 -10.9437 -10.9437 -10.9347 -10.9347
   -10.8121 -10.8121 -10.5015 -10.5015 -10.4833 -10.4833 -10.4803 -10.4803
   -10.4193 -10.4193 -10.3989 -10.3989 -10.3898 -10.3898 -10.3726 -10.3726
   -10.3445 -10.3445 -10.3373 -10.3373 -10.3220 -10.3220 -10.2935 -10.2935
   -10.1875 -10.1875 -10.0867 -10.0867 -10.0458 -10.0458 -10.0034 -10.0034
    -9.9984  -9.9984  -9.9156  -9.9156  -9.8849  -9.8849  -9.8621  -9.8621
    -9.8547  -9.8547  -9.8201  -9.8201  -9.8076  -9.8076  -9.7963  -9.7963
    -9.7909  -9.7909  -9.7674  -9.7674  -9.5079  -9.5079  -9.3910  -9.3910
    -9.3673  -9.3673  -9.3140  -9.3140  -9.2504  -9.2504  -9.2318  -9.2318
    -9.2076  -9.2076  -9.2007  -9.2007  -9.1028  -9.1027  -9.1021  -9.1021
    -9.0634  -9.0634  -9.0052  -9.0052  -8.9989  -8.9989  -8.9540  -8.9540
    -8.8721  -8.8721  -8.8354  -8.8354  -8.7912  -8.7912  -8.6758  -8.6758
    -6.6571  -6.6571  -6.6363  -6.6363  -6.3463  -6.3463  -6.2866  -6.2866
    -6.2844  -6.2844  -6.1260  -6.1260  -5.6601  -5.6600  -5.4191  -5.4191
    -5.4173  -5.4173  -5.3291  -5.3291  -5.2844  -5.2844  -5.1741  -5.1741
    -5.1633  -5.1633  -5.1335  -5.1334  -5.0481  -5.0481  -5.0404  -5.0403
    -5.0376  -5.0376  -4.9881  -4.9880  -4.8582  -4.8582  -4.8173  -4.8173
    -4.8165  -4.8164  -4.7996  -4.7995  -4.7462  -4.7462  -4.6522  -4.6522
    -4.6493  -4.6493  -4.6443  -4.6443  -4.4632  -4.4631  -4.4425  -4.4405
    -4.3973  -4.3971  -4.3799  -4.3796  -4.3697  -4.3695  -4.3694  -4.3694
    -4.3643  -4.3608  -4.2273

          k =-0.5000 0.0000 0.0000 (173290 PWs)   bands (ev):

   -72.7093 -72.7093 -72.7075 -72.7075 -72.7075 -72.7075 -72.7074 -72.7074
   -72.7056 -72.7056 -72.7056 -72.7056 -72.3280 -72.3280 -72.3263 -72.3263
   -72.3263 -72.3263 -72.3261 -72.3260 -72.3244 -72.3244 -72.3243 -72.3243
   -46.7544 -46.7544 -46.7512 -46.7512 -46.7512 -46.7512 -46.7507 -46.7507
   -46.7475 -46.7475 -46.7475 -46.7475 -46.6221 -46.6221 -46.6188 -46.6188
   -46.6188 -46.6188 -46.5803 -46.5803 -46.5802 -46.5802 -46.5800 -46.5800
   -46.5800 -46.5800 -46.5709 -46.5709 -46.5649 -46.5649 -46.5649 -46.5649
   -46.5285 -46.5285 -46.5261 -46.5260 -46.3308 -46.3308 -46.3284 -46.3284
   -46.3284 -46.3284 -46.3267 -46.3267 -46.3242 -46.3242 -46.3241 -46.3241
   -46.2574 -46.2573 -46.2548 -46.2548 -46.2548 -46.2548 -46.2119 -46.2119
   -46.2118 -46.2118 -46.2103 -46.2103 -46.2103 -46.2103 -46.2070 -46.2070
   -46.2035 -46.2035 -46.2035 -46.2035 -46.1668 -46.1668 -46.1644 -46.1643
   -26.1610 -26.1610 -26.0990 -26.0990 -25.5980 -25.5980 -25.5980 -25.5980
   -25.5374 -25.5374 -25.5374 -25.5374 -25.1296 -25.1296 -25.0936 -25.0936
   -25.0936 -25.0936 -25.0343 -25.0343 -24.9976 -24.9976 -24.8737 -24.8737
   -24.8737 -24.8737 -24.8452 -24.8452 -24.8451 -24.8451 -24.7420 -24.7420
   -24.7269 -24.7269 -24.7269 -24.7269 -24.6116 -24.6116 -24.5386 -24.5386
   -24.5386 -24.5386 -24.4556 -24.4556 -24.4556 -24.4556 -24.4250 -24.4250
   -24.0042 -24.0042 -23.9811 -23.9811 -23.9761 -23.9761 -23.9760 -23.9760
   -23.9573 -23.9573 -23.9572 -23.9572 -13.5338 -13.5338 -13.5338 -13.5338
   -13.5070 -13.5070 -13.5069 -13.5069 -13.0646 -13.0646 -13.0463 -13.0463
   -13.0268 -13.0268 -12.9417 -12.9416 -12.8817 -12.8817 -12.8816 -12.8816
   -12.6957 -12.6957 -12.6771 -12.6771 -12.6771 -12.6771 -12.5690 -12.5690
   -12.5690 -12.5690 -12.4771 -12.4771 -12.4771 -12.4771 -12.4317 -12.4316
   -12.3360 -12.3360 -12.3360 -12.3360 -12.2169 -12.2169 -12.0248 -12.0247
   -12.0066 -12.0066 -12.0065 -12.0065 -11.9333 -11.9333 -11.9333 -11.9333
   -11.8104 -11.8104 -11.8104 -11.8104 -11.6549 -11.6549 -11.6549 -11.6549
   -11.6165 -11.6165 -11.4774 -11.4774 -11.4774 -11.4774 -11.4245 -11.4244
   -11.2784 -11.2784 -11.2563 -11.2563 -11.2563 -11.2563 -11.2185 -11.2185
   -11.0316 -11.0316 -11.0316 -11.0316 -11.0299 -11.0299 -10.8953 -10.8953
   -10.8953 -10.8953 -10.8390 -10.8390 -10.8389 -10.8389 -10.7318 -10.7318
   -10.7318 -10.7318 -10.6301 -10.6301 -10.6301 -10.6301 -10.6227 -10.6226
   -10.5362 -10.5362 -10.4757 -10.4757 -10.4757 -10.4757 -10.4097 -10.4097
   -10.3709 -10.3709 -10.3456 -10.3455 -10.3183 -10.3183 -10.3183 -10.3183
   -10.2815 -10.2815 -10.2815 -10.2815 -10.1980 -10.1980 -10.1366 -10.1366
   -10.0825 -10.0825 -10.0386 -10.0386 -10.0385 -10.0385  -9.9526  -9.9526
    -9.8720  -9.8720  -9.8720  -9.8720  -9.7105  -9.7105  -9.5281  -9.5281
    -9.5281  -9.5281  -9.4739  -9.4739  -9.4630  -9.4630  -9.4371  -9.4371
    -9.4197  -9.4197  -9.4197  -9.4197  -9.3869  -9.3869  -9.2941  -9.2941
    -9.2698  -9.2698  -9.2698  -9.2698  -9.1401  -9.1401  -9.0743  -9.0743
    -9.0743  -9.0743  -8.9683  -8.9683  -8.9682  -8.9682  -8.8448  -8.8448
    -8.7551  -8.7551  -8.7551  -8.7551  -8.7468  -8.7468  -8.7468  -8.7468
    -6.7767  -6.7767  -6.4166  -6.4165  -6.3829  -6.3829  -6.3829  -6.3829
    -6.1048  -6.1048  -6.1047  -6.1047  -5.6130  -5.6130  -5.6130  -5.6130
    -5.4150  -5.4150  -5.3085  -5.3085  -5.3085  -5.3085  -5.2034  -5.2034
    -5.2034  -5.2034  -5.1221  -5.1221  -5.0651  -5.0651  -5.0516  -5.0516
    -5.0303  -5.0303  -5.0302  -5.0302  -4.9650  -4.9650  -4.9650  -4.9649
    -4.8527  -4.8526  -4.8526  -4.8526  -4.8415  -4.8414  -4.6776  -4.6776
    -4.6081  -4.6081  -4.6081  -4.6081  -4.4746  -4.4745  -4.4739  -4.4739
    -4.4338  -4.4338  -4.4338  -4.4338  -4.3751  -4.3751  -4.3750  -4.3750
    -4.0948  -4.0837  -4.0496

          k =-0.5000-0.5456 0.0000 (173296 PWs)   bands (ev):

   -72.7087 -72.7087 -72.7087 -72.7087 -72.7070 -72.7069 -72.7068 -72.7068
   -72.7068 -72.7068 -72.7050 -72.7050 -72.3274 -72.3274 -72.3274 -72.3274
   -72.3257 -72.3257 -72.3255 -72.3255 -72.3255 -72.3255 -72.3238 -72.3238
   -46.7534 -46.7534 -46.7533 -46.7533 -46.7501 -46.7501 -46.7497 -46.7497
   -46.7497 -46.7497 -46.7464 -46.7464 -46.6210 -46.6210 -46.6210 -46.6210
   -46.6171 -46.6171 -46.5976 -46.5976 -46.5956 -46.5956 -46.5704 -46.5704
   -46.5704 -46.5704 -46.5655 -46.5655 -46.5457 -46.5457 -46.5457 -46.5457
   -46.5427 -46.5427 -46.5427 -46.5427 -46.3300 -46.3300 -46.3300 -46.3300
   -46.3276 -46.3275 -46.3259 -46.3259 -46.3258 -46.3258 -46.3233 -46.3232
   -46.2564 -46.2564 -46.2563 -46.2563 -46.2541 -46.2541 -46.2267 -46.2267
   -46.2248 -46.2248 -46.2060 -46.2060 -46.2060 -46.2060 -46.2033 -46.2032
   -46.1820 -46.1820 -46.1819 -46.1819 -46.1795 -46.1795 -46.1795 -46.1795
   -25.9951 -25.9951 -25.9951 -25.9951 -25.9336 -25.9336 -25.9336 -25.9336
   -25.2793 -25.2793 -25.2267 -25.2267 -25.1646 -25.1645 -25.1070 -25.1070
   -25.1069 -25.1069 -24.9688 -24.9688 -24.9638 -24.9638 -24.9638 -24.9638
   -24.9356 -24.9356 -24.9356 -24.9356 -24.8352 -24.8351 -24.7380 -24.7380
   -24.7379 -24.7379 -24.6971 -24.6971 -24.5900 -24.5900 -24.5900 -24.5900
   -24.4957 -24.4957 -24.4827 -24.4827 -24.4317 -24.4317 -24.4317 -24.4317
   -23.9947 -23.9947 -23.9946 -23.9946 -23.9729 -23.9729 -23.9729 -23.9729
   -23.9668 -23.9668 -23.9496 -23.9495 -13.3699 -13.3699 -13.3699 -13.3699
   -13.3400 -13.3400 -13.3400 -13.3400 -13.2518 -13.2517 -13.2296 -13.2296
   -13.0934 -13.0934 -12.9982 -12.9982 -12.9692 -12.9692 -12.9692 -12.9692
   -12.8333 -12.8332 -12.8205 -12.8205 -12.8205 -12.8205 -12.5831 -12.5831
   -12.5831 -12.5831 -12.5199 -12.5199 -12.3533 -12.3533 -12.3533 -12.3533
   -12.2203 -12.2203 -12.2203 -12.2203 -12.1123 -12.1122 -12.0968 -12.0968
   -11.9883 -11.9883 -11.9883 -11.9883 -11.9448 -11.9448 -11.8470 -11.8470
   -11.7035 -11.7035 -11.7035 -11.7035 -11.5808 -11.5808 -11.5623 -11.5623
   -11.5623 -11.5623 -11.5612 -11.5612 -11.5483 -11.5483 -11.5483 -11.5483
   -11.3908 -11.3908 -11.3683 -11.3683 -11.3683 -11.3683 -11.3351 -11.3351
   -11.2008 -11.2008 -11.1643 -11.1643 -11.1487 -11.1487 -11.1487 -11.1487
   -10.8446 -10.8446 -10.7642 -10.7642 -10.7642 -10.7642 -10.7181 -10.7181
   -10.6169 -10.6169 -10.6169 -10.6169 -10.4996 -10.4996 -10.4996 -10.4996
   -10.4680 -10.4680 -10.4183 -10.4183 -10.4183 -10.4183 -10.3729 -10.3729
   -10.3560 -10.3560 -10.3560 -10.3560 -10.3156 -10.3156 -10.3156 -10.3156
   -10.2909 -10.2909 -10.1291 -10.1291 -10.1291 -10.1291 -10.1006 -10.1006
   -10.0012 -10.0012 -10.0011 -10.0011  -9.8957  -9.8957  -9.8957  -9.8957
    -9.8402  -9.8402  -9.8402  -9.8402  -9.7634  -9.7634  -9.7634  -9.7634
    -9.7083  -9.7083  -9.7080  -9.7080  -9.4594  -9.4594  -9.4594  -9.4594
    -9.4360  -9.4360  -9.3288  -9.3288  -9.3288  -9.3288  -9.3201  -9.3201
    -9.1760  -9.1760  -9.1760  -9.1760  -9.0629  -9.0629  -9.0629  -9.0629
    -9.0163  -9.0163  -8.9986  -8.9986  -8.9947  -8.9947  -8.9947  -8.9947
    -8.8118  -8.8118  -8.8118  -8.8118  -8.7291  -8.7291  -8.6980  -8.6980
    -6.6280  -6.6280  -6.6279  -6.6279  -6.3038  -6.3038  -6.2986  -6.2986
    -6.2986  -6.2986  -6.0444  -6.0444  -5.6787  -5.6787  -5.4062  -5.4062
    -5.4062  -5.4062  -5.4039  -5.4039  -5.1796  -5.1796  -5.1796  -5.1796
    -5.1001  -5.1000  -5.0911  -5.0911  -5.0911  -5.0911  -5.0161  -5.0160
    -5.0160  -5.0160  -4.9631  -4.9630  -4.9286  -4.9286  -4.9286  -4.9285
    -4.9254  -4.9254  -4.8002  -4.8002  -4.7099  -4.7099  -4.7098  -4.7097
    -4.6339  -4.6338  -4.6338  -4.6337  -4.5699  -4.5699  -4.5697  -4.5697
    -4.4125  -4.4125  -4.3940  -4.3938  -4.3530  -4.3520  -4.2739  -4.2735
    -4.2723  -4.2721  -4.1943

     the Fermi energy is    -7.7080 ev

!    total energy              =   -5988.03265965 Ry
     estimated scf accuracy    <          7.6E-10 Ry
     smearing contrib. (-TS)   =       0.00000000 Ry
     internal energy E=F+TS    =   -5988.03265965 Ry

     The total energy is F=E-TS. E is the sum of the following terms:
     one-electron contribution =   64704.21912476 Ry
     hartree contribution      =  -32426.53042167 Ry
     xc contribution           =    -911.56106031 Ry
     ewald contribution        =  -36781.93928126 Ry
     DFT-D3 Dispersion         =      -0.75045736 Ry
     one-center paw contrib.   =    -571.47056383 Ry

     convergence has been achieved in  46 iterations

     negative rho (up, down):  4.358E-02 0.000E+00

     Forces acting on atoms (cartesian axes, Ry/au):

     atom    1 type  1   force =     0.01600107    0.00000000    0.02274551
     atom    2 type  1   force =     0.01330239   -0.00000056   -0.02694553
     atom    3 type  1   force =    -0.01330239   -0.00000056   -0.02694553
     atom    4 type  1   force =    -0.01600107    0.00000000    0.02274551
     atom    5 type  2   force =    -0.01283068    0.00000003   -0.00779543
     atom    6 type  2   force =    -0.01272967    0.00000000    0.00217900
     atom    7 type  2   force =     0.01272967    0.00000000    0.00217900
     atom    8 type  2   force =     0.01283068    0.00000003   -0.00779543
     atom    9 type  2   force =     0.00057925    0.00000000   -0.00526651
     atom   10 type  2   force =     0.00341513    0.00000391    0.01783485
     atom   11 type  2   force =    -0.00341513    0.00000391    0.01783485
     atom   12 type  2   force =     0.00000000    0.00000107    0.00254602
     atom   13 type  2   force =     0.00000000    0.00000000   -0.01826197
     atom   14 type  2   force =    -0.00057925    0.00000000   -0.00526651
     atom   15 type  1   force =    -0.01330189    0.00000000    0.02694784
     atom   16 type  1   force =    -0.01600098   -0.00000068   -0.02274636
     atom   17 type  1   force =     0.01600098   -0.00000068   -0.02274636
     atom   18 type  1   force =     0.01330189    0.00000000    0.02694784
     atom   19 type  2   force =     0.01272973   -0.00000000   -0.00217841
     atom   20 type  2   force =     0.01283032    0.00000000    0.00779352
     atom   21 type  2   force =    -0.01283032    0.00000000    0.00779352
     atom   22 type  2   force =    -0.01272973   -0.00000000   -0.00217841
     atom   23 type  2   force =    -0.00341472    0.00000000   -0.01784064
     atom   24 type  2   force =    -0.00058089    0.00000213    0.00526673
     atom   25 type  2   force =     0.00058089    0.00000213    0.00526673
     atom   26 type  2   force =     0.00000000    0.00000177    0.01826178
     atom   27 type  2   force =     0.00000000    0.00000000   -0.00254595
     atom   28 type  2   force =     0.00341472    0.00000000   -0.01784064
     atom   29 type  1   force =     0.01600084    0.00000070    0.02274594
     atom   30 type  1   force =     0.01330176    0.00000000   -0.02694662
     atom   31 type  1   force =    -0.01330176    0.00000000   -0.02694662
     atom   32 type  1   force =    -0.01600084    0.00000070    0.02274594
     atom   33 type  2   force =    -0.01283039    0.00000000   -0.00779395
     atom   34 type  2   force =    -0.01272944   -0.00000000    0.00217861
     atom   35 type  2   force =     0.01272944   -0.00000000    0.00217861
     atom   36 type  2   force =     0.01283039    0.00000000   -0.00779395
     atom   37 type  2   force =     0.00058095   -0.00000209   -0.00526736
     atom   38 type  2   force =     0.00341466    0.00000000    0.01783818
     atom   39 type  2   force =    -0.00341466    0.00000000    0.01783818
     atom   40 type  2   force =     0.00000000    0.00000000    0.00254671
     atom   41 type  2   force =     0.00000000   -0.00000178   -0.01826251
     atom   42 type  2   force =    -0.00058095   -0.00000209   -0.00526736
     atom   43 type  1   force =    -0.01330251    0.00000058    0.02694690
     atom   44 type  1   force =    -0.01600100    0.00000000   -0.02274596
     atom   45 type  1   force =     0.01600100    0.00000000   -0.02274596
     atom   46 type  1   force =     0.01330251    0.00000058    0.02694690
     atom   47 type  2   force =     0.01273008    0.00000000   -0.00217877
     atom   48 type  2   force =     0.01283069   -0.00000000    0.00779518
     atom   49 type  2   force =    -0.01283069   -0.00000000    0.00779518
     atom   50 type  2   force =    -0.01273008    0.00000000   -0.00217877
     atom   51 type  2   force =    -0.00341520   -0.00000386   -0.01783696
     atom   52 type  2   force =    -0.00057938    0.00000000    0.00526593
     atom   53 type  2   force =     0.00057938    0.00000000    0.00526593
     atom   54 type  2   force =     0.00000000    0.00000000    0.01826103
     atom   55 type  2   force =     0.00000000   -0.00000103   -0.00254552
     atom   56 type  2   force =     0.00341520   -0.00000386   -0.01783696
     atom   57 type  1   force =     0.01600084   -0.00000070    0.02274594
     atom   58 type  1   force =     0.01330239    0.00000056   -0.02694553
     atom   59 type  1   force =    -0.01330239    0.00000056   -0.02694553
     atom   60 type  1   force =    -0.01600084   -0.00000070    0.02274594
     atom   61 type  2   force =    -0.01283068   -0.00000003   -0.00779543
     atom   62 type  2   force =    -0.01272944    0.00000000    0.00217861
     atom   63 type  2   force =     0.01272944    0.00000000    0.00217861
     atom   64 type  2   force =     0.01283068   -0.00000003   -0.00779543
     atom   65 type  2   force =     0.00058095    0.00000209   -0.00526736
     atom   66 type  2   force =     0.00341513   -0.00000391    0.01783485
     atom   67 type  2   force =    -0.00341513   -0.00000391    0.01783485
     atom   68 type  2   force =     0.00000000   -0.00000107    0.00254602
     atom   69 type  2   force =     0.00000000    0.00000178   -0.01826251
     atom   70 type  2   force =    -0.00058095    0.00000209   -0.00526736
     atom   71 type  1   force =    -0.01330251   -0.00000058    0.02694690
     atom   72 type  1   force =    -0.01600098    0.00000068   -0.02274636
     atom   73 type  1   force =     0.01600098    0.00000068   -0.02274636
     atom   74 type  1   force =     0.01330251   -0.00000058    0.02694690
     atom   75 type  2   force =     0.01272973    0.00000000   -0.00217841
     atom   76 type  2   force =     0.01283069    0.00000000    0.00779518
     atom   77 type  2   force =    -0.01283069    0.00000000    0.00779518
     atom   78 type  2   force =    -0.01272973    0.00000000   -0.00217841
     atom   79 type  2   force =    -0.00341520    0.00000386   -0.01783696
     atom   80 type  2   force =    -0.00058089   -0.00000213    0.00526673
     atom   81 type  2   force =     0.00058089   -0.00000213    0.00526673
     atom   82 type  2   force =     0.00000000   -0.00000177    0.01826178
     atom   83 type  2   force =     0.00000000    0.00000103   -0.00254552
     atom   84 type  2   force =     0.00341520    0.00000386   -0.01783696

     Total force =     0.142789     Total SCF correction =     0.000098

     BFGS Geometry Optimization
     Energy error            =      4.9E-02 Ry
     Gradient error          =      2.7E-02 Ry/Bohr

     number of scf cycles    =   1
     number of bfgs steps    =   0

     energy             new  =   -5988.0326596542 Ry

     new trust radius        =       0.0300520583 bohr
     new conv_thr            =       0.0000000010 Ry


ATOMIC_POSITIONS (angstrom)
V                7.5238654968        0.0000000000       -1.6848606512
V                9.8852997201        1.7717758866       -2.6804430317    0   0   0
V                1.7151654914        1.7717758866       -2.6804430317    0   0   0
V                4.0765997147        0.0000000000       -1.6848606512
O                7.9018463905        1.7717758866       -2.1726335233    0   0   0
O                9.4988514267        0.0000000000       -2.2047065627    0   0   0
O                2.1016137848        0.0000000000       -2.2047065627    0   0   0
O                3.6986188210        1.7717758866       -2.1726335233    0   0   0
O                4.1190736764        0.0000000000       -0.1149249309
O                1.6814654575        1.7717758866       -4.2652020727    0   0   0
O                9.9189997540        1.7717758866       -4.2652020727    0   0   0
O                0.0000000000        1.7717758866       -2.2065513085    0   0   0
O                5.8002326057        0.0000000000       -2.1707887775    0   0   0
O                7.4813915351        0.0000000000       -0.1149249309
V                7.5083590401        0.0000000000        2.6947032130
V                9.8768323686        1.7717755270        1.6848601995
V                1.7236328429        1.7717755270        1.6848601995
V                4.0921061714        0.0000000000        2.6947032130
O                7.9085826711        1.7717758864        2.2035538002
O                9.5056409393        0.0000000000        2.1767576740
O                2.0948242722        0.0000000000        2.1767576740
O                3.6918825404        1.7717758864        2.2035538002
O                4.1169601582        0.0000000000        4.2557612117
O                1.6811580619        1.7717770131        0.1149250494
O                9.9193071496        1.7717770131        0.1149250494
O                0.0000000000        1.7717768227        2.1804524932
O                5.8002326057        0.0000000000        2.2052040477
O                7.4835050533        0.0000000000        4.2557612117
V                7.5238653750        3.5435521442       -1.6848604203
V                9.8852997201        5.3153276596       -2.6804430317    0   0   0
V                1.7151654914        5.3153276596       -2.6804430317    0   0   0
V                4.0765998365        3.5435521442       -1.6848604203
O                7.9018463905        5.3153276596       -2.1726335233    0   0   0
O                9.4988514267        3.5435517730       -2.2047065627    0   0   0
O                2.1016137848        3.5435517730       -2.2047065627    0   0   0
O                3.6986188210        5.3153276596       -2.1726335233    0   0   0
O                4.1190745756        3.5435506661       -0.1149253801
O                1.6814654575        5.3153276596       -4.2652020727    0   0   0
O                9.9189997540        5.3153276596       -4.2652020727    0   0   0
O                0.0000000000        5.3153276596       -2.2065513085    0   0   0
O                5.8002326057        3.5435517730       -2.1707887775    0   0   0
O                7.4813906359        3.5435506661       -0.1149253801
V                7.5083587097        3.5435520816        2.6947027162
V                9.8768323575        5.3153276596        1.6848604122
V                1.7236328540        5.3153276596        1.6848604122
V                4.0921065018        3.5435520816        2.6947027162
O                7.9085828567        5.3153276596        2.2035536095
O                9.5056411362        3.5435517728        2.1767585558
O                2.0948240753        3.5435517728        2.1767585558
O                3.6918823548        5.3153276596        2.2035536095
O                4.1169599045        3.5435497298        4.2557631624
O                1.6811588626        5.3153276596        0.1149246218
O                9.9193063489        5.3153276596        0.1149246218
O                0.0000000000        5.3153276596        2.1804520977
O                5.8002326057        3.5435512273        2.2052042750
O                7.4835053070        3.5435497298        4.2557631624
V                7.5238653750        7.0871031748       -1.6848604203
V                9.8852997201        8.8588794326       -2.6804430317    0   0   0
V                1.7151654914        8.8588794326       -2.6804430317    0   0   0
V                4.0765998365        7.0871031748       -1.6848604203
O                7.9018463905        8.8588794326       -2.1726335233    0   0   0
O                9.4988514267        7.0871035460       -2.2047065627    0   0   0
O                2.1016137848        7.0871035460       -2.2047065627    0   0   0
O                3.6986188210        8.8588794326       -2.1726335233    0   0   0
O                4.1190745756        7.0871046529       -0.1149253801
O                1.6814654575        8.8588794326       -4.2652020727    0   0   0
O                9.9189997540        8.8588794326       -4.2652020727    0   0   0
O                0.0000000000        8.8588794326       -2.2065513085    0   0   0
O                5.8002326057        7.0871035460       -2.1707887775    0   0   0
O                7.4813906359        7.0871046529       -0.1149253801
V                7.5083587097        7.0871032374        2.6947027162
V                9.8768323686        8.8588797922        1.6848601995
V                1.7236328429        8.8588797922        1.6848601995
V                4.0921065018        7.0871032374        2.6947027162
O                7.9085826711        8.8588794328        2.2035538002
O                9.5056411362        7.0871035462        2.1767585558
O                2.0948240753        7.0871035462        2.1767585558
O                3.6918825404        8.8588794328        2.2035538002
O                4.1169599045        7.0871055892        4.2557631624
O                1.6811580619        8.8588783061        0.1149250494
O                9.9193071496        8.8588783061        0.1149250494
O                0.0000000000        8.8588784965        2.1804524932
O                5.8002326057        7.0871040917        2.2052042750
O                7.4835053070        7.0871055892        4.2557631624



     Writing config-only to output data dir ./outdir/slab.save/ :
     XML data file
     NEW-OLD atomic charge density approx. for the potential

     Check: negative core charge=   -0.000001

     negative rho (up, down):  4.309E-02 0.000E+00

     total cpu time spent up to now is     2163.4 secs

     Self-consistent Calculation

     iteration #  1     ecut=    60.00 Ry     beta= 0.20
     Davidson diagonalization with overlap
     c_bands:  2 eigenvalues not converged
     c_bands:  1 eigenvalues not converged
     c_bands:  5 eigenvalues not converged
     ethr =  1.00E-06,  avg # of iterations = 19.5

     negative rho (up, down):  4.256E-02 0.000E+00

     total cpu time spent up to now is     2350.5 secs

     total energy              =   -5988.03917660 Ry
     estimated scf accuracy    <       0.01045787 Ry

     iteration #  2     ecut=    60.00 Ry     beta= 0.20
     Davidson diagonalization with overlap
     ethr =  1.56E-06,  avg # of iterations =  1.5

     negative rho (up, down):  4.190E-02 0.000E+00

     total cpu time spent up to now is     2377.4 secs

     total energy              =   -5988.03733432 Ry
     estimated scf accuracy    <       0.00710604 Ry

     iteration #  3     ecut=    60.00 Ry     beta= 0.20
     Davidson diagonalization with overlap
     ethr =  1.06E-06,  avg # of iterations =  2.0

     negative rho (up, down):  4.188E-02 0.000E+00

     total cpu time spent up to now is     2405.7 secs

     total energy              =   -5988.03699760 Ry
     estimated scf accuracy    <       0.00265842 Ry

     iteration #  4     ecut=    60.00 Ry     beta= 0.20
     Davidson diagonalization with overlap
     ethr =  3.96E-07,  avg # of iterations =  6.5

     negative rho (up, down):  4.176E-02 0.000E+00

     total cpu time spent up to now is     2440.2 secs

     total energy              =   -5988.03735932 Ry
     estimated scf accuracy    <       0.00118208 Ry

     iteration #  5     ecut=    60.00 Ry     beta= 0.20
