
     Program PWSCF v.7.5 starts on 28Jun2026 at 20:23:46 

     This program is part of the open-source Quantum ESPRESSO suite
     for quantum simulation of materials; please cite
         "P. Giannozzi et al., J. Phys.:Condens. Matter 21 395502 (2009);
         "P. Giannozzi et al., J. Phys.:Condens. Matter 29 465901 (2017);
         "P. Giannozzi et al., J. Chem. Phys. 152 154105 (2020);
          URL http://www.quantum-espresso.org", 
     in publications or presentations arising from this work. More details at
     http://www.quantum-espresso.org/quote

     Serial multi-threaded version, running on   32 processor cores
     43330 MiB available memory on the printing compute node when the environment starts
 
     Reading input from inputs/gas_co.in

     Current dimensions of program PWSCF are:
     Max number of different atomic species (ntypx) = 10
     Max number of k-points (npk) =  40000
     Max angular momentum in pseudopotentials (lmaxx) =  4
     file O.pbe-n-kjpaw_psl.0.1.UPF: wavefunction(s)  2P renormalized
     file C.pbe-n-kjpaw_psl.1.0.0.UPF: wavefunction(s)  2S 2P renormalized

     IMPORTANT: XC functional enforced from input :
     Exchange-correlation= VDW-DF2-B86R
                           (   1   4  26   0   2   0   0)
     Any further DFT definition will be discarded
     Please, verify this is what you really want

     Message from routine setup:
     using ibrav=0 with symmetry is DISCOURAGED, use correct ibrav instead
 
 
     G-vector sticks info
     --------------------
     sticks:   dense  smooth     PW     G-vecs:    dense   smooth      PW
     Sum       38393   15329   3833              5653693  1429635  178925
 
     Using Slab Decomposition
 


     bravais-lattice index     =            0
     lattice parameter (alat)  =      28.3459  a.u.
     unit-cell volume          =   22775.6289 (a.u.)^3
     number of atoms/cell      =            2
     number of atomic types    =            2
     number of electrons       =        10.00
     number of Kohn-Sham states=            9
     kinetic-energy cutoff     =      60.0000  Ry
     charge density cutoff     =     600.0000  Ry
     scf convergence threshold =      1.0E-09
     mixing beta               =       0.2000
     number of iterations used =            8  local-TF  mixing
     energy convergence thresh.=      1.0E-05
     force convergence thresh. =      1.0E-04
     Exchange-correlation= VDW-DF2-B86R
                           (   1   4  26   0   2   0   0)
     nstep                     =          200


     GPU acceleration is ACTIVE.  1 visible GPUs per MPI rank


     celldm(1)=  28.345892  celldm(2)=   0.000000  celldm(3)=   0.000000
     celldm(4)=   0.000000  celldm(5)=   0.000000  celldm(6)=   0.000000

     crystal axes: (cart. coord. in units of alat)
               a(1) = (   1.000000   0.000000   0.000000 )  
               a(2) = (   0.000000   1.000000   0.000000 )  
               a(3) = (   0.000000   0.000000   1.000000 )  

     reciprocal axes: (cart. coord. in units 2 pi/alat)
               b(1) = (  1.000000  0.000000  0.000000 )  
               b(2) = (  0.000000  1.000000  0.000000 )  
               b(3) = (  0.000000  0.000000  1.000000 )  


     PseudoPot. # 1 for O  read from file:
     /home/x/Workspace/3-hEspesso/pseudo/O.pbe-n-kjpaw_psl.0.1.UPF
     MD5 check sum: 0234752ac141de4415c5fc33072bef88
     Pseudo is Projector augmented-wave + core cor, Zval =  6.0
     Generated using "atomic" code by A. Dal Corso  v.5.0.99 svn rev. 10869
     Shape of augmentation charge: BESSEL
     Using radial grid of 1095 points,  4 beta functions with: 
                l(1) =   0
                l(2) =   0
                l(3) =   1
                l(4) =   1
     Q(r) pseudized with 0 coefficients 


     PseudoPot. # 2 for C  read from file:
     /home/x/Workspace/3-hEspesso/pseudo/C.pbe-n-kjpaw_psl.1.0.0.UPF
     MD5 check sum: 5d2aebdfa2cae82b50a7e79e9516da0f
     Pseudo is Projector augmented-wave + core cor, Zval =  4.0
     Generated using "atomic" code by A. Dal Corso  v.5.1
     Shape of augmentation charge: PSQ
     Using radial grid of 1073 points,  4 beta functions with: 
                l(1) =   0
                l(2) =   0
                l(3) =   1
                l(4) =   1
     Q(r) pseudized with 0 coefficients 


     atomic species   valence    mass     pseudopotential
     O                 6.00    15.99900     O ( 1.00)
     C                 4.00    12.01100     C ( 1.00)

      8 Sym. Ops. (no inversion) found



   Cartesian axes

     site n.     atom                  positions (alat units)
         1        O      tau(   1) = (   0.5000000   0.5000000   0.5383447  )
         2        C      tau(   2) = (   0.5000000   0.5000000   0.4616553  )

     number of k points=     1  Marzari-Vanderbilt smearing, width (Ry)=  0.0100
                       cart. coord. in units 2pi/alat
        k(    1) = (   0.0000000   0.0000000   0.0000000), wk =   2.0000000

     Dense  grid:  5653693 G-vectors     FFT dimensions: ( 225, 225, 225)

     Smooth grid:  1429635 G-vectors     FFT dimensions: ( 144, 144, 144)

     Estimated max dynamical RAM per process >       7.48 GB

     Initial potential from superposition of free atoms

     starting charge      10.0000, renormalised to      10.0000

     negative rho (up, down):  6.873E-04 0.000E+00


     %%%%%%%%%%%%%%%%%%%%%%%%%%%%%%%%%%%%%%%%%%%%%%%%%%%%%%%%%%%%%%%%%%%%%%%%
     %                                                                      %
     % You are using vdW-DF, which was implemented by the Thonhauser group. %
     % Please cite the following two papers that made this development      %
     % possible and the two reviews that describe the various versions:     %
     %                                                                      %
     %   T. Thonhauser et al., PRL 115, 136402 (2015).                      %
     %   T. Thonhauser et al., PRB 76, 125112 (2007).                       %
     %   K. Berland et al., Rep. Prog. Phys. 78, 066501 (2015).             %
     %   D.C. Langreth et al., J. Phys.: Condens. Matter 21, 084203 (2009). %
     %                                                                      %
     % If you are calculating stress with vdW-DF, please also cite:         %
     %                                                                      %
     %   R. Sabatini et al., J. Phys.: Condens. Matter 24, 424209 (2012).   %
     %                                                                      %
     %%%%%%%%%%%%%%%%%%%%%%%%%%%%%%%%%%%%%%%%%%%%%%%%%%%%%%%%%%%%%%%%%%%%%%%%

     %%%%%%%%%%%%%%%%%%%%%%%%%%%%%%%%%%%%%%%%%%%%%%%%%%%%%%%%%%%%%%%%%%%%%%%%
     %                                                                      %
     %  vdW-DF NEWS:                                                        %
     %                                                                      %
     %  * vdW-DF3 is now available. DOI: 10.1021/acs.jctc.0c00471           %
     %    use with input_dft = 'vdW-DF3-opt1' or 'vdW-DF3-opt2'             %
     %                                                                      %
     %  * Unscreened and range-separated hybrid vdW-DF-cx functionals       %
     %    DOI: 10.1063/1.4986522 and 10.1088/1361-648X/ac2ad2               %
     %    use with input_dft = 'vdW-DF-cx0'    and 'vdW-DF-ahcx'            %
     %  * Unscreened and range-separated hybrid vdW-DF2-b86r functionals    %
     %    DOI: 10.1063/1.4986522 and DOI: 10.1103/PhysRevX.12.041003        %
     %    use with input_dft = 'vdW-DF2-br0' and 'vdW-DF2-ahbr'             %
     %                                                                      %
     %%%%%%%%%%%%%%%%%%%%%%%%%%%%%%%%%%%%%%%%%%%%%%%%%%%%%%%%%%%%%%%%%%%%%%%%


     Starting wfcs are    8 randomized atomic wfcs +    1 random wfcs

     total cpu time spent up to now is       34.7 secs

     Self-consistent Calculation

     iteration #  1     ecut=    60.00 Ry     beta= 0.20
     Davidson diagonalization with overlap
     ethr =  1.00E-02,  avg # of iterations =  7.0

     negative rho (up, down):  7.933E-06 0.000E+00

     total cpu time spent up to now is       47.1 secs

     total energy              =     -59.91288509 Ry
     estimated scf accuracy    <       0.18591611 Ry

     iteration #  2     ecut=    60.00 Ry     beta= 0.20
     Davidson diagonalization with overlap
     ethr =  1.86E-03,  avg # of iterations =  1.0

     negative rho (up, down):  9.158E-07 0.000E+00

     total cpu time spent up to now is       59.4 secs

     total energy              =     -59.88002641 Ry
     estimated scf accuracy    <       0.10185198 Ry

     iteration #  3     ecut=    60.00 Ry     beta= 0.20
     Davidson diagonalization with overlap
     ethr =  1.02E-03,  avg # of iterations =  1.0

     negative rho (up, down):  3.520E-06 0.000E+00

     total cpu time spent up to now is       71.6 secs

     total energy              =     -59.88162356 Ry
     estimated scf accuracy    <       0.02048447 Ry

     iteration #  4     ecut=    60.00 Ry     beta= 0.20
     Davidson diagonalization with overlap
     ethr =  2.05E-04,  avg # of iterations =  2.0

     negative rho (up, down):  2.580E-05 0.000E+00

     total cpu time spent up to now is       83.8 secs

     total energy              =     -59.88169389 Ry
     estimated scf accuracy    <       0.00374015 Ry

     iteration #  5     ecut=    60.00 Ry     beta= 0.20
     Davidson diagonalization with overlap
     ethr =  3.74E-05,  avg # of iterations =  7.0

     negative rho (up, down):  1.091E-04 0.000E+00

     total cpu time spent up to now is       96.3 secs

     total energy              =     -59.88200725 Ry
     estimated scf accuracy    <       0.00109687 Ry

     iteration #  6     ecut=    60.00 Ry     beta= 0.20
     Davidson diagonalization with overlap
     ethr =  1.10E-05,  avg # of iterations = 16.0

     negative rho (up, down):  1.576E-04 0.000E+00

     total cpu time spent up to now is      111.9 secs

     total energy              =     -59.88203481 Ry
     estimated scf accuracy    <       0.00031314 Ry

     iteration #  7     ecut=    60.00 Ry     beta= 0.20
     Davidson diagonalization with overlap
     ethr =  3.13E-06,  avg # of iterations =  7.0

     negative rho (up, down):  2.296E-03 0.000E+00

     total cpu time spent up to now is      125.4 secs

     total energy              =     -59.88213599 Ry
     estimated scf accuracy    <       0.00020640 Ry

     iteration #  8     ecut=    60.00 Ry     beta= 0.20
     Davidson diagonalization with overlap
     ethr =  2.06E-06,  avg # of iterations = 12.0

     negative rho (up, down):  6.335E-03 0.000E+00

     total cpu time spent up to now is      138.9 secs

     total energy              =     -59.88213662 Ry
     estimated scf accuracy    <       0.00016524 Ry

     iteration #  9     ecut=    60.00 Ry     beta= 0.20
     Davidson diagonalization with overlap
     ethr =  1.65E-06,  avg # of iterations =  4.0

     negative rho (up, down):  2.493E-03 0.000E+00

     total cpu time spent up to now is      150.3 secs

     total energy              =     -59.88220131 Ry
     estimated scf accuracy    <       0.00005788 Ry

     iteration # 10     ecut=    60.00 Ry     beta= 0.20
     Davidson diagonalization with overlap
     ethr =  5.79E-07,  avg # of iterations =  5.0

     negative rho (up, down):  1.846E-03 0.000E+00

     total cpu time spent up to now is      162.1 secs

     total energy              =     -59.88221555 Ry
     estimated scf accuracy    <       0.00001381 Ry

     iteration # 11     ecut=    60.00 Ry     beta= 0.20
     Davidson diagonalization with overlap
     ethr =  1.38E-07,  avg # of iterations =  5.0

     negative rho (up, down):  8.906E-04 0.000E+00

     total cpu time spent up to now is      174.3 secs

     total energy              =     -59.88221243 Ry
     estimated scf accuracy    <       0.00000707 Ry

     iteration # 12     ecut=    60.00 Ry     beta= 0.20
     Davidson diagonalization with overlap
     ethr =  7.07E-08,  avg # of iterations =  2.0

     negative rho (up, down):  1.299E-03 0.000E+00

     total cpu time spent up to now is      185.6 secs

     total energy              =     -59.88221239 Ry
     estimated scf accuracy    <       0.00000073 Ry

     iteration # 13     ecut=    60.00 Ry     beta= 0.20
     Davidson diagonalization with overlap
     ethr =  7.29E-09,  avg # of iterations =  2.0

     negative rho (up, down):  1.207E-03 0.000E+00

     total cpu time spent up to now is      196.9 secs

     total energy              =     -59.88221316 Ry
     estimated scf accuracy    <       0.00000039 Ry

     iteration # 14     ecut=    60.00 Ry     beta= 0.20
     Davidson diagonalization with overlap
     ethr =  3.88E-09,  avg # of iterations =  2.0

     negative rho (up, down):  1.149E-03 0.000E+00

     total cpu time spent up to now is      208.5 secs

     total energy              =     -59.88220989 Ry
     estimated scf accuracy    <       0.00000018 Ry

     iteration # 15     ecut=    60.00 Ry     beta= 0.20
     Davidson diagonalization with overlap
     ethr =  1.76E-09,  avg # of iterations =  2.0

     negative rho (up, down):  1.140E-03 0.000E+00

     total cpu time spent up to now is      219.7 secs

     total energy              =     -59.88221069 Ry
     estimated scf accuracy    <       0.00000012 Ry

     iteration # 16     ecut=    60.00 Ry     beta= 0.20
     Davidson diagonalization with overlap
     ethr =  1.17E-09,  avg # of iterations =  1.0

     negative rho (up, down):  1.149E-03 0.000E+00

     total cpu time spent up to now is      231.0 secs

     total energy              =     -59.88221082 Ry
     estimated scf accuracy    <       0.00000003 Ry

     iteration # 17     ecut=    60.00 Ry     beta= 0.20
     Davidson diagonalization with overlap
     ethr =  2.80E-10,  avg # of iterations =  2.0

     negative rho (up, down):  1.154E-03 0.000E+00

     total cpu time spent up to now is      242.7 secs

     total energy              =     -59.88221101 Ry
     estimated scf accuracy    <       0.00000002 Ry

     iteration # 18     ecut=    60.00 Ry     beta= 0.20
     Davidson diagonalization with overlap
     ethr =  1.56E-10,  avg # of iterations =  2.0

     negative rho (up, down):  1.132E-03 0.000E+00

     total cpu time spent up to now is      254.4 secs

     total energy              =     -59.88221151 Ry
     estimated scf accuracy    <          5.6E-09 Ry

     iteration # 19     ecut=    60.00 Ry     beta= 0.20
     Davidson diagonalization with overlap
     ethr =  5.62E-11,  avg # of iterations =  2.0

     negative rho (up, down):  1.113E-03 0.000E+00

     total cpu time spent up to now is      265.8 secs

     total energy              =     -59.88221131 Ry
     estimated scf accuracy    <          1.2E-09 Ry

     iteration # 20     ecut=    60.00 Ry     beta= 0.20
     Davidson diagonalization with overlap
     ethr =  1.21E-11,  avg # of iterations =  2.0

     negative rho (up, down):  1.115E-03 0.000E+00

     total cpu time spent up to now is      277.2 secs

     End of self-consistent calculation

          k = 0.0000 0.0000 0.0000 (178925 PWs)   bands (ev):

   -29.0548 -14.1148 -11.7083 -11.7083  -9.1366  -2.2838  -2.2838  -0.3383
     0.1915

     the Fermi energy is    -6.4398 ev

!    total energy              =     -59.88221141 Ry
     total all-electron energy =      -226.493202 Ry
     estimated scf accuracy    <          3.0E-10 Ry
     smearing contrib. (-TS)   =       0.00000000 Ry
     internal energy E=F+TS    =     -59.88221141 Ry

     The total energy is F=E-TS. E is the sum of the following terms:
     one-electron contribution =     -92.04907319 Ry
     hartree contribution      =      47.31274584 Ry
     xc contribution           =     -11.68083595 Ry
     ewald contribution        =      12.09235452 Ry
     one-center paw contrib.   =     -15.55740264 Ry

     convergence has been achieved in  20 iterations

     negative rho (up, down):  1.115E-03 0.000E+00

     Forces acting on atoms (cartesian axes, Ry/au):

     atom    1 type  1   force =     0.00000000    0.00000000   -0.05773256
     atom    2 type  2   force =     0.00000000    0.00000000    0.05773256

     Total force =     0.081646     Total SCF correction =     0.000016


     Computing stress (Cartesian axis) and pressure


     negative rho (up, down):  1.115E-03 0.000E+00
          total   stress  (Ry/bohr**3)                   (kbar)     P=       -0.29
  -0.00000013   0.00000000   0.00000000           -0.02        0.00        0.00
   0.00000000  -0.00000013   0.00000000            0.00       -0.02        0.00
   0.00000000   0.00000000  -0.00000571            0.00        0.00       -0.84


     BFGS Geometry Optimization
     Energy error            =      6.7E-03 Ry
     Gradient error          =      5.8E-02 Ry/Bohr

     number of scf cycles    =   1
     number of bfgs steps    =   0

     energy             new  =     -59.8822114123 Ry

     new trust radius        =       0.0577325605 bohr
     new conv_thr            =       0.0000000010 Ry


ATOMIC_POSITIONS (angstrom)
O                7.5000000000        7.5000000000        8.0446192447
C                7.5000000000        7.5000000000        6.9553807553



     Writing config-only to output data dir ./outdir/gas_co.save/ :
     XML data file
     NEW-OLD atomic charge density approx. for the potential

     negative rho (up, down):  1.005E-03 0.000E+00

     total cpu time spent up to now is      368.5 secs

     Self-consistent Calculation

     iteration #  1     ecut=    60.00 Ry     beta= 0.20
     Davidson diagonalization with overlap
     ethr =  1.00E-06,  avg # of iterations =  6.0

     negative rho (up, down):  4.450E-04 0.000E+00

     total cpu time spent up to now is      380.5 secs

     total energy              =     -59.87401830 Ry
     estimated scf accuracy    <       0.00712137 Ry

     iteration #  2     ecut=    60.00 Ry     beta= 0.20
     Davidson diagonalization with overlap
     ethr =  7.12E-05,  avg # of iterations =  1.0

     negative rho (up, down):  1.365E-04 0.000E+00

     total cpu time spent up to now is      392.6 secs

     total energy              =     -59.87150959 Ry
     estimated scf accuracy    <       0.00463010 Ry

     iteration #  3     ecut=    60.00 Ry     beta= 0.20
     Davidson diagonalization with overlap
     ethr =  4.63E-05,  avg # of iterations =  2.0

     negative rho (up, down):  1.024E-04 0.000E+00

     total cpu time spent up to now is      404.8 secs

     total energy              =     -59.87217753 Ry
     estimated scf accuracy    <       0.00028349 Ry

     iteration #  4     ecut=    60.00 Ry     beta= 0.20
     Davidson diagonalization with overlap
     ethr =  2.83E-06,  avg # of iterations = 10.0

     negative rho (up, down):  8.911E-05 0.000E+00

     total cpu time spent up to now is      418.3 secs

     total energy              =     -59.87220521 Ry
     estimated scf accuracy    <       0.00006155 Ry

     iteration #  5     ecut=    60.00 Ry     beta= 0.20
     Davidson diagonalization with overlap
     ethr =  6.15E-07,  avg # of iterations =  1.0

     negative rho (up, down):  1.788E-04 0.000E+00

     total cpu time spent up to now is      430.2 secs

     total energy              =     -59.87219690 Ry
     estimated scf accuracy    <       0.00003967 Ry

     iteration #  6     ecut=    60.00 Ry     beta= 0.20
     Davidson diagonalization with overlap
     ethr =  3.97E-07,  avg # of iterations =  5.0

     negative rho (up, down):  2.978E-04 0.000E+00

     total cpu time spent up to now is      442.9 secs

     total energy              =     -59.87219588 Ry
     estimated scf accuracy    <       0.00000984 Ry

     iteration #  7     ecut=    60.00 Ry     beta= 0.20
     Davidson diagonalization with overlap
     ethr =  9.84E-08,  avg # of iterations =  2.0

     negative rho (up, down):  8.263E-04 0.000E+00

     total cpu time spent up to now is      454.5 secs

     total energy              =     -59.87220228 Ry
     estimated scf accuracy    <       0.00000681 Ry

     iteration #  8     ecut=    60.00 Ry     beta= 0.20
     Davidson diagonalization with overlap
     ethr =  6.81E-08,  avg # of iterations =  6.0

     negative rho (up, down):  9.605E-04 0.000E+00

     total cpu time spent up to now is      466.3 secs

     total energy              =     -59.87220624 Ry
     estimated scf accuracy    <       0.00000225 Ry

     iteration #  9     ecut=    60.00 Ry     beta= 0.20
     Davidson diagonalization with overlap
     ethr =  2.25E-08,  avg # of iterations =  2.0

     negative rho (up, down):  1.140E-03 0.000E+00

     total cpu time spent up to now is      477.7 secs

     total energy              =     -59.87221331 Ry
     estimated scf accuracy    <       0.00000142 Ry

     iteration # 10     ecut=    60.00 Ry     beta= 0.20
     Davidson diagonalization with overlap
     ethr =  1.42E-08,  avg # of iterations =  1.0

     negative rho (up, down):  1.200E-03 0.000E+00

     total cpu time spent up to now is      489.0 secs

     total energy              =     -59.87221400 Ry
     estimated scf accuracy    <       0.00000028 Ry

     iteration # 11     ecut=    60.00 Ry     beta= 0.20
     Davidson diagonalization with overlap
     ethr =  2.84E-09,  avg # of iterations =  2.0

     negative rho (up, down):  1.132E-03 0.000E+00

     total cpu time spent up to now is      500.4 secs

     total energy              =     -59.87221272 Ry
     estimated scf accuracy    <       0.00000016 Ry

     iteration # 12     ecut=    60.00 Ry     beta= 0.20
     Davidson diagonalization with overlap
     ethr =  1.59E-09,  avg # of iterations =  2.0

     negative rho (up, down):  1.142E-03 0.000E+00

     total cpu time spent up to now is      511.9 secs

     total energy              =     -59.87221255 Ry
     estimated scf accuracy    <       0.00000002 Ry

     iteration # 13     ecut=    60.00 Ry     beta= 0.20
     Davidson diagonalization with overlap
     ethr =  2.14E-10,  avg # of iterations =  2.0

     negative rho (up, down):  1.163E-03 0.000E+00

     total cpu time spent up to now is      523.3 secs

     total energy              =     -59.87221229 Ry
     estimated scf accuracy    <          5.7E-09 Ry

     iteration # 14     ecut=    60.00 Ry     beta= 0.20
     Davidson diagonalization with overlap
     ethr =  5.70E-11,  avg # of iterations =  2.0

     negative rho (up, down):  1.154E-03 0.000E+00

     total cpu time spent up to now is      534.5 secs

     total energy              =     -59.87221217 Ry
     estimated scf accuracy    <          4.1E-09 Ry

     iteration # 15     ecut=    60.00 Ry     beta= 0.20
     Davidson diagonalization with overlap
     ethr =  4.13E-11,  avg # of iterations =  2.0

     negative rho (up, down):  1.162E-03 0.000E+00

     total cpu time spent up to now is      545.7 secs

     End of self-consistent calculation

          k = 0.0000 0.0000 0.0000 (178925 PWs)   bands (ev):

   -29.9481 -14.0884 -12.2553 -12.2553  -8.9883  -1.6889  -1.6889  -0.3351
     0.1938

     the Fermi energy is    -6.6614 ev

!    total energy              =     -59.87221233 Ry
     total all-electron energy =      -226.483203 Ry
     estimated scf accuracy    <          3.6E-10 Ry
     smearing contrib. (-TS)   =       0.00000000 Ry
     internal energy E=F+TS    =     -59.87221233 Ry

     The total energy is F=E-TS. E is the sum of the following terms:
     one-electron contribution =     -94.13709697 Ry
     hartree contribution      =      48.29893952 Ry
     xc contribution           =     -11.80619476 Ry
     ewald contribution        =      13.32880183 Ry
     one-center paw contrib.   =     -15.55666195 Ry

     convergence has been achieved in  15 iterations

     negative rho (up, down):  1.162E-03 0.000E+00

     Forces acting on atoms (cartesian axes, Ry/au):

     atom    1 type  1   force =     0.00000000    0.00000000    0.25394898
     atom    2 type  2   force =     0.00000000    0.00000000   -0.25394898

     Total force =     0.359138     Total SCF correction =     0.000030


     Computing stress (Cartesian axis) and pressure


     negative rho (up, down):  1.162E-03 0.000E+00
          total   stress  (Ry/bohr**3)                   (kbar)     P=        1.10
  -0.00000013   0.00000000   0.00000000           -0.02        0.00        0.00
   0.00000000  -0.00000013   0.00000000            0.00       -0.02        0.00
   0.00000000   0.00000000   0.00002274            0.00        0.00        3.35

     Energy error            =      1.0E-02 Ry
     Gradient error          =      2.5E-01 Ry/Bohr

     number of scf cycles    =   2
     number of bfgs steps    =   1

     energy             old  =     -59.8822114123 Ry
     energy             new  =     -59.8722123324 Ry

     CASE: energy            _new > energy            _old

     new trust radius        =       0.0115465576 bohr
     new conv_thr            =       0.0000000010 Ry


ATOMIC_POSITIONS (angstrom)
O                7.5000000000        7.5000000000        8.0690598248
C                7.5000000000        7.5000000000        6.9309401752



     Writing config-only to output data dir ./outdir/gas_co.save/ :
     XML data file
     NEW-OLD atomic charge density approx. for the potential

     negative rho (up, down):  1.113E-03 0.000E+00

     total cpu time spent up to now is      634.6 secs

     Self-consistent Calculation

     iteration #  1     ecut=    60.00 Ry     beta= 0.20
     Davidson diagonalization with overlap
     ethr =  1.00E-06,  avg # of iterations =  6.0

     negative rho (up, down):  1.921E-03 0.000E+00

     total cpu time spent up to now is      646.1 secs

     total energy              =     -59.88416387 Ry
     estimated scf accuracy    <       0.00483788 Ry

     iteration #  2     ecut=    60.00 Ry     beta= 0.20
     Davidson diagonalization with overlap
     ethr =  4.84E-05,  avg # of iterations =  1.0

     negative rho (up, down):  6.644E-03 0.000E+00

     total cpu time spent up to now is      656.9 secs

     total energy              =     -59.88262485 Ry
     estimated scf accuracy    <       0.00311427 Ry

     iteration #  3     ecut=    60.00 Ry     beta= 0.20
     Davidson diagonalization with overlap
     ethr =  3.11E-05,  avg # of iterations =  2.0

     negative rho (up, down):  7.245E-03 0.000E+00

     total cpu time spent up to now is      667.7 secs

     total energy              =     -59.88292123 Ry
     estimated scf accuracy    <       0.00033338 Ry

     iteration #  4     ecut=    60.00 Ry     beta= 0.20
     Davidson diagonalization with overlap
     ethr =  3.33E-06,  avg # of iterations =  4.0

     negative rho (up, down):  7.319E-03 0.000E+00

     total cpu time spent up to now is      678.9 secs

     total energy              =     -59.88296589 Ry
     estimated scf accuracy    <       0.00004418 Ry

     iteration #  5     ecut=    60.00 Ry     beta= 0.20
     Davidson diagonalization with overlap
     ethr =  4.42E-07,  avg # of iterations =  2.0

     negative rho (up, down):  5.532E-03 0.000E+00

     total cpu time spent up to now is      690.2 secs

     total energy              =     -59.88296838 Ry
     estimated scf accuracy    <       0.00002565 Ry

     iteration #  6     ecut=    60.00 Ry     beta= 0.20
     Davidson diagonalization with overlap
     ethr =  2.57E-07,  avg # of iterations =  5.0

     negative rho (up, down):  5.142E-03 0.000E+00

     total cpu time spent up to now is      701.2 secs

     total energy              =     -59.88296879 Ry
     estimated scf accuracy    <       0.00001180 Ry

     iteration #  7     ecut=    60.00 Ry     beta= 0.20
     Davidson diagonalization with overlap
     ethr =  1.18E-07,  avg # of iterations =  2.0

     negative rho (up, down):  2.394E-03 0.000E+00

     total cpu time spent up to now is      712.7 secs

     total energy              =     -59.88296236 Ry
     estimated scf accuracy    <       0.00000576 Ry

     iteration #  8     ecut=    60.00 Ry     beta= 0.20
     Davidson diagonalization with overlap
     ethr =  5.76E-08,  avg # of iterations =  2.0

     negative rho (up, down):  1.922E-03 0.000E+00

     total cpu time spent up to now is      724.1 secs

     total energy              =     -59.88296197 Ry
     estimated scf accuracy    <       0.00000198 Ry

     iteration #  9     ecut=    60.00 Ry     beta= 0.20
     Davidson diagonalization with overlap
     ethr =  1.98E-08,  avg # of iterations =  2.0

     negative rho (up, down):  1.376E-03 0.000E+00

     total cpu time spent up to now is      735.7 secs

     total energy              =     -59.88295652 Ry
     estimated scf accuracy    <       0.00000062 Ry

     iteration # 10     ecut=    60.00 Ry     beta= 0.20
     Davidson diagonalization with overlap
     ethr =  6.19E-09,  avg # of iterations =  2.0

     negative rho (up, down):  1.118E-03 0.000E+00

     total cpu time spent up to now is      747.3 secs

     total energy              =     -59.88295343 Ry
     estimated scf accuracy    <       0.00000069 Ry

     iteration # 11     ecut=    60.00 Ry     beta= 0.20
     Davidson diagonalization with overlap
     ethr =  6.19E-09,  avg # of iterations =  2.0

     negative rho (up, down):  1.187E-03 0.000E+00

     total cpu time spent up to now is      758.9 secs

     total energy              =     -59.88295568 Ry
     estimated scf accuracy    <       0.00000008 Ry

     iteration # 12     ecut=    60.00 Ry     beta= 0.20
     Davidson diagonalization with overlap
     ethr =  7.92E-10,  avg # of iterations =  2.0

     negative rho (up, down):  1.130E-03 0.000E+00

     total cpu time spent up to now is      770.8 secs

     total energy              =     -59.88295593 Ry
     estimated scf accuracy    <       0.00000002 Ry

     iteration # 13     ecut=    60.00 Ry     beta= 0.20
     Davidson diagonalization with overlap
     ethr =  1.99E-10,  avg # of iterations =  2.0

     negative rho (up, down):  1.128E-03 0.000E+00

     total cpu time spent up to now is      782.7 secs

     total energy              =     -59.88295639 Ry
     estimated scf accuracy    <          6.0E-09 Ry

     iteration # 14     ecut=    60.00 Ry     beta= 0.20
     Davidson diagonalization with overlap
     ethr =  6.03E-11,  avg # of iterations =  2.0

     negative rho (up, down):  1.130E-03 0.000E+00

     total cpu time spent up to now is      794.3 secs

     total energy              =     -59.88295653 Ry
     estimated scf accuracy    <          1.4E-09 Ry

     iteration # 15     ecut=    60.00 Ry     beta= 0.20
     Davidson diagonalization with overlap
     ethr =  1.45E-11,  avg # of iterations =  2.0

     negative rho (up, down):  1.123E-03 0.000E+00

     total cpu time spent up to now is      806.0 secs

     total energy              =     -59.88295634 Ry
     estimated scf accuracy    <          1.3E-09 Ry

     iteration # 16     ecut=    60.00 Ry     beta= 0.20
     Davidson diagonalization with overlap
     ethr =  1.35E-11,  avg # of iterations =  2.0

     negative rho (up, down):  1.125E-03 0.000E+00

     total cpu time spent up to now is      817.2 secs

     End of self-consistent calculation

          k = 0.0000 0.0000 0.0000 (178925 PWs)   bands (ev):

   -29.2315 -14.1092 -11.8133 -11.8133  -9.1086  -2.1685  -2.1685  -0.3380
     0.1915

     the Fermi energy is    -6.4840 ev

!    total energy              =     -59.88295643 Ry
     total all-electron energy =      -226.493947 Ry
     estimated scf accuracy    <          9.3E-11 Ry
     smearing contrib. (-TS)   =       0.00000000 Ry
     internal energy E=F+TS    =     -59.88295643 Ry

     The total energy is F=E-TS. E is the sum of the following terms:
     one-electron contribution =     -92.45371885 Ry
     hartree contribution      =      47.50345180 Ry
     xc contribution           =     -11.70458388 Ry
     ewald contribution        =      12.32899534 Ry
     one-center paw contrib.   =     -15.55710084 Ry

     convergence has been achieved in  16 iterations

     negative rho (up, down):  1.125E-03 0.000E+00

     Forces acting on atoms (cartesian axes, Ry/au):

     atom    1 type  1   force =     0.00000000    0.00000000   -0.00600255
     atom    2 type  2   force =     0.00000000    0.00000000    0.00600255

     Total force =     0.008489     Total SCF correction =     0.000013


     Computing stress (Cartesian axis) and pressure


     negative rho (up, down):  1.125E-03 0.000E+00
          total   stress  (Ry/bohr**3)                   (kbar)     P=       -0.05
  -0.00000013   0.00000000   0.00000000           -0.02        0.00        0.00
   0.00000000  -0.00000013   0.00000000            0.00       -0.02        0.00
   0.00000000   0.00000000  -0.00000077            0.00        0.00       -0.11

     Energy error            =      7.5E-04 Ry
     Gradient error          =      6.0E-03 Ry/Bohr

     number of scf cycles    =   3
     number of bfgs steps    =   1

     energy             old  =     -59.8822114123 Ry
     energy             new  =     -59.8829564340 Ry

     CASE: energy            _new < energy            _old

     new trust radius        =       0.0013398171 bohr
     new conv_thr            =       0.0000000006 Ry


ATOMIC_POSITIONS (angstrom)
O                7.5000000000        7.5000000000        8.0683508242
C                7.5000000000        7.5000000000        6.9316491758



     Writing config-only to output data dir ./outdir/gas_co.save/ :
     XML data file
     NEW-OLD atomic charge density approx. for the potential

     negative rho (up, down):  1.125E-03 0.000E+00

     total cpu time spent up to now is      905.5 secs

     Self-consistent Calculation

     iteration #  1     ecut=    60.00 Ry     beta= 0.20
     Davidson diagonalization with overlap
     ethr =  1.00E-06,  avg # of iterations =  2.0

     Threshold (ethr) on eigenvalues was too large:
     Diagonalizing with lowered threshold

     Davidson diagonalization with overlap
     ethr =  3.30E-08,  avg # of iterations =  1.0

     negative rho (up, down):  1.108E-03 0.000E+00

     total cpu time spent up to now is      916.9 secs

     total energy              =     -59.88296498 Ry
     estimated scf accuracy    <       0.00000356 Ry

     iteration #  2     ecut=    60.00 Ry     beta= 0.20
     Davidson diagonalization with overlap
     ethr =  3.56E-08,  avg # of iterations =  1.0

     negative rho (up, down):  1.051E-03 0.000E+00

     total cpu time spent up to now is      928.2 secs

     total energy              =     -59.88296435 Ry
     estimated scf accuracy    <       0.00000230 Ry

     iteration #  3     ecut=    60.00 Ry     beta= 0.20
     Davidson diagonalization with overlap
     ethr =  2.30E-08,  avg # of iterations =  2.0

     negative rho (up, down):  1.051E-03 0.000E+00

     total cpu time spent up to now is      939.5 secs

     total energy              =     -59.88296452 Ry
     estimated scf accuracy    <       0.00000029 Ry

     iteration #  4     ecut=    60.00 Ry     beta= 0.20
     Davidson diagonalization with overlap
     ethr =  2.91E-09,  avg # of iterations =  1.0

     negative rho (up, down):  1.044E-03 0.000E+00

     total cpu time spent up to now is      951.0 secs

     total energy              =     -59.88296444 Ry
     estimated scf accuracy    <       0.00000011 Ry

     iteration #  5     ecut=    60.00 Ry     beta= 0.20
     Davidson diagonalization with overlap
     ethr =  1.13E-09,  avg # of iterations =  1.0

     negative rho (up, down):  1.058E-03 0.000E+00

     total cpu time spent up to now is      962.4 secs

     total energy              =     -59.88296412 Ry
     estimated scf accuracy    <       0.00000003 Ry

     iteration #  6     ecut=    60.00 Ry     beta= 0.20
     Davidson diagonalization with overlap
     ethr =  2.93E-10,  avg # of iterations =  2.0

     negative rho (up, down):  1.077E-03 0.000E+00

     total cpu time spent up to now is      973.8 secs

     total energy              =     -59.88296388 Ry
     estimated scf accuracy    <       0.00000002 Ry

     iteration #  7     ecut=    60.00 Ry     beta= 0.20
     Davidson diagonalization with overlap
     ethr =  1.67E-10,  avg # of iterations =  1.0

     negative rho (up, down):  1.103E-03 0.000E+00

     total cpu time spent up to now is      985.1 secs

     total energy              =     -59.88296386 Ry
     estimated scf accuracy    <          2.3E-09 Ry

     iteration #  8     ecut=    60.00 Ry     beta= 0.20
     Davidson diagonalization with overlap
     ethr =  2.30E-11,  avg # of iterations =  2.0

     negative rho (up, down):  1.122E-03 0.000E+00

     total cpu time spent up to now is      996.5 secs

     total energy              =     -59.88296390 Ry
     estimated scf accuracy    <          1.7E-09 Ry

     iteration #  9     ecut=    60.00 Ry     beta= 0.20
     Davidson diagonalization with overlap
     ethr =  1.75E-11,  avg # of iterations =  2.0

     negative rho (up, down):  1.127E-03 0.000E+00

     total cpu time spent up to now is     1008.4 secs

     total energy              =     -59.88296404 Ry
     estimated scf accuracy    <          1.0E-09 Ry

     iteration # 10     ecut=    60.00 Ry     beta= 0.20
     Davidson diagonalization with overlap
     ethr =  1.02E-11,  avg # of iterations =  2.0

     negative rho (up, down):  1.127E-03 0.000E+00

     total cpu time spent up to now is     1019.6 secs

     End of self-consistent calculation

          k = 0.0000 0.0000 0.0000 (178925 PWs)   bands (ev):

   -29.2521 -14.1086 -11.8257 -11.8257  -9.1053  -2.1551  -2.1551  -0.3382
     0.1913

     the Fermi energy is    -6.4892 ev

!    total energy              =     -59.88296404 Ry
     total all-electron energy =      -226.493954 Ry
     estimated scf accuracy    <          3.1E-10 Ry
     smearing contrib. (-TS)   =       0.00000000 Ry
     internal energy E=F+TS    =     -59.88296404 Ry

     The total energy is F=E-TS. E is the sum of the following terms:
     one-electron contribution =     -92.50112691 Ry
     hartree contribution      =      47.52583778 Ry
     xc contribution           =     -11.70738936 Ry
     ewald contribution        =      12.35678461 Ry
     one-center paw contrib.   =     -15.55707016 Ry

     convergence has been achieved in  10 iterations

     negative rho (up, down):  1.127E-03 0.000E+00

     Forces acting on atoms (cartesian axes, Ry/au):

     atom    1 type  1   force =     0.00000000    0.00000000    0.00030552
     atom    2 type  2   force =     0.00000000    0.00000000   -0.00030552

     Total force =     0.000432     Total SCF correction =     0.000022


     Computing stress (Cartesian axis) and pressure


     negative rho (up, down):  1.127E-03 0.000E+00
          total   stress  (Ry/bohr**3)                   (kbar)     P=       -0.02
  -0.00000013   0.00000000   0.00000000           -0.02        0.00        0.00
   0.00000000  -0.00000013   0.00000000            0.00       -0.02        0.00
   0.00000000   0.00000000  -0.00000017            0.00        0.00       -0.03

     Energy error            =      7.6E-06 Ry
     Gradient error          =      3.1E-04 Ry/Bohr

     number of scf cycles    =   4
     number of bfgs steps    =   2

     energy             old  =     -59.8829564340 Ry
     energy             new  =     -59.8829640360 Ry

     CASE: energy            _new < energy            _old

     small trust_radius: resetting bfgs history

     new trust radius        =       0.0001000000 bohr
     new conv_thr            =            1.0E-11 Ry


ATOMIC_POSITIONS (angstrom)
O                7.5000000000        7.5000000000        8.0684037419
C                7.5000000000        7.5000000000        6.9315962581



     Writing config-only to output data dir ./outdir/gas_co.save/ :
     XML data file
     NEW-OLD atomic charge density approx. for the potential

     negative rho (up, down):  1.127E-03 0.000E+00

     total cpu time spent up to now is     1107.6 secs

     Self-consistent Calculation

     iteration #  1     ecut=    60.00 Ry     beta= 0.20
     Davidson diagonalization with overlap
     ethr =  1.00E-06,  avg # of iterations =  2.0

     Threshold (ethr) on eigenvalues was too large:
     Diagonalizing with lowered threshold

     Davidson diagonalization with overlap
     ethr =  1.74E-10,  avg # of iterations =  1.0

     negative rho (up, down):  1.128E-03 0.000E+00

     total cpu time spent up to now is     1119.0 secs

     total energy              =     -59.88296405 Ry
     estimated scf accuracy    <       0.00000002 Ry

     iteration #  2     ecut=    60.00 Ry     beta= 0.20
     Davidson diagonalization with overlap
     ethr =  1.88E-10,  avg # of iterations =  1.0

     negative rho (up, down):  1.134E-03 0.000E+00

     total cpu time spent up to now is     1130.2 secs

     total energy              =     -59.88296399 Ry
     estimated scf accuracy    <       0.00000001 Ry

     iteration #  3     ecut=    60.00 Ry     beta= 0.20
     Davidson diagonalization with overlap
     ethr =  1.28E-10,  avg # of iterations =  2.0

     negative rho (up, down):  1.133E-03 0.000E+00

     total cpu time spent up to now is     1141.5 secs

     total energy              =     -59.88296401 Ry
     estimated scf accuracy    <          6.7E-10 Ry

     iteration #  4     ecut=    60.00 Ry     beta= 0.20
     Davidson diagonalization with overlap
     ethr =  6.71E-12,  avg # of iterations =  2.0

     negative rho (up, down):  1.133E-03 0.000E+00

     total cpu time spent up to now is     1153.2 secs

     total energy              =     -59.88296402 Ry
     estimated scf accuracy    <          3.6E-10 Ry

     iteration #  5     ecut=    60.00 Ry     beta= 0.20
     Davidson diagonalization with overlap
     ethr =  3.62E-12,  avg # of iterations =  1.0

     negative rho (up, down):  1.133E-03 0.000E+00

     total cpu time spent up to now is     1164.6 secs

     total energy              =     -59.88296405 Ry
     estimated scf accuracy    <          1.7E-10 Ry

     iteration #  6     ecut=    60.00 Ry     beta= 0.20
     Davidson diagonalization with overlap
     ethr =  1.69E-12,  avg # of iterations =  2.0

     negative rho (up, down):  1.132E-03 0.000E+00

     total cpu time spent up to now is     1176.0 secs

     total energy              =     -59.88296407 Ry
     estimated scf accuracy    <          5.1E-11 Ry

     iteration #  7     ecut=    60.00 Ry     beta= 0.20
     Davidson diagonalization with overlap
     ethr =  5.10E-13,  avg # of iterations =  2.0

     negative rho (up, down):  1.128E-03 0.000E+00

     total cpu time spent up to now is     1187.3 secs

     total energy              =     -59.88296408 Ry
     estimated scf accuracy    <          3.2E-11 Ry

     iteration #  8     ecut=    60.00 Ry     beta= 0.20
     Davidson diagonalization with overlap
     ethr =  3.16E-13,  avg # of iterations =  2.0

     negative rho (up, down):  1.127E-03 0.000E+00

     total cpu time spent up to now is     1199.0 secs

     total energy              =     -59.88296408 Ry
     estimated scf accuracy    <          1.0E-11 Ry

     iteration #  9     ecut=    60.00 Ry     beta= 0.20
     Davidson diagonalization with overlap
     ethr =  1.02E-13,  avg # of iterations =  2.0

     negative rho (up, down):  1.126E-03 0.000E+00

     total cpu time spent up to now is     1210.2 secs

     End of self-consistent calculation

          k = 0.0000 0.0000 0.0000 (178925 PWs)   bands (ev):

   -29.2504 -14.1085 -11.8247 -11.8247  -9.1055  -2.1560  -2.1560  -0.3382
     0.1913

     the Fermi energy is    -6.4889 ev

!    total energy              =     -59.88296406 Ry
     total all-electron energy =      -226.493954 Ry
     estimated scf accuracy    <          2.5E-12 Ry
     smearing contrib. (-TS)   =       0.00000000 Ry
     internal energy E=F+TS    =     -59.88296406 Ry

     The total energy is F=E-TS. E is the sum of the following terms:
     one-electron contribution =     -92.49752685 Ry
     hartree contribution      =      47.52409489 Ry
     xc contribution           =     -11.70716790 Ry
     ewald contribution        =      12.35470810 Ry
     one-center paw contrib.   =     -15.55707231 Ry

     convergence has been achieved in   9 iterations

     negative rho (up, down):  1.126E-03 0.000E+00

     Forces acting on atoms (cartesian axes, Ry/au):

     atom    1 type  1   force =     0.00000000    0.00000000   -0.00017027
     atom    2 type  2   force =     0.00000000    0.00000000    0.00017027

     Total force =     0.000241     Total SCF correction =     0.000001


     Computing stress (Cartesian axis) and pressure


     negative rho (up, down):  1.126E-03 0.000E+00
          total   stress  (Ry/bohr**3)                   (kbar)     P=       -0.02
  -0.00000013   0.00000000   0.00000000           -0.02        0.00        0.00
   0.00000000  -0.00000013   0.00000000            0.00       -0.02        0.00
   0.00000000   0.00000000  -0.00000022            0.00        0.00       -0.03

     Energy error            =      2.7E-08 Ry
     Gradient error          =      1.7E-04 Ry/Bohr

     number of scf cycles    =   5
     number of bfgs steps    =   3

     energy             old  =     -59.8829640360 Ry
     energy             new  =     -59.8829640628 Ry

     CASE: energy            _new < energy            _old

     Message from routine bfgs :: compute_trust_radius:
     history already reset at previous step: stopping
     small trust_radius: resetting bfgs history

     new trust radius        =       0.0001000000 bohr
     new conv_thr            =            1.0E-11 Ry


ATOMIC_POSITIONS (angstrom)
O                7.5000000000        7.5000000000        8.0683508242
C                7.5000000000        7.5000000000        6.9316491758



     Writing config-only to output data dir ./outdir/gas_co.save/ :
     XML data file
     NEW-OLD atomic charge density approx. for the potential

     negative rho (up, down):  1.126E-03 0.000E+00

     total cpu time spent up to now is     1298.5 secs

     Self-consistent Calculation

     iteration #  1     ecut=    60.00 Ry     beta= 0.20
     Davidson diagonalization with overlap
     ethr =  1.00E-06,  avg # of iterations =  2.0

     Threshold (ethr) on eigenvalues was too large:
     Diagonalizing with lowered threshold

     Davidson diagonalization with overlap
     ethr =  1.83E-10,  avg # of iterations =  1.0

     negative rho (up, down):  1.125E-03 0.000E+00

     total cpu time spent up to now is     1310.2 secs

     total energy              =     -59.88296406 Ry
     estimated scf accuracy    <       0.00000002 Ry

     iteration #  2     ecut=    60.00 Ry     beta= 0.20
     Davidson diagonalization with overlap
     ethr =  1.98E-10,  avg # of iterations =  1.0

     negative rho (up, down):  1.120E-03 0.000E+00

     total cpu time spent up to now is     1321.4 secs

     total energy              =     -59.88296409 Ry
     estimated scf accuracy    <       0.00000001 Ry

     iteration #  3     ecut=    60.00 Ry     beta= 0.20
     Davidson diagonalization with overlap
     ethr =  1.34E-10,  avg # of iterations =  2.0

     negative rho (up, down):  1.120E-03 0.000E+00

     total cpu time spent up to now is     1332.8 secs

     total energy              =     -59.88296408 Ry
     estimated scf accuracy    <          1.3E-09 Ry

     iteration #  4     ecut=    60.00 Ry     beta= 0.20
     Davidson diagonalization with overlap
     ethr =  1.30E-11,  avg # of iterations =  1.0

     negative rho (up, down):  1.120E-03 0.000E+00

     total cpu time spent up to now is     1344.1 secs

     total energy              =     -59.88296408 Ry
     estimated scf accuracy    <          6.5E-10 Ry

     iteration #  5     ecut=    60.00 Ry     beta= 0.20
     Davidson diagonalization with overlap
     ethr =  6.52E-12,  avg # of iterations =  1.0

     negative rho (up, down):  1.120E-03 0.000E+00

     total cpu time spent up to now is     1355.5 secs

     total energy              =     -59.88296407 Ry
     estimated scf accuracy    <          1.9E-10 Ry

     iteration #  6     ecut=    60.00 Ry     beta= 0.20
     Davidson diagonalization with overlap
     ethr =  1.94E-12,  avg # of iterations =  2.0

     negative rho (up, down):  1.121E-03 0.000E+00

     total cpu time spent up to now is     1366.9 secs

     total energy              =     -59.88296404 Ry
     estimated scf accuracy    <          8.8E-11 Ry

     iteration #  7     ecut=    60.00 Ry     beta= 0.20
     Davidson diagonalization with overlap
     ethr =  8.83E-13,  avg # of iterations =  2.0

     negative rho (up, down):  1.124E-03 0.000E+00

     total cpu time spent up to now is     1378.5 secs

     total energy              =     -59.88296402 Ry
     estimated scf accuracy    <          2.5E-11 Ry

     iteration #  8     ecut=    60.00 Ry     beta= 0.20
     Davidson diagonalization with overlap
     ethr =  2.54E-13,  avg # of iterations =  2.0

     negative rho (up, down):  1.126E-03 0.000E+00

     total cpu time spent up to now is     1390.3 secs

     total energy              =     -59.88296402 Ry
     estimated scf accuracy    <          2.9E-11 Ry

     iteration #  9     ecut=    60.00 Ry     beta= 0.20
     Davidson diagonalization with overlap
     ethr =  2.54E-13,  avg # of iterations =  2.0

     negative rho (up, down):  1.127E-03 0.000E+00

     total cpu time spent up to now is     1401.9 secs

     End of self-consistent calculation

          k = 0.0000 0.0000 0.0000 (178925 PWs)   bands (ev):

   -29.2520 -14.1085 -11.8257 -11.8257  -9.1053  -2.1550  -2.1550  -0.3382
     0.1913

     the Fermi energy is    -6.4892 ev

!    total energy              =     -59.88296403 Ry
     total all-electron energy =      -226.493954 Ry
     estimated scf accuracy    <          4.8E-12 Ry
     smearing contrib. (-TS)   =       0.00000000 Ry
     internal energy E=F+TS    =     -59.88296403 Ry

     The total energy is F=E-TS. E is the sum of the following terms:
     one-electron contribution =     -92.50106809 Ry
     hartree contribution      =      47.52576730 Ry
     xc contribution           =     -11.70737762 Ry
     ewald contribution        =      12.35678461 Ry
     one-center paw contrib.   =     -15.55707024 Ry

     convergence has been achieved in   9 iterations

     negative rho (up, down):  1.127E-03 0.000E+00

     Forces acting on atoms (cartesian axes, Ry/au):

     atom    1 type  1   force =     0.00000000    0.00000000    0.00030280
     atom    2 type  2   force =     0.00000000    0.00000000   -0.00030280

     Total force =     0.000428     Total SCF correction =     0.000004


     Computing stress (Cartesian axis) and pressure


     negative rho (up, down):  1.127E-03 0.000E+00
          total   stress  (Ry/bohr**3)                   (kbar)     P=       -0.02
  -0.00000013   0.00000000   0.00000000           -0.02        0.00        0.00
   0.00000000  -0.00000013   0.00000000            0.00       -0.02        0.00
   0.00000000   0.00000000  -0.00000017            0.00        0.00       -0.03

     Message from routine bfgs:
     history already reset at previous step: exiting
     Energy error            =      3.0E-08 Ry
     Gradient error          =      3.0E-04 Ry/Bohr

     bfgs failed after   6 scf cycles and   4 bfgs steps, convergence not achieved
     (criteria: energy <  1.0E-05 Ry, force <  1.0E-04 Ry/Bohr)

     End of BFGS Geometry Optimization

     Final energy             =     -59.8829640326 Ry

     File ./outdir/gas_co.bfgs deleted, as requested
Begin final coordinates

ATOMIC_POSITIONS (angstrom)
O                7.5000000000        7.5000000000        8.0683508242
C                7.5000000000        7.5000000000        6.9316491758
End final coordinates



     Writing all to output data dir ./outdir/gas_co.save/ :
     XML data file, charge density, pseudopotentials, collected wavefunctions
 
     init_run     :    215.72s CPU     34.60s WALL (       1 calls)
     electrons    :   2513.86s CPU    923.71s WALL (       6 calls)
     update_pot   :    153.50s CPU     53.48s WALL (       5 calls)
     forces       :    184.22s CPU     65.28s WALL (       6 calls)
     stress       :    618.31s CPU    401.03s WALL (       6 calls)

     Called by init_run:
     wfcinit      :      0.08s CPU      0.20s WALL (       1 calls)
     potinit      :    212.56s CPU     30.97s WALL (       1 calls)
     hinit0       :      0.60s CPU      0.51s WALL (       1 calls)

     Called by electrons:
     c_bands      :     17.63s CPU     17.55s WALL (      82 calls)
     sum_band     :     18.91s CPU     19.01s WALL (      82 calls)
     v_of_rho     :   2709.86s CPU    937.24s WALL (      85 calls)
     newd         :      3.70s CPU      3.71s WALL (      85 calls)
     PAW_pot      :     17.05s CPU      0.92s WALL (      90 calls)
     mix_rho      :     16.67s CPU     15.00s WALL (      82 calls)
     vdW_kernel   :     12.54s CPU     12.48s WALL (       1 calls)

     Called by c_bands:
     init_us_2    :      0.08s CPU      0.06s WALL (     176 calls)
     cegterg      :     17.52s CPU     17.45s WALL (      82 calls)

     Called by *egterg:
     cdiaghg      :      0.17s CPU      0.20s WALL (     294 calls)
                                        0.20s GPU  (     294 calls)
     h_psi        :      1.80s CPU      1.85s WALL (     303 calls)
     s_psi        :      0.09s CPU      0.09s WALL (     303 calls)
     g_psi        :      0.01s CPU      0.01s WALL (     220 calls)

     Called by h_psi:
     h_psi:calbec :      0.06s CPU      0.15s WALL (     303 calls)
     vloc_psi     :      1.53s CPU      1.49s WALL (     303 calls)
                                        1.49s GPU  (     303 calls)
     add_vuspsi   :      0.20s CPU      0.20s WALL (     303 calls)

     General routines
     calbec       :      0.07s CPU      0.16s WALL (     492 calls)
     fft          :   2522.19s CPU    116.30s WALL (    6365 calls)
                                        2.23s GPU  (    1166 calls)
     ffts         :     47.29s CPU      5.46s WALL (    9146 calls)
                                        3.18s GPU  (    9061 calls)
     fftw         :      0.01s CPU      1.49s WALL (     688 calls)
                                        1.48s GPU  (     688 calls)
     interpolate  :     91.61s CPU      8.43s WALL (      85 calls)
 
 
     PWSCF        :      1h 1m CPU  24m39.27s WALL

 
   This run was terminated on:  20:48:25  28Jun2026            

=------------------------------------------------------------------------------=
   JOB DONE.
=------------------------------------------------------------------------------=
