
     Program PWSCF v.7.5 starts on 28Jun2026 at 21:18:41 

     This program is part of the open-source Quantum ESPRESSO suite
     for quantum simulation of materials; please cite
         "P. Giannozzi et al., J. Phys.:Condens. Matter 21 395502 (2009);
         "P. Giannozzi et al., J. Phys.:Condens. Matter 29 465901 (2017);
         "P. Giannozzi et al., J. Chem. Phys. 152 154105 (2020);
          URL http://www.quantum-espresso.org", 
     in publications or presentations arising from this work. More details at
     http://www.quantum-espresso.org/quote

     Serial multi-threaded version, running on   32 processor cores
     42122 MiB available memory on the printing compute node when the environment starts
 
     Reading input from inputs/gas_h2s.in

     Current dimensions of program PWSCF are:
     Max number of different atomic species (ntypx) = 10
     Max number of k-points (npk) =  40000
     Max angular momentum in pseudopotentials (lmaxx) =  4

     IMPORTANT: XC functional enforced from input :
     Exchange-correlation= VDW-DF2-B86R
                           (   1   4  26   0   2   0   0)
     Any further DFT definition will be discarded
     Please, verify this is what you really want

     Message from routine setup:
     using ibrav=0 with symmetry is DISCOURAGED, use correct ibrav instead
 
 
     G-vector sticks info
     --------------------
     sticks:   dense  smooth     PW     G-vecs:    dense   smooth      PW
     Sum       38393   15329   3833              5653693  1429635  178925
 
     Using Slab Decomposition
 


     bravais-lattice index     =            0
     lattice parameter (alat)  =      28.3459  a.u.
     unit-cell volume          =   22775.6289 (a.u.)^3
     number of atoms/cell      =            3
     number of atomic types    =            2
     number of electrons       =         8.00
     number of Kohn-Sham states=            8
     kinetic-energy cutoff     =      60.0000  Ry
     charge density cutoff     =     600.0000  Ry
     scf convergence threshold =      1.0E-09
     mixing beta               =       0.2000
     number of iterations used =            8  local-TF  mixing
     energy convergence thresh.=      1.0E-05
     force convergence thresh. =      1.0E-04
     Exchange-correlation= VDW-DF2-B86R
                           (   1   4  26   0   2   0   0)
     nstep                     =          200


     GPU acceleration is ACTIVE.  1 visible GPUs per MPI rank


     celldm(1)=  28.345892  celldm(2)=   0.000000  celldm(3)=   0.000000
     celldm(4)=   0.000000  celldm(5)=   0.000000  celldm(6)=   0.000000

     crystal axes: (cart. coord. in units of alat)
               a(1) = (   1.000000   0.000000   0.000000 )  
               a(2) = (   0.000000   1.000000   0.000000 )  
               a(3) = (   0.000000   0.000000   1.000000 )  

     reciprocal axes: (cart. coord. in units 2 pi/alat)
               b(1) = (  1.000000  0.000000  0.000000 )  
               b(2) = (  0.000000  1.000000  0.000000 )  
               b(3) = (  0.000000  0.000000  1.000000 )  


     PseudoPot. # 1 for S  read from file:
     /home/x/Workspace/3-hEspesso/pseudo/s_pbe_v1.4.uspp.F.UPF
     MD5 check sum: 88d86576ff6df21479756cfb9bdac1df
     Pseudo is Ultrasoft + core correction, Zval =  6.0
     Generated by new atomic code, or converted to UPF format
     Using radial grid of  907 points,  6 beta functions with: 
                l(1) =   0
                l(2) =   0
                l(3) =   1
                l(4) =   1
                l(5) =   2
                l(6) =   2
     Q(r) pseudized with  8 coefficients,  rinner =    1.300   1.300   1.300
                                                       1.300   1.300

     PseudoPot. # 2 for H  read from file:
     /home/x/Workspace/3-hEspesso/pseudo/H.pbe-rrkjus_psl.1.0.0.UPF
     MD5 check sum: f52b6d4d1c606e5624b1dc7b2218f220
     Pseudo is Ultrasoft, Zval =  1.0
     Generated using "atomic" code by A. Dal Corso  v.5.1
     Using radial grid of  929 points,  2 beta functions with: 
                l(1) =   0
                l(2) =   0
     Q(r) pseudized with 0 coefficients 


     atomic species   valence    mass     pseudopotential
     S                 6.00    32.06000     S ( 1.00)
     H                 1.00     1.00800     H ( 1.00)

      4 Sym. Ops. (no inversion) found



   Cartesian axes

     site n.     atom                  positions (alat units)
         1        S      tau(   1) = (   0.5000000   0.5000000   0.4690000  )
         2        H      tau(   2) = (   0.5643152   0.5000000   0.5310000  )
         3        H      tau(   3) = (   0.4356848   0.5000000   0.5310000  )

     number of k points=     1  Marzari-Vanderbilt smearing, width (Ry)=  0.0100
                       cart. coord. in units 2pi/alat
        k(    1) = (   0.0000000   0.0000000   0.0000000), wk =   2.0000000

     Dense  grid:  5653693 G-vectors     FFT dimensions: ( 225, 225, 225)

     Smooth grid:  1429635 G-vectors     FFT dimensions: ( 144, 144, 144)

     Estimated max dynamical RAM per process >      20.21 GB

     Initial potential from superposition of free atoms

     starting charge       7.9999, renormalised to       8.0000

     negative rho (up, down):  1.824E-04 0.000E+00


     %%%%%%%%%%%%%%%%%%%%%%%%%%%%%%%%%%%%%%%%%%%%%%%%%%%%%%%%%%%%%%%%%%%%%%%%
     %                                                                      %
     % You are using vdW-DF, which was implemented by the Thonhauser group. %
     % Please cite the following two papers that made this development      %
     % possible and the two reviews that describe the various versions:     %
     %                                                                      %
     %   T. Thonhauser et al., PRL 115, 136402 (2015).                      %
     %   T. Thonhauser et al., PRB 76, 125112 (2007).                       %
     %   K. Berland et al., Rep. Prog. Phys. 78, 066501 (2015).             %
     %   D.C. Langreth et al., J. Phys.: Condens. Matter 21, 084203 (2009). %
     %                                                                      %
     % If you are calculating stress with vdW-DF, please also cite:         %
     %                                                                      %
     %   R. Sabatini et al., J. Phys.: Condens. Matter 24, 424209 (2012).   %
     %                                                                      %
     %%%%%%%%%%%%%%%%%%%%%%%%%%%%%%%%%%%%%%%%%%%%%%%%%%%%%%%%%%%%%%%%%%%%%%%%

     %%%%%%%%%%%%%%%%%%%%%%%%%%%%%%%%%%%%%%%%%%%%%%%%%%%%%%%%%%%%%%%%%%%%%%%%
     %                                                                      %
     %  vdW-DF NEWS:                                                        %
     %                                                                      %
     %  * vdW-DF3 is now available. DOI: 10.1021/acs.jctc.0c00471           %
     %    use with input_dft = 'vdW-DF3-opt1' or 'vdW-DF3-opt2'             %
     %                                                                      %
     %  * Unscreened and range-separated hybrid vdW-DF-cx functionals       %
     %    DOI: 10.1063/1.4986522 and 10.1088/1361-648X/ac2ad2               %
     %    use with input_dft = 'vdW-DF-cx0'    and 'vdW-DF-ahcx'            %
     %  * Unscreened and range-separated hybrid vdW-DF2-b86r functionals    %
     %    DOI: 10.1063/1.4986522 and DOI: 10.1103/PhysRevX.12.041003        %
     %    use with input_dft = 'vdW-DF2-br0' and 'vdW-DF2-ahbr'             %
     %                                                                      %
     %%%%%%%%%%%%%%%%%%%%%%%%%%%%%%%%%%%%%%%%%%%%%%%%%%%%%%%%%%%%%%%%%%%%%%%%


     Starting wfcs are    6 randomized atomic wfcs +    2 random wfcs

     total cpu time spent up to now is       33.5 secs

     Self-consistent Calculation

     iteration #  1     ecut=    60.00 Ry     beta= 0.20
     Davidson diagonalization with overlap
     ethr =  1.00E-02,  avg # of iterations =  6.0

     negative rho (up, down):  3.262E-08 0.000E+00

     total cpu time spent up to now is       46.4 secs

     total energy              =     -26.51253883 Ry
     estimated scf accuracy    <       0.10374972 Ry

     iteration #  2     ecut=    60.00 Ry     beta= 0.20
     Davidson diagonalization with overlap
     ethr =  1.30E-03,  avg # of iterations =  1.0

     total cpu time spent up to now is       59.1 secs

     total energy              =     -26.47983359 Ry
     estimated scf accuracy    <       0.07750995 Ry

     iteration #  3     ecut=    60.00 Ry     beta= 0.20
     Davidson diagonalization with overlap
     ethr =  9.69E-04,  avg # of iterations =  2.0

     total cpu time spent up to now is       71.8 secs

     total energy              =     -26.48802220 Ry
     estimated scf accuracy    <       0.00482301 Ry

     iteration #  4     ecut=    60.00 Ry     beta= 0.20
     Davidson diagonalization with overlap
     ethr =  6.03E-05,  avg # of iterations = 10.0

     negative rho (up, down):  2.432E-07 0.000E+00

     total cpu time spent up to now is       84.5 secs

     total energy              =     -26.48638215 Ry
     estimated scf accuracy    <       0.00382370 Ry

     iteration #  5     ecut=    60.00 Ry     beta= 0.20
     Davidson diagonalization with overlap
     ethr =  4.78E-05,  avg # of iterations =  5.0

     total cpu time spent up to now is       98.1 secs

     total energy              =     -26.48677950 Ry
     estimated scf accuracy    <       0.00126394 Ry

     iteration #  6     ecut=    60.00 Ry     beta= 0.20
     Davidson diagonalization with overlap
     ethr =  1.58E-05,  avg # of iterations =  7.0

     negative rho (up, down):  3.831E-04 0.000E+00

     total cpu time spent up to now is      112.3 secs

     total energy              =     -26.48681498 Ry
     estimated scf accuracy    <       0.00126902 Ry

     iteration #  7     ecut=    60.00 Ry     beta= 0.20
     Davidson diagonalization with overlap
     ethr =  1.58E-05,  avg # of iterations =  2.0

     negative rho (up, down):  1.407E-02 0.000E+00

     total cpu time spent up to now is      124.8 secs

     total energy              =     -26.48553320 Ry
     estimated scf accuracy    <       0.00293236 Ry

     iteration #  8     ecut=    60.00 Ry     beta= 0.20
     Davidson diagonalization with overlap
     ethr =  1.58E-05,  avg # of iterations =  3.0

     negative rho (up, down):  1.699E-02 0.000E+00

     total cpu time spent up to now is      137.5 secs

     total energy              =     -26.48667966 Ry
     estimated scf accuracy    <       0.00047093 Ry

     iteration #  9     ecut=    60.00 Ry     beta= 0.20
     Davidson diagonalization with overlap
     ethr =  5.89E-06,  avg # of iterations =  7.0

     negative rho (up, down):  1.036E-02 0.000E+00

     total cpu time spent up to now is      150.1 secs

     total energy              =     -26.48683239 Ry
     estimated scf accuracy    <       0.00055681 Ry

     iteration # 10     ecut=    60.00 Ry     beta= 0.20
     Davidson diagonalization with overlap
     ethr =  5.89E-06,  avg # of iterations =  6.0

     negative rho (up, down):  8.991E-03 0.000E+00

     total cpu time spent up to now is      163.3 secs

     total energy              =     -26.48688888 Ry
     estimated scf accuracy    <       0.00005602 Ry

     iteration # 11     ecut=    60.00 Ry     beta= 0.20
     Davidson diagonalization with overlap
     ethr =  7.00E-07,  avg # of iterations =  5.0

     negative rho (up, down):  2.193E-03 0.000E+00

     total cpu time spent up to now is      176.0 secs

     total energy              =     -26.48684081 Ry
     estimated scf accuracy    <       0.00003159 Ry

     iteration # 12     ecut=    60.00 Ry     beta= 0.20
     Davidson diagonalization with overlap
     ethr =  3.95E-07,  avg # of iterations = 18.0

     negative rho (up, down):  1.904E-03 0.000E+00

     total cpu time spent up to now is      191.2 secs

     total energy              =     -26.48685281 Ry
     estimated scf accuracy    <       0.00000687 Ry

     iteration # 13     ecut=    60.00 Ry     beta= 0.20
     Davidson diagonalization with overlap
     ethr =  8.59E-08,  avg # of iterations =  1.0

     negative rho (up, down):  3.040E-04 0.000E+00

     total cpu time spent up to now is      203.1 secs

     total energy              =     -26.48684789 Ry
     estimated scf accuracy    <       0.00000526 Ry

     iteration # 14     ecut=    60.00 Ry     beta= 0.20
     Davidson diagonalization with overlap
     ethr =  6.57E-08,  avg # of iterations =  6.0

     negative rho (up, down):  1.641E-04 0.000E+00

     total cpu time spent up to now is      215.1 secs

     total energy              =     -26.48684847 Ry
     estimated scf accuracy    <       0.00000027 Ry

     iteration # 15     ecut=    60.00 Ry     beta= 0.20
     Davidson diagonalization with overlap
     ethr =  3.32E-09,  avg # of iterations =  7.0

     negative rho (up, down):  1.406E-04 0.000E+00

     total cpu time spent up to now is      228.5 secs

     total energy              =     -26.48685063 Ry
     estimated scf accuracy    <       0.00000017 Ry

     iteration # 16     ecut=    60.00 Ry     beta= 0.20
     Davidson diagonalization with overlap
     ethr =  2.16E-09,  avg # of iterations =  2.0

     negative rho (up, down):  1.516E-04 0.000E+00

     total cpu time spent up to now is      240.5 secs

     total energy              =     -26.48685086 Ry
     estimated scf accuracy    <       0.00000006 Ry

     iteration # 17     ecut=    60.00 Ry     beta= 0.20
     Davidson diagonalization with overlap
     ethr =  6.88E-10,  avg # of iterations =  1.0

     negative rho (up, down):  9.832E-05 0.000E+00

     total cpu time spent up to now is      252.2 secs

     total energy              =     -26.48684957 Ry
     estimated scf accuracy    <       0.00000004 Ry

     iteration # 18     ecut=    60.00 Ry     beta= 0.20
     Davidson diagonalization with overlap
     ethr =  4.61E-10,  avg # of iterations =  2.0

     negative rho (up, down):  3.897E-05 0.000E+00

     total cpu time spent up to now is      264.2 secs

     total energy              =     -26.48684930 Ry
     estimated scf accuracy    <       0.00000007 Ry

     iteration # 19     ecut=    60.00 Ry     beta= 0.20
     Davidson diagonalization with overlap
     ethr =  4.61E-10,  avg # of iterations =  2.0

     negative rho (up, down):  2.575E-05 0.000E+00

     total cpu time spent up to now is      276.1 secs

     total energy              =     -26.48684977 Ry
     estimated scf accuracy    <       0.00000003 Ry

     iteration # 20     ecut=    60.00 Ry     beta= 0.20
     Davidson diagonalization with overlap
     ethr =  3.76E-10,  avg # of iterations =  2.0

     negative rho (up, down):  1.921E-05 0.000E+00

     total cpu time spent up to now is      288.1 secs

     total energy              =     -26.48685052 Ry
     estimated scf accuracy    <       0.00000002 Ry

     iteration # 21     ecut=    60.00 Ry     beta= 0.20
     Davidson diagonalization with overlap
     ethr =  1.89E-10,  avg # of iterations =  2.0

     negative rho (up, down):  3.144E-05 0.000E+00

     total cpu time spent up to now is      300.0 secs

     total energy              =     -26.48685080 Ry
     estimated scf accuracy    <       0.00000001 Ry

     iteration # 22     ecut=    60.00 Ry     beta= 0.20
     Davidson diagonalization with overlap
     ethr =  1.25E-10,  avg # of iterations =  2.0

     negative rho (up, down):  3.944E-05 0.000E+00

     total cpu time spent up to now is      311.9 secs

     total energy              =     -26.48685079 Ry
     estimated scf accuracy    <          4.4E-09 Ry

     iteration # 23     ecut=    60.00 Ry     beta= 0.20
     Davidson diagonalization with overlap
     ethr =  5.48E-11,  avg # of iterations =  2.0

     negative rho (up, down):  5.480E-05 0.000E+00

     total cpu time spent up to now is      323.9 secs

     total energy              =     -26.48685045 Ry
     estimated scf accuracy    <          2.9E-09 Ry

     iteration # 24     ecut=    60.00 Ry     beta= 0.20
     Davidson diagonalization with overlap
     ethr =  3.64E-11,  avg # of iterations =  2.0

     negative rho (up, down):  5.911E-05 0.000E+00

     total cpu time spent up to now is      336.0 secs

     total energy              =     -26.48685037 Ry
     estimated scf accuracy    <          3.2E-09 Ry

     iteration # 25     ecut=    60.00 Ry     beta= 0.20
     Davidson diagonalization with overlap
     ethr =  3.64E-11,  avg # of iterations =  2.0

     negative rho (up, down):  5.764E-05 0.000E+00

     total cpu time spent up to now is      347.7 secs

     End of self-consistent calculation

          k = 0.0000 0.0000 0.0000 (178925 PWs)   bands (ev):

   -18.5743 -11.0085  -9.0712  -6.2721  -1.0054  -0.6742   0.0708   0.3267

     the Fermi energy is    -3.7183 ev

!    total energy              =     -26.48685058 Ry
     estimated scf accuracy    <          3.8E-10 Ry
     smearing contrib. (-TS)   =       0.00000000 Ry
     internal energy E=F+TS    =     -26.48685058 Ry

     The total energy is F=E-TS. E is the sum of the following terms:
     one-electron contribution =     -41.89191826 Ry
     hartree contribution      =      21.56801828 Ry
     xc contribution           =      -9.79977661 Ry
     ewald contribution        =       3.63682602 Ry

     convergence has been achieved in  25 iterations

     negative rho (up, down):  5.764E-05 0.000E+00

     Forces acting on atoms (cartesian axes, Ry/au):

     atom    1 type  1   force =     0.00000000    0.00000000   -0.01795219
     atom    2 type  2   force =     0.00852662    0.00000000    0.00897610
     atom    3 type  2   force =    -0.00852662    0.00000000    0.00897610

     Total force =     0.025076     Total SCF correction =     0.000006


     Computing stress (Cartesian axis) and pressure


     negative rho (up, down):  5.764E-05 0.000E+00
          total   stress  (Ry/bohr**3)                   (kbar)     P=        0.14
   0.00000137   0.00000000   0.00000000            0.20        0.00        0.00
   0.00000000   0.00000001   0.00000000            0.00        0.00        0.00
   0.00000000   0.00000000   0.00000139            0.00        0.00        0.20


     BFGS Geometry Optimization
     Energy error            =      6.3E-04 Ry
     Gradient error          =      1.8E-02 Ry/Bohr

     number of scf cycles    =   1
     number of bfgs steps    =   0

     energy             new  =     -26.4868505764 Ry

     new trust radius        =       0.0179521916 bohr
     new conv_thr            =       0.0000000010 Ry


ATOMIC_POSITIONS (angstrom)
S                7.5000000000        7.5000000000        7.0254997657
H                8.4692393739        7.5000000000        7.9697502889
H                6.5307606261        7.5000000000        7.9697502889



     Writing config-only to output data dir ./outdir/gas_h2s.save/ :
     XML data file
     NEW-OLD atomic charge density approx. for the potential

     negative rho (up, down):  6.959E-05 0.000E+00

     total cpu time spent up to now is      441.6 secs

     Self-consistent Calculation

     iteration #  1     ecut=    60.00 Ry     beta= 0.20
     Davidson diagonalization with overlap
     ethr =  1.00E-06,  avg # of iterations =  5.0

     negative rho (up, down):  1.290E-04 0.000E+00

     total cpu time spent up to now is      453.4 secs

     total energy              =     -26.48715888 Ry
     estimated scf accuracy    <       0.00007083 Ry

     iteration #  2     ecut=    60.00 Ry     beta= 0.20
     Davidson diagonalization with overlap
     ethr =  8.85E-07,  avg # of iterations =  2.0

     negative rho (up, down):  5.641E-04 0.000E+00

     total cpu time spent up to now is      464.8 secs

     total energy              =     -26.48713769 Ry
     estimated scf accuracy    <       0.00004706 Ry

     iteration #  3     ecut=    60.00 Ry     beta= 0.20
     Davidson diagonalization with overlap
     ethr =  5.88E-07,  avg # of iterations =  2.0

     negative rho (up, down):  5.143E-04 0.000E+00

     total cpu time spent up to now is      476.2 secs

     total energy              =     -26.48714637 Ry
     estimated scf accuracy    <       0.00000173 Ry

     iteration #  4     ecut=    60.00 Ry     beta= 0.20
     Davidson diagonalization with overlap
     ethr =  2.16E-08,  avg # of iterations =  2.0

     negative rho (up, down):  4.279E-04 0.000E+00

     total cpu time spent up to now is      487.9 secs

     total energy              =     -26.48714810 Ry
     estimated scf accuracy    <       0.00000080 Ry

     iteration #  5     ecut=    60.00 Ry     beta= 0.20
     Davidson diagonalization with overlap
     ethr =  1.01E-08,  avg # of iterations =  2.0

     negative rho (up, down):  3.947E-04 0.000E+00

     total cpu time spent up to now is      499.2 secs

     total energy              =     -26.48714783 Ry
     estimated scf accuracy    <       0.00000013 Ry

     iteration #  6     ecut=    60.00 Ry     beta= 0.20
     Davidson diagonalization with overlap
     ethr =  1.61E-09,  avg # of iterations =  2.0

     negative rho (up, down):  2.406E-04 0.000E+00

     total cpu time spent up to now is      510.9 secs

     total energy              =     -26.48714763 Ry
     estimated scf accuracy    <       0.00000008 Ry

     iteration #  7     ecut=    60.00 Ry     beta= 0.20
     Davidson diagonalization with overlap
     ethr =  1.01E-09,  avg # of iterations =  1.0

     negative rho (up, down):  1.296E-04 0.000E+00

     total cpu time spent up to now is      522.8 secs

     total energy              =     -26.48714776 Ry
     estimated scf accuracy    <       0.00000003 Ry

     iteration #  8     ecut=    60.00 Ry     beta= 0.20
     Davidson diagonalization with overlap
     ethr =  3.93E-10,  avg # of iterations =  2.0

     negative rho (up, down):  1.179E-04 0.000E+00

     total cpu time spent up to now is      534.6 secs

     total energy              =     -26.48714752 Ry
     estimated scf accuracy    <          6.6E-09 Ry

     iteration #  9     ecut=    60.00 Ry     beta= 0.20
     Davidson diagonalization with overlap
     ethr =  8.25E-11,  avg # of iterations =  2.0

     negative rho (up, down):  7.052E-05 0.000E+00

     total cpu time spent up to now is      546.8 secs

     total energy              =     -26.48714708 Ry
     estimated scf accuracy    <          5.1E-09 Ry

     iteration # 10     ecut=    60.00 Ry     beta= 0.20
     Davidson diagonalization with overlap
     ethr =  6.37E-11,  avg # of iterations =  2.0

     negative rho (up, down):  5.976E-05 0.000E+00

     total cpu time spent up to now is      558.7 secs

     total energy              =     -26.48714714 Ry
     estimated scf accuracy    <          1.6E-09 Ry

     iteration # 11     ecut=    60.00 Ry     beta= 0.20
     Davidson diagonalization with overlap
     ethr =  1.99E-11,  avg # of iterations =  1.0

     negative rho (up, down):  5.668E-05 0.000E+00

     total cpu time spent up to now is      570.5 secs

     End of self-consistent calculation

          k = 0.0000 0.0000 0.0000 (178925 PWs)   bands (ev):

   -18.5066 -10.9159  -9.0865  -6.2664  -1.0369  -0.7528   0.0658   0.3284

     the Fermi energy is    -3.7001 ev

!    total energy              =     -26.48714715 Ry
     estimated scf accuracy    <          6.2E-10 Ry
     smearing contrib. (-TS)   =       0.00000000 Ry
     internal energy E=F+TS    =     -26.48714715 Ry

     The total energy is F=E-TS. E is the sum of the following terms:
     one-electron contribution =     -41.73672997 Ry
     hartree contribution      =      21.49189536 Ry
     xc contribution           =      -9.78473169 Ry
     ewald contribution        =       3.54241916 Ry

     convergence has been achieved in  11 iterations

     negative rho (up, down):  5.668E-05 0.000E+00

     Forces acting on atoms (cartesian axes, Ry/au):

     atom    1 type  1   force =     0.00000000    0.00000000    0.00122055
     atom    2 type  2   force =     0.00010321    0.00000000   -0.00061027
     atom    3 type  2   force =    -0.00010321    0.00000000   -0.00061027

     Total force =     0.001502     Total SCF correction =     0.000040


     Computing stress (Cartesian axis) and pressure


     negative rho (up, down):  5.668E-05 0.000E+00
          total   stress  (Ry/bohr**3)                   (kbar)     P=       -0.00
   0.00000003   0.00000000   0.00000000            0.00        0.00        0.00
   0.00000000   0.00000001   0.00000000            0.00        0.00        0.00
   0.00000000   0.00000000  -0.00000009            0.00        0.00       -0.01

     Energy error            =      3.0E-04 Ry
     Gradient error          =      1.2E-03 Ry/Bohr

     number of scf cycles    =   2
     number of bfgs steps    =   1

     energy             old  =     -26.4868505764 Ry
     energy             new  =     -26.4871471509 Ry

     CASE: energy            _new < energy            _old

     new trust radius        =       0.0011444263 bohr
     new conv_thr            =       0.0000000001 Ry


ATOMIC_POSITIONS (angstrom)
S                7.5000000000        7.5000000000        7.0261053701
H                8.4692960876        7.5000000000        7.9694474868
H                6.5307039124        7.5000000000        7.9694474868



     Writing config-only to output data dir ./outdir/gas_h2s.save/ :
     XML data file
     NEW-OLD atomic charge density approx. for the potential

     negative rho (up, down):  5.668E-05 0.000E+00

     total cpu time spent up to now is      663.8 secs

     Self-consistent Calculation

     iteration #  1     ecut=    60.00 Ry     beta= 0.20
     Davidson diagonalization with overlap
     ethr =  1.00E-06,  avg # of iterations =  2.0

     Threshold (ethr) on eigenvalues was too large:
     Diagonalizing with lowered threshold

     Davidson diagonalization with overlap
     ethr =  1.96E-09,  avg # of iterations =  4.0

     negative rho (up, down):  5.387E-05 0.000E+00

     total cpu time spent up to now is      676.0 secs

     total energy              =     -26.48714847 Ry
     estimated scf accuracy    <       0.00000013 Ry

     iteration #  2     ecut=    60.00 Ry     beta= 0.20
     Davidson diagonalization with overlap
     ethr =  1.58E-09,  avg # of iterations =  1.0

     negative rho (up, down):  4.264E-05 0.000E+00

     total cpu time spent up to now is      687.9 secs

     total energy              =     -26.48714857 Ry
     estimated scf accuracy    <       0.00000009 Ry

     iteration #  3     ecut=    60.00 Ry     beta= 0.20
     Davidson diagonalization with overlap
     ethr =  1.09E-09,  avg # of iterations =  2.0

     negative rho (up, down):  4.334E-05 0.000E+00

     total cpu time spent up to now is      699.9 secs

     total energy              =     -26.48714849 Ry
     estimated scf accuracy    <          6.0E-09 Ry

     iteration #  4     ecut=    60.00 Ry     beta= 0.20
     Davidson diagonalization with overlap
     ethr =  7.44E-11,  avg # of iterations =  1.0

     negative rho (up, down):  4.547E-05 0.000E+00

     total cpu time spent up to now is      711.8 secs

     total energy              =     -26.48714834 Ry
     estimated scf accuracy    <          3.3E-09 Ry

     iteration #  5     ecut=    60.00 Ry     beta= 0.20
     Davidson diagonalization with overlap
     ethr =  4.11E-11,  avg # of iterations =  2.0

     negative rho (up, down):  4.707E-05 0.000E+00

     total cpu time spent up to now is      723.9 secs

     total energy              =     -26.48714836 Ry
     estimated scf accuracy    <          4.8E-10 Ry

     iteration #  6     ecut=    60.00 Ry     beta= 0.20
     Davidson diagonalization with overlap
     ethr =  6.05E-12,  avg # of iterations =  2.0

     negative rho (up, down):  5.453E-05 0.000E+00

     total cpu time spent up to now is      735.8 secs

     total energy              =     -26.48714841 Ry
     estimated scf accuracy    <          2.8E-10 Ry

     iteration #  7     ecut=    60.00 Ry     beta= 0.20
     Davidson diagonalization with overlap
     ethr =  3.54E-12,  avg # of iterations =  2.0

     negative rho (up, down):  5.673E-05 0.000E+00

     total cpu time spent up to now is      747.5 secs

     End of self-consistent calculation

          k = 0.0000 0.0000 0.0000 (178925 PWs)   bands (ev):

   -18.5096 -10.9216  -9.0846  -6.2667  -1.0356  -0.7486   0.0658   0.3281

     the Fermi energy is    -3.7010 ev

!    total energy              =     -26.48714844 Ry
     estimated scf accuracy    <          1.0E-10 Ry
     smearing contrib. (-TS)   =       0.00000000 Ry
     internal energy E=F+TS    =     -26.48714844 Ry

     The total energy is F=E-TS. E is the sum of the following terms:
     one-electron contribution =     -41.74338357 Ry
     hartree contribution      =      21.49514029 Ry
     xc contribution           =      -9.78539573 Ry
     ewald contribution        =       3.54649056 Ry

     convergence has been achieved in   7 iterations

     negative rho (up, down):  5.673E-05 0.000E+00

     Forces acting on atoms (cartesian axes, Ry/au):

     atom    1 type  1   force =     0.00000000    0.00000000    0.00028950
     atom    2 type  2   force =     0.00041083    0.00000000   -0.00014475
     atom    3 type  2   force =    -0.00041083    0.00000000   -0.00014475

     Total force =     0.000681     Total SCF correction =     0.000006


     Computing stress (Cartesian axis) and pressure


     negative rho (up, down):  5.673E-05 0.000E+00
          total   stress  (Ry/bohr**3)                   (kbar)     P=        0.00
   0.00000008   0.00000000   0.00000000            0.01        0.00        0.00
   0.00000000   0.00000001   0.00000000            0.00        0.00        0.00
   0.00000000   0.00000000  -0.00000002            0.00        0.00       -0.00

     Energy error            =      1.3E-06 Ry
     Gradient error          =      4.1E-04 Ry/Bohr

     number of scf cycles    =   3
     number of bfgs steps    =   2

     energy             old  =     -26.4871471509 Ry
     energy             new  =     -26.4871484423 Ry

     CASE: energy            _new < energy            _old

     new trust radius        =       0.0006970773 bohr
     new conv_thr            =            1.0E-11 Ry


ATOMIC_POSITIONS (angstrom)
S                7.5000000000        7.5000000000        7.0264685036
H                8.4696171859        7.5000000000        7.9692659200
H                6.5303828141        7.5000000000        7.9692659200



     Writing config-only to output data dir ./outdir/gas_h2s.save/ :
     XML data file
     NEW-OLD atomic charge density approx. for the potential

     negative rho (up, down):  5.670E-05 0.000E+00

     total cpu time spent up to now is      838.7 secs

     Self-consistent Calculation

     iteration #  1     ecut=    60.00 Ry     beta= 0.20
     Davidson diagonalization with overlap
     ethr =  1.00E-06,  avg # of iterations =  2.0

     Threshold (ethr) on eigenvalues was too large:
     Diagonalizing with lowered threshold

     Davidson diagonalization with overlap
     ethr =  1.13E-09,  avg # of iterations =  4.0

     negative rho (up, down):  5.588E-05 0.000E+00

     total cpu time spent up to now is      850.9 secs

     total energy              =     -26.48714908 Ry
     estimated scf accuracy    <       0.00000003 Ry

     iteration #  2     ecut=    60.00 Ry     beta= 0.20
     Davidson diagonalization with overlap
     ethr =  3.60E-10,  avg # of iterations =  1.0

     negative rho (up, down):  5.247E-05 0.000E+00

     total cpu time spent up to now is      862.5 secs

     total energy              =     -26.48714909 Ry
     estimated scf accuracy    <       0.00000002 Ry

     iteration #  3     ecut=    60.00 Ry     beta= 0.20
     Davidson diagonalization with overlap
     ethr =  2.53E-10,  avg # of iterations =  2.0

     negative rho (up, down):  5.270E-05 0.000E+00

     total cpu time spent up to now is      874.5 secs

     total energy              =     -26.48714908 Ry
     estimated scf accuracy    <          1.3E-09 Ry

     iteration #  4     ecut=    60.00 Ry     beta= 0.20
     Davidson diagonalization with overlap
     ethr =  1.61E-11,  avg # of iterations =  2.0

     negative rho (up, down):  5.331E-05 0.000E+00

     total cpu time spent up to now is      886.3 secs

     total energy              =     -26.48714906 Ry
     estimated scf accuracy    <          7.8E-10 Ry

     iteration #  5     ecut=    60.00 Ry     beta= 0.20
     Davidson diagonalization with overlap
     ethr =  9.79E-12,  avg # of iterations =  2.0

     negative rho (up, down):  5.358E-05 0.000E+00

     total cpu time spent up to now is      898.3 secs

     total energy              =     -26.48714907 Ry
     estimated scf accuracy    <          1.4E-10 Ry

     iteration #  6     ecut=    60.00 Ry     beta= 0.20
     Davidson diagonalization with overlap
     ethr =  1.74E-12,  avg # of iterations =  1.0

     negative rho (up, down):  5.453E-05 0.000E+00

     total cpu time spent up to now is      910.5 secs

     total energy              =     -26.48714907 Ry
     estimated scf accuracy    <          6.2E-11 Ry

     iteration #  7     ecut=    60.00 Ry     beta= 0.20
     Davidson diagonalization with overlap
     ethr =  7.73E-13,  avg # of iterations =  2.0

     negative rho (up, down):  5.531E-05 0.000E+00

     total cpu time spent up to now is      922.7 secs

     total energy              =     -26.48714906 Ry
     estimated scf accuracy    <          1.8E-11 Ry

     iteration #  8     ecut=    60.00 Ry     beta= 0.20
     Davidson diagonalization with overlap
     ethr =  2.31E-13,  avg # of iterations =  2.0

     negative rho (up, down):  5.674E-05 0.000E+00

     total cpu time spent up to now is      934.3 secs

     End of self-consistent calculation

          k = 0.0000 0.0000 0.0000 (178925 PWs)   bands (ev):

   -18.5102 -10.9247  -9.0827  -6.2668  -1.0355  -0.7467   0.0658   0.3279

     the Fermi energy is    -3.7014 ev

!    total energy              =     -26.48714908 Ry
     estimated scf accuracy    <          6.1E-12 Ry
     smearing contrib. (-TS)   =       0.00000000 Ry
     internal energy E=F+TS    =     -26.48714908 Ry

     The total energy is F=E-TS. E is the sum of the following terms:
     one-electron contribution =     -41.74473621 Ry
     hartree contribution      =      21.49580178 Ry
     xc contribution           =      -9.78556198 Ry
     ewald contribution        =       3.54734733 Ry

     convergence has been achieved in   8 iterations

     negative rho (up, down):  5.674E-05 0.000E+00

     Forces acting on atoms (cartesian axes, Ry/au):

     atom    1 type  1   force =     0.00000000    0.00000000   -0.00004856
     atom    2 type  2   force =     0.00042123    0.00000000    0.00002428
     atom    3 type  2   force =    -0.00042123    0.00000000    0.00002428

     Total force =     0.000599     Total SCF correction =     0.000002


     Computing stress (Cartesian axis) and pressure


     negative rho (up, down):  5.674E-05 0.000E+00
          total   stress  (Ry/bohr**3)                   (kbar)     P=        0.00
   0.00000008   0.00000000   0.00000000            0.01        0.00        0.00
   0.00000000   0.00000001   0.00000000            0.00        0.00        0.00
   0.00000000   0.00000000   0.00000001            0.00        0.00        0.00

     Energy error            =      6.4E-07 Ry
     Gradient error          =      4.2E-04 Ry/Bohr

     number of scf cycles    =   4
     number of bfgs steps    =   3

     energy             old  =     -26.4871484423 Ry
     energy             new  =     -26.4871490773 Ry

     CASE: energy            _new < energy            _old

     new trust radius        =       0.0007667851 bohr
     new conv_thr            =            1.0E-11 Ry


ATOMIC_POSITIONS (angstrom)
S                7.5000000000        7.5000000000        7.0267176349
H                8.4700033579        7.5000000000        7.9691413544
H                6.5299966421        7.5000000000        7.9691413544



     Writing config-only to output data dir ./outdir/gas_h2s.save/ :
     XML data file
     NEW-OLD atomic charge density approx. for the potential

     negative rho (up, down):  5.671E-05 0.000E+00

     total cpu time spent up to now is     1027.7 secs

     Self-consistent Calculation

     iteration #  1     ecut=    60.00 Ry     beta= 0.20
     Davidson diagonalization with overlap
     ethr =  1.00E-06,  avg # of iterations =  2.0

     Threshold (ethr) on eigenvalues was too large:
     Diagonalizing with lowered threshold

     Davidson diagonalization with overlap
     ethr =  8.86E-10,  avg # of iterations =  4.0

     negative rho (up, down):  5.673E-05 0.000E+00

     total cpu time spent up to now is     1039.9 secs

     total energy              =     -26.48714955 Ry
     estimated scf accuracy    <       0.00000004 Ry

     iteration #  2     ecut=    60.00 Ry     beta= 0.20
     Davidson diagonalization with overlap
     ethr =  4.41E-10,  avg # of iterations =  1.0

     negative rho (up, down):  5.708E-05 0.000E+00

     total cpu time spent up to now is     1051.6 secs

     total energy              =     -26.48714953 Ry
     estimated scf accuracy    <       0.00000002 Ry

     iteration #  3     ecut=    60.00 Ry     beta= 0.20
     Davidson diagonalization with overlap
     ethr =  3.01E-10,  avg # of iterations =  2.0

     negative rho (up, down):  5.706E-05 0.000E+00

     total cpu time spent up to now is     1063.2 secs

     total energy              =     -26.48714954 Ry
     estimated scf accuracy    <          9.5E-10 Ry

     iteration #  4     ecut=    60.00 Ry     beta= 0.20
     Davidson diagonalization with overlap
     ethr =  1.19E-11,  avg # of iterations =  1.0

     negative rho (up, down):  5.701E-05 0.000E+00

     total cpu time spent up to now is     1075.0 secs

     total energy              =     -26.48714956 Ry
     estimated scf accuracy    <          8.0E-10 Ry

     iteration #  5     ecut=    60.00 Ry     beta= 0.20
     Davidson diagonalization with overlap
     ethr =  1.00E-11,  avg # of iterations =  1.0

     negative rho (up, down):  5.661E-05 0.000E+00

     total cpu time spent up to now is     1086.7 secs

     total energy              =     -26.48714958 Ry
     estimated scf accuracy    <          6.4E-10 Ry

     iteration #  6     ecut=    60.00 Ry     beta= 0.20
     Davidson diagonalization with overlap
     ethr =  8.02E-12,  avg # of iterations =  2.0

     negative rho (up, down):  5.648E-05 0.000E+00

     total cpu time spent up to now is     1098.6 secs

     total energy              =     -26.48714958 Ry
     estimated scf accuracy    <          5.0E-11 Ry

     iteration #  7     ecut=    60.00 Ry     beta= 0.20
     Davidson diagonalization with overlap
     ethr =  6.25E-13,  avg # of iterations =  2.0

     negative rho (up, down):  5.632E-05 0.000E+00

     total cpu time spent up to now is     1110.4 secs

     total energy              =     -26.48714958 Ry
     estimated scf accuracy    <          1.6E-11 Ry

     iteration #  8     ecut=    60.00 Ry     beta= 0.20
     Davidson diagonalization with overlap
     ethr =  1.95E-13,  avg # of iterations =  3.0

     negative rho (up, down):  5.674E-05 0.000E+00

     total cpu time spent up to now is     1122.2 secs

     End of self-consistent calculation

          k = 0.0000 0.0000 0.0000 (178925 PWs)   bands (ev):

   -18.5099 -10.9267  -9.0808  -6.2668  -1.0358  -0.7457   0.0657   0.3277

     the Fermi energy is    -3.7014 ev

!    total energy              =     -26.48714960 Ry
     estimated scf accuracy    <          7.4E-12 Ry
     smearing contrib. (-TS)   =       0.00000000 Ry
     internal energy E=F+TS    =     -26.48714960 Ry

     The total energy is F=E-TS. E is the sum of the following terms:
     one-electron contribution =     -41.74410835 Ry
     hartree contribution      =      21.49547494 Ry
     xc contribution           =      -9.78553437 Ry
     ewald contribution        =       3.54701818 Ry

     convergence has been achieved in   8 iterations

     negative rho (up, down):  5.674E-05 0.000E+00

     Forces acting on atoms (cartesian axes, Ry/au):

     atom    1 type  1   force =     0.00000000    0.00000000   -0.00015728
     atom    2 type  2   force =     0.00032857    0.00000000    0.00007864
     atom    3 type  2   force =    -0.00032857    0.00000000    0.00007864

     Total force =     0.000503     Total SCF correction =     0.000003


     Computing stress (Cartesian axis) and pressure


     negative rho (up, down):  5.674E-05 0.000E+00
          total   stress  (Ry/bohr**3)                   (kbar)     P=        0.00
   0.00000006   0.00000000   0.00000000            0.01        0.00        0.00
   0.00000000   0.00000001   0.00000000            0.00        0.00        0.00
   0.00000000   0.00000000   0.00000002            0.00        0.00        0.00

     Energy error            =      5.2E-07 Ry
     Gradient error          =      3.3E-04 Ry/Bohr

     number of scf cycles    =   5
     number of bfgs steps    =   4

     energy             old  =     -26.4871490773 Ry
     energy             new  =     -26.4871495996 Ry

     CASE: energy            _new < energy            _old

     new trust radius        =       0.0011501776 bohr
     new conv_thr            =            1.0E-11 Ry


ATOMIC_POSITIONS (angstrom)
S                7.5000000000        7.5000000000        7.0269819872
H                8.4705974804        7.5000000000        7.9690091782
H                6.5294025196        7.5000000000        7.9690091782



     Writing config-only to output data dir ./outdir/gas_h2s.save/ :
     XML data file
     NEW-OLD atomic charge density approx. for the potential

     negative rho (up, down):  5.670E-05 0.000E+00

     total cpu time spent up to now is     1213.1 secs

     Self-consistent Calculation

     iteration #  1     ecut=    60.00 Ry     beta= 0.20
     Davidson diagonalization with overlap
     ethr =  1.00E-06,  avg # of iterations =  2.0

     Threshold (ethr) on eigenvalues was too large:
     Diagonalizing with lowered threshold

     Davidson diagonalization with overlap
     ethr =  1.68E-09,  avg # of iterations =  4.0

     negative rho (up, down):  5.727E-05 0.000E+00

     total cpu time spent up to now is     1225.6 secs

     total energy              =     -26.48714997 Ry
     estimated scf accuracy    <       0.00000009 Ry

     iteration #  2     ecut=    60.00 Ry     beta= 0.20
     Davidson diagonalization with overlap
     ethr =  1.17E-09,  avg # of iterations =  1.0

     negative rho (up, down):  6.077E-05 0.000E+00

     total cpu time spent up to now is     1237.1 secs

     total energy              =     -26.48714988 Ry
     estimated scf accuracy    <       0.00000007 Ry

     iteration #  3     ecut=    60.00 Ry     beta= 0.20
     Davidson diagonalization with overlap
     ethr =  8.14E-10,  avg # of iterations =  2.0

     negative rho (up, down):  6.028E-05 0.000E+00

     total cpu time spent up to now is     1248.9 secs

     total energy              =     -26.48714993 Ry
     estimated scf accuracy    <          3.7E-09 Ry

     iteration #  4     ecut=    60.00 Ry     beta= 0.20
     Davidson diagonalization with overlap
     ethr =  4.65E-11,  avg # of iterations =  4.0

     negative rho (up, down):  5.993E-05 0.000E+00

     total cpu time spent up to now is     1261.6 secs

     total energy              =     -26.48714997 Ry
     estimated scf accuracy    <          2.2E-09 Ry

     iteration #  5     ecut=    60.00 Ry     beta= 0.20
     Davidson diagonalization with overlap
     ethr =  2.77E-11,  avg # of iterations =  1.0

     negative rho (up, down):  5.975E-05 0.000E+00

     total cpu time spent up to now is     1273.2 secs

     total energy              =     -26.48714998 Ry
     estimated scf accuracy    <          1.0E-09 Ry

     iteration #  6     ecut=    60.00 Ry     beta= 0.20
     Davidson diagonalization with overlap
     ethr =  1.30E-11,  avg # of iterations =  1.0

     negative rho (up, down):  5.922E-05 0.000E+00

     total cpu time spent up to now is     1284.9 secs

     total energy              =     -26.48714998 Ry
     estimated scf accuracy    <          4.5E-11 Ry

     iteration #  7     ecut=    60.00 Ry     beta= 0.20
     Davidson diagonalization with overlap
     ethr =  5.68E-13,  avg # of iterations =  2.0

     negative rho (up, down):  5.808E-05 0.000E+00

     total cpu time spent up to now is     1296.7 secs

     total energy              =     -26.48714999 Ry
     estimated scf accuracy    <          2.5E-11 Ry

     iteration #  8     ecut=    60.00 Ry     beta= 0.20
     Davidson diagonalization with overlap
     ethr =  3.10E-13,  avg # of iterations =  2.0

     negative rho (up, down):  5.672E-05 0.000E+00

     total cpu time spent up to now is     1308.2 secs

     End of self-consistent calculation

          k = 0.0000 0.0000 0.0000 (178925 PWs)   bands (ev):

   -18.5089 -10.9287  -9.0783  -6.2667  -1.0365  -0.7450   0.0656   0.3276

     the Fermi energy is    -3.7012 ev

!    total energy              =     -26.48715001 Ry
     estimated scf accuracy    <          7.4E-12 Ry
     smearing contrib. (-TS)   =       0.00000000 Ry
     internal energy E=F+TS    =     -26.48715001 Ry

     The total energy is F=E-TS. E is the sum of the following terms:
     one-electron contribution =     -41.74173241 Ry
     hartree contribution      =      21.49428526 Ry
     xc contribution           =      -9.78535215 Ry
     ewald contribution        =       3.54564929 Ry

     convergence has been achieved in   8 iterations

     negative rho (up, down):  5.672E-05 0.000E+00

     Forces acting on atoms (cartesian axes, Ry/au):

     atom    1 type  1   force =     0.00000000    0.00000000   -0.00013261
     atom    2 type  2   force =     0.00011796    0.00000000    0.00006630
     atom    3 type  2   force =    -0.00011796    0.00000000    0.00006630

     Total force =     0.000233     Total SCF correction =     0.000003


     Computing stress (Cartesian axis) and pressure


     negative rho (up, down):  5.672E-05 0.000E+00
          total   stress  (Ry/bohr**3)                   (kbar)     P=        0.00
   0.00000003   0.00000000   0.00000000            0.00        0.00        0.00
   0.00000000   0.00000001   0.00000000            0.00        0.00        0.00
   0.00000000   0.00000000   0.00000001            0.00        0.00        0.00

     Energy error            =      4.1E-07 Ry
     Gradient error          =      1.3E-04 Ry/Bohr

     number of scf cycles    =   6
     number of bfgs steps    =   5

     energy             old  =     -26.4871495996 Ry
     energy             new  =     -26.4871500091 Ry

     CASE: energy            _new < energy            _old

     new trust radius        =       0.0004017692 bohr
     new conv_thr            =            1.0E-11 Ry


ATOMIC_POSITIONS (angstrom)
S                7.5000000000        7.5000000000        7.0270236672
H                8.4708090636        7.5000000000        7.9689883382
H                6.5291909364        7.5000000000        7.9689883382



     Writing config-only to output data dir ./outdir/gas_h2s.save/ :
     XML data file
     NEW-OLD atomic charge density approx. for the potential

     negative rho (up, down):  5.671E-05 0.000E+00

     total cpu time spent up to now is     1399.1 secs

     Self-consistent Calculation

     iteration #  1     ecut=    60.00 Ry     beta= 0.20
     Davidson diagonalization with overlap
     ethr =  1.00E-06,  avg # of iterations =  2.0

     Threshold (ethr) on eigenvalues was too large:
     Diagonalizing with lowered threshold

     Davidson diagonalization with overlap
     ethr =  1.79E-10,  avg # of iterations =  1.0

     negative rho (up, down):  5.703E-05 0.000E+00

     total cpu time spent up to now is     1411.1 secs

     total energy              =     -26.48715006 Ry
     estimated scf accuracy    <       0.00000002 Ry

     iteration #  2     ecut=    60.00 Ry     beta= 0.20
     Davidson diagonalization with overlap
     ethr =  1.92E-10,  avg # of iterations =  1.0

     negative rho (up, down):  5.882E-05 0.000E+00

     total cpu time spent up to now is     1422.6 secs

     total energy              =     -26.48715005 Ry
     estimated scf accuracy    <       0.00000001 Ry

     iteration #  3     ecut=    60.00 Ry     beta= 0.20
     Davidson diagonalization with overlap
     ethr =  1.32E-10,  avg # of iterations =  2.0

     negative rho (up, down):  5.859E-05 0.000E+00

     total cpu time spent up to now is     1434.4 secs

     total energy              =     -26.48715005 Ry
     estimated scf accuracy    <          4.3E-10 Ry

     iteration #  4     ecut=    60.00 Ry     beta= 0.20
     Davidson diagonalization with overlap
     ethr =  5.41E-12,  avg # of iterations =  2.0

     negative rho (up, down):  5.833E-05 0.000E+00

     total cpu time spent up to now is     1446.2 secs

     total energy              =     -26.48715006 Ry
     estimated scf accuracy    <          2.3E-10 Ry

     iteration #  5     ecut=    60.00 Ry     beta= 0.20
     Davidson diagonalization with overlap
     ethr =  2.92E-12,  avg # of iterations =  1.0

     negative rho (up, down):  5.769E-05 0.000E+00

     total cpu time spent up to now is     1458.0 secs

     total energy              =     -26.48715008 Ry
     estimated scf accuracy    <          1.6E-10 Ry

     iteration #  6     ecut=    60.00 Ry     beta= 0.20
     Davidson diagonalization with overlap
     ethr =  1.97E-12,  avg # of iterations =  2.0

     negative rho (up, down):  5.739E-05 0.000E+00

     total cpu time spent up to now is     1470.1 secs

     total energy              =     -26.48715008 Ry
     estimated scf accuracy    <          1.7E-11 Ry

     iteration #  7     ecut=    60.00 Ry     beta= 0.20
     Davidson diagonalization with overlap
     ethr =  2.14E-13,  avg # of iterations =  4.0

     negative rho (up, down):  5.671E-05 0.000E+00

     total cpu time spent up to now is     1482.0 secs

     End of self-consistent calculation

          k = 0.0000 0.0000 0.0000 (178925 PWs)   bands (ev):

   -18.5082 -10.9289  -9.0776  -6.2666  -1.0369  -0.7452   0.0655   0.3275

     the Fermi energy is    -3.7012 ev

!    total energy              =     -26.48715007 Ry
     estimated scf accuracy    <          8.0E-12 Ry
     smearing contrib. (-TS)   =       0.00000000 Ry
     internal energy E=F+TS    =     -26.48715007 Ry

     The total energy is F=E-TS. E is the sum of the following terms:
     one-electron contribution =     -41.74026679 Ry
     hartree contribution      =      21.49356092 Ry
     xc contribution           =      -9.78522633 Ry
     ewald contribution        =       3.54478213 Ry

     convergence has been achieved in   7 iterations

     negative rho (up, down):  5.671E-05 0.000E+00

     Forces acting on atoms (cartesian axes, Ry/au):

     atom    1 type  1   force =     0.00000000    0.00000000   -0.00003938
     atom    2 type  2   force =     0.00001316    0.00000000    0.00001969
     atom    3 type  2   force =    -0.00001316    0.00000000    0.00001969

     Total force =     0.000052     Total SCF correction =     0.000001


     Computing stress (Cartesian axis) and pressure


     negative rho (up, down):  5.671E-05 0.000E+00
          total   stress  (Ry/bohr**3)                   (kbar)     P=        0.00
   0.00000001   0.00000000   0.00000000            0.00        0.00        0.00
   0.00000000   0.00000001   0.00000000            0.00        0.00        0.00
   0.00000000   0.00000000   0.00000001            0.00        0.00        0.00

     Energy error            =      5.7E-08 Ry
     Gradient error          =      3.9E-05 Ry/Bohr

     bfgs converged in   7 scf cycles and   6 bfgs steps
     (criteria: energy <  1.0E-05 Ry, force <  1.0E-04 Ry/Bohr)

     End of BFGS Geometry Optimization

     Final energy             =     -26.4871500664 Ry

     File ./outdir/gas_h2s.bfgs deleted, as requested
Begin final coordinates

ATOMIC_POSITIONS (angstrom)
S                7.5000000000        7.5000000000        7.0270236672
H                8.4708090636        7.5000000000        7.9689883382
H                6.5291909364        7.5000000000        7.9689883382
End final coordinates



     Writing all to output data dir ./outdir/gas_h2s.save/ :
     XML data file, charge density, pseudopotentials, collected wavefunctions
 
     init_run     :    179.51s CPU     33.42s WALL (       1 calls)
     electrons    :   2395.71s CPU    896.12s WALL (       7 calls)
     update_pot   :    181.98s CPU     65.57s WALL (       6 calls)
     forces       :    218.80s CPU     78.89s WALL (       7 calls)
     stress       :    747.40s CPU    487.34s WALL (       7 calls)

     Called by init_run:
     wfcinit      :      0.07s CPU      0.19s WALL (       1 calls)
     potinit      :    176.75s CPU     30.10s WALL (       1 calls)
     hinit0       :      0.54s CPU      0.44s WALL (       1 calls)

     Called by electrons:
     c_bands      :     17.52s CPU     17.34s WALL (      79 calls)
     sum_band     :     27.01s CPU     26.86s WALL (      79 calls)
     v_of_rho     :   2600.35s CPU    912.35s WALL (      81 calls)
     newd         :      9.34s CPU      9.30s WALL (      81 calls)
     mix_rho      :     15.31s CPU     13.82s WALL (      79 calls)
     vdW_kernel   :     12.58s CPU     12.50s WALL (       1 calls)

     Called by c_bands:
     init_us_2    :      0.09s CPU      0.08s WALL (     166 calls)
     cegterg      :     17.39s CPU     17.21s WALL (      79 calls)

     Called by *egterg:
     cdiaghg      :      0.14s CPU      0.17s WALL (     282 calls)
                                        0.17s GPU  (     282 calls)
     h_psi        :      1.62s CPU      1.66s WALL (     294 calls)
     s_psi        :      0.15s CPU      0.15s WALL (     294 calls)
     g_psi        :      0.01s CPU      0.01s WALL (     214 calls)

     Called by h_psi:
     h_psi:calbec :      0.05s CPU      0.15s WALL (     294 calls)
     vloc_psi     :      1.36s CPU      1.30s WALL (     294 calls)
                                        1.30s GPU  (     294 calls)
     add_vuspsi   :      0.20s CPU      0.21s WALL (     294 calls)

     General routines
     calbec       :      0.06s CPU      0.15s WALL (     492 calls)
     fft          :   2495.76s CPU    116.56s WALL (    6283 calls)
                                        2.13s GPU  (    1144 calls)
     ffts         :     40.04s CPU      4.87s WALL (    8401 calls)
                                        2.93s GPU  (    8320 calls)
     fftw         :      0.01s CPU      1.29s WALL (     667 calls)
                                        1.29s GPU  (     667 calls)
     interpolate  :     81.33s CPU      6.24s WALL (      81 calls)
 
 
     PWSCF        :      1h 2m CPU  26m 3.02s WALL

 
   This run was terminated on:  21:44:44  28Jun2026            

=------------------------------------------------------------------------------=
   JOB DONE.
=------------------------------------------------------------------------------=
