
     Program PWSCF v.7.5 starts on 28Jun2026 at 20:48:26 

     This program is part of the open-source Quantum ESPRESSO suite
     for quantum simulation of materials; please cite
         "P. Giannozzi et al., J. Phys.:Condens. Matter 21 395502 (2009);
         "P. Giannozzi et al., J. Phys.:Condens. Matter 29 465901 (2017);
         "P. Giannozzi et al., J. Chem. Phys. 152 154105 (2020);
          URL http://www.quantum-espresso.org", 
     in publications or presentations arising from this work. More details at
     http://www.quantum-espresso.org/quote

     Serial multi-threaded version, running on   32 processor cores
     43406 MiB available memory on the printing compute node when the environment starts
 
     Reading input from inputs/gas_nh3.in

     Current dimensions of program PWSCF are:
     Max number of different atomic species (ntypx) = 10
     Max number of k-points (npk) =  40000
     Max angular momentum in pseudopotentials (lmaxx) =  4

     IMPORTANT: XC functional enforced from input :
     Exchange-correlation= VDW-DF2-B86R
                           (   1   4  26   0   2   0   0)
     Any further DFT definition will be discarded
     Please, verify this is what you really want

     Message from routine setup:
     using ibrav=0 with symmetry is DISCOURAGED, use correct ibrav instead
 
 
     G-vector sticks info
     --------------------
     sticks:   dense  smooth     PW     G-vecs:    dense   smooth      PW
     Sum       38393   15329   3833              5653693  1429635  178925
 
     Using Slab Decomposition
 


     bravais-lattice index     =            0
     lattice parameter (alat)  =      28.3459  a.u.
     unit-cell volume          =   22775.6289 (a.u.)^3
     number of atoms/cell      =            4
     number of atomic types    =            2
     number of electrons       =         8.00
     number of Kohn-Sham states=            8
     kinetic-energy cutoff     =      60.0000  Ry
     charge density cutoff     =     600.0000  Ry
     scf convergence threshold =      1.0E-09
     mixing beta               =       0.2000
     number of iterations used =            8  local-TF  mixing
     energy convergence thresh.=      1.0E-05
     force convergence thresh. =      1.0E-04
     Exchange-correlation= VDW-DF2-B86R
                           (   1   4  26   0   2   0   0)
     nstep                     =          200


     GPU acceleration is ACTIVE.  1 visible GPUs per MPI rank


     celldm(1)=  28.345892  celldm(2)=   0.000000  celldm(3)=   0.000000
     celldm(4)=   0.000000  celldm(5)=   0.000000  celldm(6)=   0.000000

     crystal axes: (cart. coord. in units of alat)
               a(1) = (   1.000000   0.000000   0.000000 )  
               a(2) = (   0.000000   1.000000   0.000000 )  
               a(3) = (   0.000000   0.000000   1.000000 )  

     reciprocal axes: (cart. coord. in units 2 pi/alat)
               b(1) = (  1.000000  0.000000  0.000000 )  
               b(2) = (  0.000000  1.000000  0.000000 )  
               b(3) = (  0.000000  0.000000  1.000000 )  


     PseudoPot. # 1 for N  read from file:
     /home/x/Workspace/3-hEspesso/pseudo/N.pbe-n-radius_5.UPF
     MD5 check sum: 16739722b17309cd8fe442a2ace49922
     Pseudo is Ultrasoft + core correction, Zval =  5.0
     Generated using "atomic" code by A. Dal Corso  v.5.1
     Using radial grid of 1085 points,  4 beta functions with: 
                l(1) =   0
                l(2) =   0
                l(3) =   1
                l(4) =   1
     Q(r) pseudized with 0 coefficients 


     PseudoPot. # 2 for H  read from file:
     /home/x/Workspace/3-hEspesso/pseudo/H.pbe-rrkjus_psl.1.0.0.UPF
     MD5 check sum: f52b6d4d1c606e5624b1dc7b2218f220
     Pseudo is Ultrasoft, Zval =  1.0
     Generated using "atomic" code by A. Dal Corso  v.5.1
     Using radial grid of  929 points,  2 beta functions with: 
                l(1) =   0
                l(2) =   0
     Q(r) pseudized with 0 coefficients 


     atomic species   valence    mass     pseudopotential
     N                 5.00    14.00700     N ( 1.00)
     H                 1.00     1.00800     H ( 1.00)

      2 Sym. Ops. (no inversion) found



   Cartesian axes

     site n.     atom                  positions (alat units)
         1        N      tau(   1) = (   0.5000000   0.4843378   0.5129432  )
         2        H      tau(   2) = (   0.5000000   0.5469865   0.4870568  )
         3        H      tau(   3) = (   0.5542554   0.4530135   0.4870568  )
         4        H      tau(   4) = (   0.4457446   0.4530135   0.4870568  )

     number of k points=     1  Marzari-Vanderbilt smearing, width (Ry)=  0.0100
                       cart. coord. in units 2pi/alat
        k(    1) = (   0.0000000   0.0000000   0.0000000), wk =   2.0000000

     Dense  grid:  5653693 G-vectors     FFT dimensions: ( 225, 225, 225)

     Smooth grid:  1429635 G-vectors     FFT dimensions: ( 144, 144, 144)

     Estimated max dynamical RAM per process >       7.51 GB

     Initial potential from superposition of free atoms

     starting charge       8.0000, renormalised to       8.0000

     negative rho (up, down):  6.643E-05 0.000E+00


     %%%%%%%%%%%%%%%%%%%%%%%%%%%%%%%%%%%%%%%%%%%%%%%%%%%%%%%%%%%%%%%%%%%%%%%%
     %                                                                      %
     % You are using vdW-DF, which was implemented by the Thonhauser group. %
     % Please cite the following two papers that made this development      %
     % possible and the two reviews that describe the various versions:     %
     %                                                                      %
     %   T. Thonhauser et al., PRL 115, 136402 (2015).                      %
     %   T. Thonhauser et al., PRB 76, 125112 (2007).                       %
     %   K. Berland et al., Rep. Prog. Phys. 78, 066501 (2015).             %
     %   D.C. Langreth et al., J. Phys.: Condens. Matter 21, 084203 (2009). %
     %                                                                      %
     % If you are calculating stress with vdW-DF, please also cite:         %
     %                                                                      %
     %   R. Sabatini et al., J. Phys.: Condens. Matter 24, 424209 (2012).   %
     %                                                                      %
     %%%%%%%%%%%%%%%%%%%%%%%%%%%%%%%%%%%%%%%%%%%%%%%%%%%%%%%%%%%%%%%%%%%%%%%%

     %%%%%%%%%%%%%%%%%%%%%%%%%%%%%%%%%%%%%%%%%%%%%%%%%%%%%%%%%%%%%%%%%%%%%%%%
     %                                                                      %
     %  vdW-DF NEWS:                                                        %
     %                                                                      %
     %  * vdW-DF3 is now available. DOI: 10.1021/acs.jctc.0c00471           %
     %    use with input_dft = 'vdW-DF3-opt1' or 'vdW-DF3-opt2'             %
     %                                                                      %
     %  * Unscreened and range-separated hybrid vdW-DF-cx functionals       %
     %    DOI: 10.1063/1.4986522 and 10.1088/1361-648X/ac2ad2               %
     %    use with input_dft = 'vdW-DF-cx0'    and 'vdW-DF-ahcx'            %
     %  * Unscreened and range-separated hybrid vdW-DF2-b86r functionals    %
     %    DOI: 10.1063/1.4986522 and DOI: 10.1103/PhysRevX.12.041003        %
     %    use with input_dft = 'vdW-DF2-br0' and 'vdW-DF2-ahbr'             %
     %                                                                      %
     %%%%%%%%%%%%%%%%%%%%%%%%%%%%%%%%%%%%%%%%%%%%%%%%%%%%%%%%%%%%%%%%%%%%%%%%


     Starting wfcs are    7 randomized atomic wfcs +    1 random wfcs

     total cpu time spent up to now is       31.9 secs

     Self-consistent Calculation

     iteration #  1     ecut=    60.00 Ry     beta= 0.20
     Davidson diagonalization with overlap
     ethr =  1.00E-02,  avg # of iterations =  6.0

     negative rho (up, down):  8.255E-08 0.000E+00

     total cpu time spent up to now is       44.5 secs

     total energy              =     -23.93434010 Ry
     estimated scf accuracy    <       0.63839096 Ry

     iteration #  2     ecut=    60.00 Ry     beta= 0.20
     Davidson diagonalization with overlap
     ethr =  7.98E-03,  avg # of iterations =  1.0

     negative rho (up, down):  4.034E-08 0.000E+00

     total cpu time spent up to now is       56.7 secs

     total energy              =     -23.72276295 Ry
     estimated scf accuracy    <       0.42795705 Ry

     iteration #  3     ecut=    60.00 Ry     beta= 0.20
     Davidson diagonalization with overlap
     ethr =  5.35E-03,  avg # of iterations =  2.0

     total cpu time spent up to now is       69.3 secs

     total energy              =     -23.80264209 Ry
     estimated scf accuracy    <       0.03873715 Ry

     iteration #  4     ecut=    60.00 Ry     beta= 0.20
     Davidson diagonalization with overlap
     ethr =  4.84E-04,  avg # of iterations =  4.0

     negative rho (up, down):  1.285E-02 0.000E+00

     total cpu time spent up to now is       81.3 secs

     total energy              =     -23.80090913 Ry
     estimated scf accuracy    <       0.03400180 Ry

     iteration #  5     ecut=    60.00 Ry     beta= 0.20
     Davidson diagonalization with overlap
     ethr =  4.25E-04,  avg # of iterations =  4.0

     negative rho (up, down):  1.301E-02 0.000E+00

     total cpu time spent up to now is       93.3 secs

     total energy              =     -23.80313265 Ry
     estimated scf accuracy    <       0.02907151 Ry

     iteration #  6     ecut=    60.00 Ry     beta= 0.20
     Davidson diagonalization with overlap
     ethr =  3.63E-04,  avg # of iterations =  1.0

     negative rho (up, down):  1.567E-02 0.000E+00

     total cpu time spent up to now is      105.4 secs

     total energy              =     -23.80269969 Ry
     estimated scf accuracy    <       0.03096276 Ry

     iteration #  7     ecut=    60.00 Ry     beta= 0.20
     Davidson diagonalization with overlap
     ethr =  3.63E-04,  avg # of iterations =  1.0

     negative rho (up, down):  6.284E-02 0.000E+00

     total cpu time spent up to now is      117.4 secs

     total energy              =     -23.81706658 Ry
     estimated scf accuracy    <       0.03149006 Ry

     iteration #  8     ecut=    60.00 Ry     beta= 0.20
     Davidson diagonalization with overlap
     ethr =  3.63E-04,  avg # of iterations =  4.0

     negative rho (up, down):  7.882E-02 0.000E+00

     total cpu time spent up to now is      130.1 secs

     total energy              =     -23.84218833 Ry
     estimated scf accuracy    <       0.09398367 Ry

     iteration #  9     ecut=    60.00 Ry     beta= 0.20
     Davidson diagonalization with overlap
     ethr =  3.63E-04,  avg # of iterations =  2.0

     negative rho (up, down):  8.033E-02 0.000E+00

     total cpu time spent up to now is      142.1 secs

     total energy              =     -23.85427636 Ry
     estimated scf accuracy    <       0.17704438 Ry

     iteration # 10     ecut=    60.00 Ry     beta= 0.20
     Davidson diagonalization with overlap
     ethr =  3.63E-04,  avg # of iterations =  1.0

     negative rho (up, down):  7.323E-02 0.000E+00

     total cpu time spent up to now is      154.1 secs

     total energy              =     -23.83491416 Ry
     estimated scf accuracy    <       0.21134558 Ry

     iteration # 11     ecut=    60.00 Ry     beta= 0.20
     Davidson diagonalization with overlap
     ethr =  3.63E-04,  avg # of iterations =  1.0

     negative rho (up, down):  7.555E-02 0.000E+00

     total cpu time spent up to now is      166.1 secs

     total energy              =     -23.83575899 Ry
     estimated scf accuracy    <       0.16346938 Ry

     iteration # 12     ecut=    60.00 Ry     beta= 0.20
     Davidson diagonalization with overlap
     ethr =  3.63E-04,  avg # of iterations =  1.0

     negative rho (up, down):  3.729E-02 0.000E+00

     total cpu time spent up to now is      178.2 secs

     total energy              =     -23.83419686 Ry
     estimated scf accuracy    <       0.15961151 Ry

     iteration # 13     ecut=    60.00 Ry     beta= 0.20
     Davidson diagonalization with overlap
     ethr =  3.63E-04,  avg # of iterations =  1.0

     negative rho (up, down):  5.106E-02 0.000E+00

     total cpu time spent up to now is      190.0 secs

     total energy              =     -23.80087118 Ry
     estimated scf accuracy    <       0.15674130 Ry

     iteration # 14     ecut=    60.00 Ry     beta= 0.20
     Davidson diagonalization with overlap
     ethr =  3.63E-04,  avg # of iterations =  2.0

     negative rho (up, down):  4.349E-02 0.000E+00

     total cpu time spent up to now is      201.7 secs

     total energy              =     -23.79387039 Ry
     estimated scf accuracy    <       0.06591875 Ry

     iteration # 15     ecut=    60.00 Ry     beta= 0.20
     Davidson diagonalization with overlap
     ethr =  3.63E-04,  avg # of iterations =  1.0

     negative rho (up, down):  5.280E-02 0.000E+00

     total cpu time spent up to now is      213.5 secs

     total energy              =     -23.78742179 Ry
     estimated scf accuracy    <       0.03060216 Ry

     iteration # 16     ecut=    60.00 Ry     beta= 0.20
     Davidson diagonalization with overlap
     ethr =  3.63E-04,  avg # of iterations =  2.0

     negative rho (up, down):  3.982E-02 0.000E+00

     total cpu time spent up to now is      225.1 secs

     total energy              =     -23.78968558 Ry
     estimated scf accuracy    <       0.00486483 Ry

     iteration # 17     ecut=    60.00 Ry     beta= 0.20
     Davidson diagonalization with overlap
     ethr =  6.08E-05,  avg # of iterations =  3.0

     negative rho (up, down):  2.017E-02 0.000E+00

     total cpu time spent up to now is      236.6 secs

     total energy              =     -23.79224875 Ry
     estimated scf accuracy    <       0.00215971 Ry

     iteration # 18     ecut=    60.00 Ry     beta= 0.20
     Davidson diagonalization with overlap
     ethr =  2.70E-05,  avg # of iterations =  5.0

     negative rho (up, down):  2.133E-02 0.000E+00

     total cpu time spent up to now is      247.9 secs

     total energy              =     -23.79320761 Ry
     estimated scf accuracy    <       0.00054621 Ry

     iteration # 19     ecut=    60.00 Ry     beta= 0.20
     Davidson diagonalization with overlap
     ethr =  6.83E-06,  avg # of iterations =  6.0

     negative rho (up, down):  2.034E-02 0.000E+00

     total cpu time spent up to now is      259.4 secs

     total energy              =     -23.79334844 Ry
     estimated scf accuracy    <       0.00014047 Ry

     iteration # 20     ecut=    60.00 Ry     beta= 0.20
     Davidson diagonalization with overlap
     ethr =  1.76E-06,  avg # of iterations =  5.0

     negative rho (up, down):  8.684E-03 0.000E+00

     total cpu time spent up to now is      270.4 secs

     total energy              =     -23.79340306 Ry
     estimated scf accuracy    <       0.00013325 Ry

     iteration # 21     ecut=    60.00 Ry     beta= 0.20
     Davidson diagonalization with overlap
     ethr =  1.67E-06,  avg # of iterations =  6.0

     negative rho (up, down):  5.160E-03 0.000E+00

     total cpu time spent up to now is      281.3 secs

     total energy              =     -23.79339630 Ry
     estimated scf accuracy    <       0.00001945 Ry

     iteration # 22     ecut=    60.00 Ry     beta= 0.20
     Davidson diagonalization with overlap
     ethr =  2.43E-07,  avg # of iterations =  7.0

     negative rho (up, down):  2.974E-03 0.000E+00

     total cpu time spent up to now is      293.3 secs

     total energy              =     -23.79337032 Ry
     estimated scf accuracy    <       0.00000801 Ry

     iteration # 23     ecut=    60.00 Ry     beta= 0.20
     Davidson diagonalization with overlap
     ethr =  1.00E-07,  avg # of iterations =  7.0

     negative rho (up, down):  1.073E-03 0.000E+00

     total cpu time spent up to now is      305.4 secs

     total energy              =     -23.79336752 Ry
     estimated scf accuracy    <       0.00003519 Ry

     iteration # 24     ecut=    60.00 Ry     beta= 0.20
     Davidson diagonalization with overlap
     ethr =  1.00E-07,  avg # of iterations =  5.0

     negative rho (up, down):  3.869E-04 0.000E+00

     total cpu time spent up to now is      316.8 secs

     total energy              =     -23.79337750 Ry
     estimated scf accuracy    <       0.00001111 Ry

     iteration # 25     ecut=    60.00 Ry     beta= 0.20
     Davidson diagonalization with overlap
     ethr =  1.00E-07,  avg # of iterations =  6.0

     negative rho (up, down):  6.067E-04 0.000E+00

     total cpu time spent up to now is      328.3 secs

     total energy              =     -23.79337559 Ry
     estimated scf accuracy    <       0.00000049 Ry

     iteration # 26     ecut=    60.00 Ry     beta= 0.20
     Davidson diagonalization with overlap
     ethr =  6.13E-09,  avg # of iterations =  3.0

     negative rho (up, down):  2.064E-04 0.000E+00

     total cpu time spent up to now is      339.9 secs

     total energy              =     -23.79337391 Ry
     estimated scf accuracy    <       0.00000037 Ry

     iteration # 27     ecut=    60.00 Ry     beta= 0.20
     Davidson diagonalization with overlap
     ethr =  4.58E-09,  avg # of iterations =  5.0

     negative rho (up, down):  1.303E-04 0.000E+00

     total cpu time spent up to now is      352.3 secs

     total energy              =     -23.79337516 Ry
     estimated scf accuracy    <       0.00000031 Ry

     iteration # 28     ecut=    60.00 Ry     beta= 0.20
     Davidson diagonalization with overlap
     ethr =  3.83E-09,  avg # of iterations =  2.0

     negative rho (up, down):  1.896E-04 0.000E+00

     total cpu time spent up to now is      364.0 secs

     total energy              =     -23.79337667 Ry
     estimated scf accuracy    <       0.00000008 Ry

     iteration # 29     ecut=    60.00 Ry     beta= 0.20
     Davidson diagonalization with overlap
     ethr =  1.01E-09,  avg # of iterations =  3.0

     negative rho (up, down):  2.329E-04 0.000E+00

     total cpu time spent up to now is      375.6 secs

     total energy              =     -23.79337697 Ry
     estimated scf accuracy    <       0.00000008 Ry

     iteration # 30     ecut=    60.00 Ry     beta= 0.20
     Davidson diagonalization with overlap
     ethr =  1.01E-09,  avg # of iterations =  2.0

     negative rho (up, down):  2.186E-04 0.000E+00

     total cpu time spent up to now is      387.1 secs

     total energy              =     -23.79337713 Ry
     estimated scf accuracy    <       0.00000004 Ry

     iteration # 31     ecut=    60.00 Ry     beta= 0.20
     Davidson diagonalization with overlap
     ethr =  5.54E-10,  avg # of iterations =  2.0

     negative rho (up, down):  2.008E-04 0.000E+00

     total cpu time spent up to now is      398.5 secs

     total energy              =     -23.79337755 Ry
     estimated scf accuracy    <       0.00000003 Ry

     iteration # 32     ecut=    60.00 Ry     beta= 0.20
     Davidson diagonalization with overlap
     ethr =  4.17E-10,  avg # of iterations =  4.0

     negative rho (up, down):  2.160E-04 0.000E+00

     total cpu time spent up to now is      409.8 secs

     total energy              =     -23.79337736 Ry
     estimated scf accuracy    <       0.00000009 Ry

     iteration # 33     ecut=    60.00 Ry     beta= 0.20
     Davidson diagonalization with overlap
     ethr =  4.17E-10,  avg # of iterations =  2.0

     negative rho (up, down):  2.089E-04 0.000E+00

     total cpu time spent up to now is      421.3 secs

     total energy              =     -23.79337729 Ry
     estimated scf accuracy    <       0.00000003 Ry

     iteration # 34     ecut=    60.00 Ry     beta= 0.20
     Davidson diagonalization with overlap
     ethr =  4.17E-10,  avg # of iterations =  2.0

     negative rho (up, down):  1.965E-04 0.000E+00

     total cpu time spent up to now is      432.8 secs

     total energy              =     -23.79337713 Ry
     estimated scf accuracy    <       0.00000002 Ry

     iteration # 35     ecut=    60.00 Ry     beta= 0.20
     Davidson diagonalization with overlap
     ethr =  2.11E-10,  avg # of iterations =  2.0

     negative rho (up, down):  1.254E-04 0.000E+00

     total cpu time spent up to now is      444.3 secs

     total energy              =     -23.79337677 Ry
     estimated scf accuracy    <       0.00000001 Ry

     iteration # 36     ecut=    60.00 Ry     beta= 0.20
     Davidson diagonalization with overlap
     ethr =  1.52E-10,  avg # of iterations =  2.0

     negative rho (up, down):  1.103E-04 0.000E+00

     total cpu time spent up to now is      455.7 secs

     total energy              =     -23.79337655 Ry
     estimated scf accuracy    <          8.2E-09 Ry

     iteration # 37     ecut=    60.00 Ry     beta= 0.20
     Davidson diagonalization with overlap
     ethr =  1.02E-10,  avg # of iterations =  1.0

     negative rho (up, down):  1.073E-04 0.000E+00

     total cpu time spent up to now is      467.0 secs

     total energy              =     -23.79337659 Ry
     estimated scf accuracy    <          3.1E-09 Ry

     iteration # 38     ecut=    60.00 Ry     beta= 0.20
     Davidson diagonalization with overlap
     ethr =  3.88E-11,  avg # of iterations =  2.0

     negative rho (up, down):  1.011E-04 0.000E+00

     total cpu time spent up to now is      478.5 secs

     total energy              =     -23.79337688 Ry
     estimated scf accuracy    <          1.6E-09 Ry

     iteration # 39     ecut=    60.00 Ry     beta= 0.20
     Davidson diagonalization with overlap
     ethr =  1.96E-11,  avg # of iterations =  2.0

     negative rho (up, down):  1.046E-04 0.000E+00

     total cpu time spent up to now is      490.0 secs

     total energy              =     -23.79337693 Ry
     estimated scf accuracy    <          1.9E-09 Ry

     iteration # 40     ecut=    60.00 Ry     beta= 0.20
     Davidson diagonalization with overlap
     ethr =  1.96E-11,  avg # of iterations =  1.0

     negative rho (up, down):  1.127E-04 0.000E+00

     total cpu time spent up to now is      501.4 secs

     total energy              =     -23.79337701 Ry
     estimated scf accuracy    <          1.8E-09 Ry

     iteration # 41     ecut=    60.00 Ry     beta= 0.20
     Davidson diagonalization with overlap
     ethr =  1.96E-11,  avg # of iterations =  3.0

     negative rho (up, down):  1.132E-04 0.000E+00

     total cpu time spent up to now is      512.7 secs

     total energy              =     -23.79337698 Ry
     estimated scf accuracy    <          1.0E-09 Ry

     iteration # 42     ecut=    60.00 Ry     beta= 0.20
     Davidson diagonalization with overlap
     ethr =  1.25E-11,  avg # of iterations =  1.0

     negative rho (up, down):  1.141E-04 0.000E+00

     total cpu time spent up to now is      523.8 secs

     End of self-consistent calculation

          k = 0.0000 0.0000 0.0000 (178925 PWs)   bands (ev):

   -21.2093 -11.3088 -11.3088  -6.2492  -0.9142   0.0594   0.3262   0.3272

     the Fermi energy is    -4.3767 ev

!    total energy              =     -23.79337694 Ry
     estimated scf accuracy    <          3.5E-10 Ry
     smearing contrib. (-TS)   =       0.00000000 Ry
     internal energy E=F+TS    =     -23.79337694 Ry

     The total energy is F=E-TS. E is the sum of the following terms:
     one-electron contribution =     -56.79906917 Ry
     hartree contribution      =      29.44640472 Ry
     xc contribution           =      -7.61384151 Ry
     ewald contribution        =      11.17312902 Ry

     convergence has been achieved in  42 iterations

     negative rho (up, down):  1.141E-04 0.000E+00

     Forces acting on atoms (cartesian axes, Ry/au):

     atom    1 type  1   force =     0.00000000   -0.00000069    0.00823942
     atom    2 type  2   force =     0.00000000    0.01013062   -0.00274577
     atom    3 type  2   force =     0.00877317   -0.00506496   -0.00274682
     atom    4 type  2   force =    -0.00877317   -0.00506496   -0.00274682

     Total force =     0.019960     Total SCF correction =     0.000012


     Computing stress (Cartesian axis) and pressure


     negative rho (up, down):  1.141E-04 0.000E+00
          total   stress  (Ry/bohr**3)                   (kbar)     P=        0.11
   0.00000108   0.00000000   0.00000000            0.16        0.00        0.00
   0.00000000   0.00000108   0.00000000            0.00        0.16        0.00
   0.00000000   0.00000000   0.00000014            0.00        0.00        0.02


     BFGS Geometry Optimization
     Energy error            =      4.0E-04 Ry
     Gradient error          =      1.0E-02 Ry/Bohr

     number of scf cycles    =   1
     number of bfgs steps    =   0

     energy             new  =     -23.7933769409 Ry

     new trust radius        =       0.0104961233 bohr
     new conv_thr            =       0.0000000010 Ry


ATOMIC_POSITIONS (angstrom)
N                7.5000000000        7.2650666356        7.6985086111
H                7.5000000000        8.2101588906        7.3043985020
H                8.3184735600        6.7925217369        7.3043979435
H                6.6815264400        6.7925217369        7.3043979435



     Writing config-only to output data dir ./outdir/gas_nh3.save/ :
     XML data file
     NEW-OLD atomic charge density approx. for the potential

     negative rho (up, down):  1.127E-04 0.000E+00

     total cpu time spent up to now is      615.7 secs

     Self-consistent Calculation

     iteration #  1     ecut=    60.00 Ry     beta= 0.20
     Davidson diagonalization with overlap
     ethr =  1.00E-06,  avg # of iterations =  4.0

     negative rho (up, down):  2.741E-04 0.000E+00

     total cpu time spent up to now is      627.0 secs

     total energy              =     -23.79358952 Ry
     estimated scf accuracy    <       0.00023938 Ry

     iteration #  2     ecut=    60.00 Ry     beta= 0.20
     Davidson diagonalization with overlap
     ethr =  2.99E-06,  avg # of iterations =  1.0

     negative rho (up, down):  1.327E-03 0.000E+00

     total cpu time spent up to now is      637.9 secs

     total energy              =     -23.79350667 Ry
     estimated scf accuracy    <       0.00015101 Ry

     iteration #  3     ecut=    60.00 Ry     beta= 0.20
     Davidson diagonalization with overlap
     ethr =  1.89E-06,  avg # of iterations =  4.0

     negative rho (up, down):  1.114E-03 0.000E+00

     total cpu time spent up to now is      648.8 secs

     total energy              =     -23.79355401 Ry
     estimated scf accuracy    <       0.00001206 Ry

     iteration #  4     ecut=    60.00 Ry     beta= 0.20
     Davidson diagonalization with overlap
     ethr =  1.51E-07,  avg # of iterations =  2.0

     negative rho (up, down):  1.009E-03 0.000E+00

     total cpu time spent up to now is      659.6 secs

     total energy              =     -23.79355485 Ry
     estimated scf accuracy    <       0.00001075 Ry

     iteration #  5     ecut=    60.00 Ry     beta= 0.20
     Davidson diagonalization with overlap
     ethr =  1.34E-07,  avg # of iterations =  1.0

     negative rho (up, down):  3.141E-04 0.000E+00

     total cpu time spent up to now is      671.0 secs

     total energy              =     -23.79354794 Ry
     estimated scf accuracy    <       0.00000833 Ry

     iteration #  6     ecut=    60.00 Ry     beta= 0.20
     Davidson diagonalization with overlap
     ethr =  1.04E-07,  avg # of iterations =  4.0

     negative rho (up, down):  3.420E-04 0.000E+00

     total cpu time spent up to now is      682.3 secs

     total energy              =     -23.79355186 Ry
     estimated scf accuracy    <       0.00000426 Ry

     iteration #  7     ecut=    60.00 Ry     beta= 0.20
     Davidson diagonalization with overlap
     ethr =  5.32E-08,  avg # of iterations =  1.0

     negative rho (up, down):  3.274E-04 0.000E+00

     total cpu time spent up to now is      693.6 secs

     total energy              =     -23.79355195 Ry
     estimated scf accuracy    <       0.00000362 Ry

     iteration #  8     ecut=    60.00 Ry     beta= 0.20
     Davidson diagonalization with overlap
     ethr =  4.53E-08,  avg # of iterations =  1.0

     negative rho (up, down):  2.908E-04 0.000E+00

     total cpu time spent up to now is      705.0 secs

     total energy              =     -23.79355212 Ry
     estimated scf accuracy    <       0.00000466 Ry

     iteration #  9     ecut=    60.00 Ry     beta= 0.20
     Davidson diagonalization with overlap
     ethr =  4.53E-08,  avg # of iterations =  1.0

     negative rho (up, down):  1.946E-04 0.000E+00

     total cpu time spent up to now is      716.4 secs

     total energy              =     -23.79355279 Ry
     estimated scf accuracy    <       0.00000458 Ry

     iteration # 10     ecut=    60.00 Ry     beta= 0.20
     Davidson diagonalization with overlap
     ethr =  4.53E-08,  avg # of iterations =  1.0

     negative rho (up, down):  2.030E-04 0.000E+00

     total cpu time spent up to now is      727.9 secs

     total energy              =     -23.79355273 Ry
     estimated scf accuracy    <       0.00000419 Ry

     iteration # 11     ecut=    60.00 Ry     beta= 0.20
     Davidson diagonalization with overlap
     ethr =  4.53E-08,  avg # of iterations =  1.0

     negative rho (up, down):  2.721E-04 0.000E+00

     total cpu time spent up to now is      739.2 secs

     total energy              =     -23.79355234 Ry
     estimated scf accuracy    <       0.00000336 Ry

     iteration # 12     ecut=    60.00 Ry     beta= 0.20
     Davidson diagonalization with overlap
     ethr =  4.20E-08,  avg # of iterations =  2.0

     negative rho (up, down):  1.676E-04 0.000E+00

     total cpu time spent up to now is      750.7 secs

     total energy              =     -23.79355262 Ry
     estimated scf accuracy    <       0.00000007 Ry

     iteration # 13     ecut=    60.00 Ry     beta= 0.20
     Davidson diagonalization with overlap
     ethr =  9.02E-10,  avg # of iterations =  3.0

     negative rho (up, down):  1.303E-04 0.000E+00

     total cpu time spent up to now is      762.7 secs

     total energy              =     -23.79355284 Ry
     estimated scf accuracy    <       0.00000085 Ry

     iteration # 14     ecut=    60.00 Ry     beta= 0.20
     Davidson diagonalization with overlap
     ethr =  9.02E-10,  avg # of iterations =  4.0

     negative rho (up, down):  1.180E-04 0.000E+00

     total cpu time spent up to now is      774.3 secs

     total energy              =     -23.79355285 Ry
     estimated scf accuracy    <       0.00000004 Ry

     iteration # 15     ecut=    60.00 Ry     beta= 0.20
     Davidson diagonalization with overlap
     ethr =  4.40E-10,  avg # of iterations =  3.0

     negative rho (up, down):  1.187E-04 0.000E+00

     total cpu time spent up to now is      785.8 secs

     total energy              =     -23.79355302 Ry
     estimated scf accuracy    <       0.00000002 Ry

     iteration # 16     ecut=    60.00 Ry     beta= 0.20
     Davidson diagonalization with overlap
     ethr =  3.06E-10,  avg # of iterations =  1.0

     negative rho (up, down):  1.266E-04 0.000E+00

     total cpu time spent up to now is      797.5 secs

     total energy              =     -23.79355315 Ry
     estimated scf accuracy    <       0.00000006 Ry

     iteration # 17     ecut=    60.00 Ry     beta= 0.20
     Davidson diagonalization with overlap
     ethr =  3.06E-10,  avg # of iterations =  1.0

     negative rho (up, down):  1.130E-04 0.000E+00

     total cpu time spent up to now is      809.2 secs

     total energy              =     -23.79355237 Ry
     estimated scf accuracy    <       0.00000007 Ry

     iteration # 18     ecut=    60.00 Ry     beta= 0.20
     Davidson diagonalization with overlap
     ethr =  3.06E-10,  avg # of iterations =  4.0

     negative rho (up, down):  1.119E-04 0.000E+00

     total cpu time spent up to now is      820.8 secs

     total energy              =     -23.79355238 Ry
     estimated scf accuracy    <       0.00000002 Ry

     iteration # 19     ecut=    60.00 Ry     beta= 0.20
     Davidson diagonalization with overlap
     ethr =  1.94E-10,  avg # of iterations =  1.0

     negative rho (up, down):  1.000E-04 0.000E+00

     total cpu time spent up to now is      832.7 secs

     total energy              =     -23.79355230 Ry
     estimated scf accuracy    <          5.9E-09 Ry

     iteration # 20     ecut=    60.00 Ry     beta= 0.20
     Davidson diagonalization with overlap
     ethr =  7.42E-11,  avg # of iterations =  1.0

     negative rho (up, down):  9.912E-05 0.000E+00

     total cpu time spent up to now is      844.7 secs

     total energy              =     -23.79355249 Ry
     estimated scf accuracy    <       0.00000001 Ry

     iteration # 21     ecut=    60.00 Ry     beta= 0.20
     Davidson diagonalization with overlap
     ethr =  7.42E-11,  avg # of iterations =  3.0

     negative rho (up, down):  1.121E-04 0.000E+00

     total cpu time spent up to now is      856.7 secs

     End of self-consistent calculation

          k = 0.0000 0.0000 0.0000 (178925 PWs)   bands (ev):

   -21.1427 -11.2524 -11.2524  -6.2594  -0.9308   0.0572   0.3218   0.3228

     the Fermi energy is    -4.3633 ev

!    total energy              =     -23.79355256 Ry
     estimated scf accuracy    <          5.6E-10 Ry
     smearing contrib. (-TS)   =       0.00000000 Ry
     internal energy E=F+TS    =     -23.79355256 Ry

     The total energy is F=E-TS. E is the sum of the following terms:
     one-electron contribution =     -56.59584124 Ry
     hartree contribution      =      29.34577690 Ry
     xc contribution           =      -7.59627986 Ry
     ewald contribution        =      11.05279164 Ry

     convergence has been achieved in  21 iterations

     negative rho (up, down):  1.121E-04 0.000E+00

     Forces acting on atoms (cartesian axes, Ry/au):

     atom    1 type  1   force =     0.00000000    0.00000047   -0.00319904
     atom    2 type  2   force =     0.00000000   -0.00035191    0.00106725
     atom    3 type  2   force =    -0.00030422    0.00017572    0.00106590
     atom    4 type  2   force =     0.00030422    0.00017572    0.00106590

     Total force =     0.003744     Total SCF correction =     0.000015


     Computing stress (Cartesian axis) and pressure


     negative rho (up, down):  1.121E-04 0.000E+00
          total   stress  (Ry/bohr**3)                   (kbar)     P=       -0.03
  -0.00000014   0.00000000   0.00000000           -0.02        0.00        0.00
   0.00000000  -0.00000014   0.00000000            0.00       -0.02        0.00
   0.00000000   0.00000000  -0.00000023            0.00        0.00       -0.03

     Energy error            =      1.8E-04 Ry
     Gradient error          =      3.2E-03 Ry/Bohr

     number of scf cycles    =   2
     number of bfgs steps    =   1

     energy             old  =     -23.7933769409 Ry
     energy             new  =     -23.7935525600 Ry

     CASE: energy            _new < energy            _old

     new trust radius        =       0.0027235601 bohr
     new conv_thr            =       0.0000000002 Ry


ATOMIC_POSITIONS (angstrom)
N                7.5000000000        7.2650668540        7.6970673651
H                7.5000000000        8.2100865192        7.3048793533
H                8.3184111387        6.7925578134        7.3048781408
H                6.6815888613        6.7925578134        7.3048781408



     Writing config-only to output data dir ./outdir/gas_nh3.save/ :
     XML data file
     NEW-OLD atomic charge density approx. for the potential

     negative rho (up, down):  1.122E-04 0.000E+00

     total cpu time spent up to now is      951.3 secs

     Self-consistent Calculation

     iteration #  1     ecut=    60.00 Ry     beta= 0.20
     Davidson diagonalization with overlap
     ethr =  1.00E-06,  avg # of iterations =  2.0

     Threshold (ethr) on eigenvalues was too large:
     Diagonalizing with lowered threshold

     Davidson diagonalization with overlap
     ethr =  3.77E-08,  avg # of iterations =  2.0

     negative rho (up, down):  9.516E-05 0.000E+00

     total cpu time spent up to now is      963.2 secs

     total energy              =     -23.79356164 Ry
     estimated scf accuracy    <       0.00000405 Ry

     iteration #  2     ecut=    60.00 Ry     beta= 0.20
     Davidson diagonalization with overlap
     ethr =  5.06E-08,  avg # of iterations =  1.0

     negative rho (up, down):  5.756E-05 0.000E+00

     total cpu time spent up to now is      974.9 secs

     total energy              =     -23.79356083 Ry
     estimated scf accuracy    <       0.00000229 Ry

     iteration #  3     ecut=    60.00 Ry     beta= 0.20
     Davidson diagonalization with overlap
     ethr =  2.86E-08,  avg # of iterations =  2.0

     negative rho (up, down):  6.721E-05 0.000E+00

     total cpu time spent up to now is      986.4 secs

     total energy              =     -23.79356134 Ry
     estimated scf accuracy    <       0.00000022 Ry

     iteration #  4     ecut=    60.00 Ry     beta= 0.20
     Davidson diagonalization with overlap
     ethr =  2.75E-09,  avg # of iterations =  2.0

     negative rho (up, down):  8.803E-05 0.000E+00

     total cpu time spent up to now is      997.8 secs

     total energy              =     -23.79356102 Ry
     estimated scf accuracy    <       0.00000014 Ry

     iteration #  5     ecut=    60.00 Ry     beta= 0.20
     Davidson diagonalization with overlap
     ethr =  1.70E-09,  avg # of iterations =  4.0

     negative rho (up, down):  8.028E-05 0.000E+00

     total cpu time spent up to now is     1009.5 secs

     total energy              =     -23.79356104 Ry
     estimated scf accuracy    <       0.00000029 Ry

     iteration #  6     ecut=    60.00 Ry     beta= 0.20
     Davidson diagonalization with overlap
     ethr =  1.70E-09,  avg # of iterations =  2.0

     negative rho (up, down):  8.337E-05 0.000E+00

     total cpu time spent up to now is     1021.0 secs

     total energy              =     -23.79356108 Ry
     estimated scf accuracy    <       0.00000002 Ry

     iteration #  7     ecut=    60.00 Ry     beta= 0.20
     Davidson diagonalization with overlap
     ethr =  1.93E-10,  avg # of iterations =  4.0

     negative rho (up, down):  9.602E-05 0.000E+00

     total cpu time spent up to now is     1032.7 secs

     total energy              =     -23.79356107 Ry
     estimated scf accuracy    <          4.2E-09 Ry

     iteration #  8     ecut=    60.00 Ry     beta= 0.20
     Davidson diagonalization with overlap
     ethr =  5.22E-11,  avg # of iterations =  3.0

     negative rho (up, down):  1.006E-04 0.000E+00

     total cpu time spent up to now is     1044.5 secs

     total energy              =     -23.79356111 Ry
     estimated scf accuracy    <          2.3E-09 Ry

     iteration #  9     ecut=    60.00 Ry     beta= 0.20
     Davidson diagonalization with overlap
     ethr =  2.90E-11,  avg # of iterations =  1.0

     negative rho (up, down):  1.059E-04 0.000E+00

     total cpu time spent up to now is     1056.1 secs

     total energy              =     -23.79356121 Ry
     estimated scf accuracy    <          1.2E-09 Ry

     iteration # 10     ecut=    60.00 Ry     beta= 0.20
     Davidson diagonalization with overlap
     ethr =  1.45E-11,  avg # of iterations =  2.0

     negative rho (up, down):  1.124E-04 0.000E+00

     total cpu time spent up to now is     1067.8 secs

     End of self-consistent calculation

          k = 0.0000 0.0000 0.0000 (178925 PWs)   bands (ev):

   -21.1462 -11.2616 -11.2615  -6.2526  -0.9286   0.0576   0.3220   0.3229

     the Fermi energy is    -4.3641 ev

!    total energy              =     -23.79356120 Ry
     estimated scf accuracy    <          8.4E-11 Ry
     smearing contrib. (-TS)   =       0.00000000 Ry
     internal energy E=F+TS    =     -23.79356120 Ry

     The total energy is F=E-TS. E is the sum of the following terms:
     one-electron contribution =     -56.61695989 Ry
     hartree contribution      =      29.35644462 Ry
     xc contribution           =      -7.59816300 Ry
     ewald contribution        =      11.06511708 Ry

     convergence has been achieved in  10 iterations

     negative rho (up, down):  1.124E-04 0.000E+00

     Forces acting on atoms (cartesian axes, Ry/au):

     atom    1 type  1   force =     0.00000000   -0.00000083   -0.00161218
     atom    2 type  2   force =     0.00000000    0.00055207    0.00053798
     atom    3 type  2   force =     0.00047761   -0.00027562    0.00053710
     atom    4 type  2   force =    -0.00047761   -0.00027562    0.00053710

     Total force =     0.002092     Total SCF correction =     0.000015


     Computing stress (Cartesian axis) and pressure


     negative rho (up, down):  1.124E-04 0.000E+00
          total   stress  (Ry/bohr**3)                   (kbar)     P=       -0.01
  -0.00000004   0.00000000   0.00000000           -0.01        0.00        0.00
   0.00000000  -0.00000004  -0.00000000            0.00       -0.01       -0.00
   0.00000000  -0.00000000  -0.00000018            0.00       -0.00       -0.03

     Energy error            =      8.6E-06 Ry
     Gradient error          =      1.6E-03 Ry/Bohr

     number of scf cycles    =   3
     number of bfgs steps    =   2

     energy             old  =     -23.7935525600 Ry
     energy             new  =     -23.7935612008 Ry

     CASE: energy            _new < energy            _old

     new trust radius        =       0.0042718416 bohr
     new conv_thr            =            1.0E-11 Ry


ATOMIC_POSITIONS (angstrom)
N                7.5000000000        7.2650661171        7.6948068041
H                7.5000000000        8.2107527992        7.3056337078
H                8.3189877746        6.7922250418        7.3056312441
H                6.6810122254        6.7922250418        7.3056312441



     Writing config-only to output data dir ./outdir/gas_nh3.save/ :
     XML data file
     NEW-OLD atomic charge density approx. for the potential

     negative rho (up, down):  1.123E-04 0.000E+00

     total cpu time spent up to now is     1159.8 secs

     Self-consistent Calculation

     iteration #  1     ecut=    60.00 Ry     beta= 0.20
     Davidson diagonalization with overlap
     ethr =  1.00E-06,  avg # of iterations =  3.0

     Threshold (ethr) on eigenvalues was too large:
     Diagonalizing with lowered threshold

     Davidson diagonalization with overlap
     ethr =  6.40E-08,  avg # of iterations =  3.0

     negative rho (up, down):  9.524E-05 0.000E+00

     total cpu time spent up to now is     1171.9 secs

     total energy              =     -23.79356906 Ry
     estimated scf accuracy    <       0.00000374 Ry

     iteration #  2     ecut=    60.00 Ry     beta= 0.20
     Davidson diagonalization with overlap
     ethr =  4.68E-08,  avg # of iterations =  1.0

     negative rho (up, down):  6.770E-05 0.000E+00

     total cpu time spent up to now is     1183.8 secs

     total energy              =     -23.79356864 Ry
     estimated scf accuracy    <       0.00000193 Ry

     iteration #  3     ecut=    60.00 Ry     beta= 0.20
     Davidson diagonalization with overlap
     ethr =  2.41E-08,  avg # of iterations =  2.0

     negative rho (up, down):  7.754E-05 0.000E+00

     total cpu time spent up to now is     1195.6 secs

     total energy              =     -23.79356877 Ry
     estimated scf accuracy    <       0.00000019 Ry

     iteration #  4     ecut=    60.00 Ry     beta= 0.20
     Davidson diagonalization with overlap
     ethr =  2.43E-09,  avg # of iterations =  2.0

     negative rho (up, down):  8.964E-05 0.000E+00

     total cpu time spent up to now is     1207.7 secs

     total energy              =     -23.79356866 Ry
     estimated scf accuracy    <       0.00000004 Ry

     iteration #  5     ecut=    60.00 Ry     beta= 0.20
     Davidson diagonalization with overlap
     ethr =  4.41E-10,  avg # of iterations =  2.0

     negative rho (up, down):  9.288E-05 0.000E+00

     total cpu time spent up to now is     1219.4 secs

     total energy              =     -23.79356870 Ry
     estimated scf accuracy    <          9.4E-09 Ry

     iteration #  6     ecut=    60.00 Ry     beta= 0.20
     Davidson diagonalization with overlap
     ethr =  1.17E-10,  avg # of iterations =  1.0

     negative rho (up, down):  1.029E-04 0.000E+00

     total cpu time spent up to now is     1231.1 secs

     total energy              =     -23.79356878 Ry
     estimated scf accuracy    <          4.5E-09 Ry

     iteration #  7     ecut=    60.00 Ry     beta= 0.20
     Davidson diagonalization with overlap
     ethr =  5.61E-11,  avg # of iterations =  2.0

     negative rho (up, down):  1.053E-04 0.000E+00

     total cpu time spent up to now is     1243.1 secs

     total energy              =     -23.79356882 Ry
     estimated scf accuracy    <          5.4E-10 Ry

     iteration #  8     ecut=    60.00 Ry     beta= 0.20
     Davidson diagonalization with overlap
     ethr =  6.81E-12,  avg # of iterations =  2.0

     negative rho (up, down):  1.071E-04 0.000E+00

     total cpu time spent up to now is     1254.8 secs

     total energy              =     -23.79356890 Ry
     estimated scf accuracy    <          3.2E-10 Ry

     iteration #  9     ecut=    60.00 Ry     beta= 0.20
     Davidson diagonalization with overlap
     ethr =  3.99E-12,  avg # of iterations =  2.0

     negative rho (up, down):  1.109E-04 0.000E+00

     total cpu time spent up to now is     1266.5 secs

     total energy              =     -23.79356892 Ry
     estimated scf accuracy    <          1.4E-10 Ry

     iteration # 10     ecut=    60.00 Ry     beta= 0.20
     Davidson diagonalization with overlap
     ethr =  1.77E-12,  avg # of iterations =  2.0

     negative rho (up, down):  1.124E-04 0.000E+00

     total cpu time spent up to now is     1278.5 secs

     total energy              =     -23.79356889 Ry
     estimated scf accuracy    <          3.5E-11 Ry

     iteration # 11     ecut=    60.00 Ry     beta= 0.20
     Davidson diagonalization with overlap
     ethr =  4.35E-13,  avg # of iterations =  2.0

     negative rho (up, down):  1.126E-04 0.000E+00

     total cpu time spent up to now is     1290.2 secs

     total energy              =     -23.79356889 Ry
     estimated scf accuracy    <          2.6E-11 Ry

     iteration # 12     ecut=    60.00 Ry     beta= 0.20
     Davidson diagonalization with overlap
     ethr =  3.31E-13,  avg # of iterations =  2.0

     negative rho (up, down):  1.125E-04 0.000E+00

     total cpu time spent up to now is     1301.9 secs

     End of self-consistent calculation

          k = 0.0000 0.0000 0.0000 (178925 PWs)   bands (ev):

   -21.1436 -11.2716 -11.2716  -6.2406  -0.9264   0.0579   0.3221   0.3231

     the Fermi energy is    -4.3633 ev

!    total energy              =     -23.79356888 Ry
     estimated scf accuracy    <          8.7E-12 Ry
     smearing contrib. (-TS)   =       0.00000000 Ry
     internal energy E=F+TS    =     -23.79356888 Ry

     The total energy is F=E-TS. E is the sum of the following terms:
     one-electron contribution =     -56.62885925 Ry
     hartree contribution      =      29.36272546 Ry
     xc contribution           =      -7.59931169 Ry
     ewald contribution        =      11.07187660 Ry

     convergence has been achieved in  12 iterations

     negative rho (up, down):  1.125E-04 0.000E+00

     Forces acting on atoms (cartesian axes, Ry/au):

     atom    1 type  1   force =     0.00000000    0.00000089   -0.00013629
     atom    2 type  2   force =     0.00000000    0.00083842    0.00004647
     atom    3 type  2   force =     0.00072686   -0.00041966    0.00004491
     atom    4 type  2   force =    -0.00072686   -0.00041966    0.00004491

     Total force =     0.001462     Total SCF correction =     0.000003


     Computing stress (Cartesian axis) and pressure


     negative rho (up, down):  1.125E-04 0.000E+00
          total   stress  (Ry/bohr**3)                   (kbar)     P=       -0.01
  -0.00000000   0.00000000   0.00000000           -0.00        0.00        0.00
   0.00000000  -0.00000000   0.00000000            0.00       -0.00        0.00
   0.00000000   0.00000000  -0.00000013            0.00        0.00       -0.02

     Energy error            =      7.7E-06 Ry
     Gradient error          =      8.4E-04 Ry/Bohr

     number of scf cycles    =   4
     number of bfgs steps    =   3

     energy             old  =     -23.7935612008 Ry
     energy             new  =     -23.7935688752 Ry

     CASE: energy            _new < energy            _old

     new trust radius        =       0.0026991912 bohr
     new conv_thr            =            1.0E-11 Ry


ATOMIC_POSITIONS (angstrom)
N                7.5000000000        7.2650667967        7.6933784538
H                7.5000000000        8.2115918749        7.3061111158
H                8.3197151183        6.7918051642        7.3061067152
H                6.6802848817        6.7918051642        7.3061067152



     Writing config-only to output data dir ./outdir/gas_nh3.save/ :
     XML data file
     NEW-OLD atomic charge density approx. for the potential

     negative rho (up, down):  1.124E-04 0.000E+00

     total cpu time spent up to now is     1394.5 secs

     Self-consistent Calculation

     iteration #  1     ecut=    60.00 Ry     beta= 0.20
     Davidson diagonalization with overlap
     ethr =  1.00E-06,  avg # of iterations =  2.0

     Threshold (ethr) on eigenvalues was too large:
     Diagonalizing with lowered threshold

     Davidson diagonalization with overlap
     ethr =  1.58E-08,  avg # of iterations =  4.0

     negative rho (up, down):  1.078E-04 0.000E+00

     total cpu time spent up to now is     1406.5 secs

     total energy              =     -23.79357167 Ry
     estimated scf accuracy    <       0.00000076 Ry

     iteration #  2     ecut=    60.00 Ry     beta= 0.20
     Davidson diagonalization with overlap
     ethr =  9.55E-09,  avg # of iterations =  1.0

     negative rho (up, down):  9.749E-05 0.000E+00

     total cpu time spent up to now is     1418.2 secs

     total energy              =     -23.79357162 Ry
     estimated scf accuracy    <       0.00000045 Ry

     iteration #  3     ecut=    60.00 Ry     beta= 0.20
     Davidson diagonalization with overlap
     ethr =  5.61E-09,  avg # of iterations =  2.0

     negative rho (up, down):  9.882E-05 0.000E+00

     total cpu time spent up to now is     1430.1 secs

     total energy              =     -23.79357167 Ry
     estimated scf accuracy    <       0.00000003 Ry

     iteration #  4     ecut=    60.00 Ry     beta= 0.20
     Davidson diagonalization with overlap
     ethr =  4.05E-10,  avg # of iterations =  1.0

     negative rho (up, down):  1.034E-04 0.000E+00

     total cpu time spent up to now is     1441.8 secs

     total energy              =     -23.79357167 Ry
     estimated scf accuracy    <          8.7E-09 Ry

     iteration #  5     ecut=    60.00 Ry     beta= 0.20
     Davidson diagonalization with overlap
     ethr =  1.09E-10,  avg # of iterations =  2.0

     negative rho (up, down):  1.051E-04 0.000E+00

     total cpu time spent up to now is     1453.7 secs

     total energy              =     -23.79357167 Ry
     estimated scf accuracy    <          1.2E-09 Ry

     iteration #  6     ecut=    60.00 Ry     beta= 0.20
     Davidson diagonalization with overlap
     ethr =  1.55E-11,  avg # of iterations =  2.0

     negative rho (up, down):  1.086E-04 0.000E+00

     total cpu time spent up to now is     1465.7 secs

     total energy              =     -23.79357167 Ry
     estimated scf accuracy    <          5.5E-10 Ry

     iteration #  7     ecut=    60.00 Ry     beta= 0.20
     Davidson diagonalization with overlap
     ethr =  6.89E-12,  avg # of iterations =  2.0

     negative rho (up, down):  1.088E-04 0.000E+00

     total cpu time spent up to now is     1477.2 secs

     total energy              =     -23.79357168 Ry
     estimated scf accuracy    <          1.3E-10 Ry

     iteration #  8     ecut=    60.00 Ry     beta= 0.20
     Davidson diagonalization with overlap
     ethr =  1.65E-12,  avg # of iterations =  1.0

     negative rho (up, down):  1.111E-04 0.000E+00

     total cpu time spent up to now is     1488.7 secs

     total energy              =     -23.79357170 Ry
     estimated scf accuracy    <          9.3E-11 Ry

     iteration #  9     ecut=    60.00 Ry     beta= 0.20
     Davidson diagonalization with overlap
     ethr =  1.16E-12,  avg # of iterations =  2.0

     negative rho (up, down):  1.118E-04 0.000E+00

     total cpu time spent up to now is     1500.3 secs

     total energy              =     -23.79357170 Ry
     estimated scf accuracy    <          1.7E-11 Ry

     iteration # 10     ecut=    60.00 Ry     beta= 0.20
     Davidson diagonalization with overlap
     ethr =  2.15E-13,  avg # of iterations =  2.0

     negative rho (up, down):  1.125E-04 0.000E+00

     total cpu time spent up to now is     1511.9 secs

     total energy              =     -23.79357170 Ry
     estimated scf accuracy    <          1.1E-11 Ry

     iteration # 11     ecut=    60.00 Ry     beta= 0.20
     Davidson diagonalization with overlap
     ethr =  1.42E-13,  avg # of iterations =  2.0

     negative rho (up, down):  1.125E-04 0.000E+00

     total cpu time spent up to now is     1523.1 secs

     End of self-consistent calculation

          k = 0.0000 0.0000 0.0000 (178925 PWs)   bands (ev):

   -21.1374 -11.2756 -11.2756  -6.2322  -0.9258   0.0580   0.3219   0.3229

     the Fermi energy is    -4.3619 ev

!    total energy              =     -23.79357169 Ry
     estimated scf accuracy    <          3.4E-12 Ry
     smearing contrib. (-TS)   =       0.00000000 Ry
     internal energy E=F+TS    =     -23.79357169 Ry

     The total energy is F=E-TS. E is the sum of the following terms:
     one-electron contribution =     -56.62493878 Ry
     hartree contribution      =      29.36107759 Ry
     xc contribution           =      -7.59906252 Ry
     ewald contribution        =      11.06935202 Ry

     convergence has been achieved in  11 iterations

     negative rho (up, down):  1.125E-04 0.000E+00

     Forces acting on atoms (cartesian axes, Ry/au):

     atom    1 type  1   force =     0.00000000   -0.00000280    0.00025736
     atom    2 type  2   force =     0.00000000    0.00040221   -0.00008577
     atom    3 type  2   force =     0.00034619   -0.00019971   -0.00008579
     atom    4 type  2   force =    -0.00034619   -0.00019971   -0.00008579

     Total force =     0.000755     Total SCF correction =     0.000004


     Computing stress (Cartesian axis) and pressure


     negative rho (up, down):  1.125E-04 0.000E+00
          total   stress  (Ry/bohr**3)                   (kbar)     P=       -0.01
  -0.00000005   0.00000000   0.00000000           -0.01        0.00        0.00
   0.00000000  -0.00000005  -0.00000000            0.00       -0.01       -0.00
   0.00000000  -0.00000000  -0.00000012            0.00       -0.00       -0.02

     Energy error            =      2.8E-06 Ry
     Gradient error          =      4.0E-04 Ry/Bohr

     number of scf cycles    =   5
     number of bfgs steps    =   4

     energy             old  =     -23.7935688752 Ry
     energy             new  =     -23.7935716874 Ry

     CASE: energy            _new < energy            _old

     new trust radius        =       0.0005990571 bohr
     new conv_thr            =            1.0E-11 Ry


ATOMIC_POSITIONS (angstrom)
N                7.5000000000        7.2650650022        7.6931609168
H                7.5000000000        8.2119004342        7.3061838128
H                8.3199810001        6.7916517818        7.3061791352
H                6.6800189999        6.7916517818        7.3061791352



     Writing config-only to output data dir ./outdir/gas_nh3.save/ :
     XML data file
     NEW-OLD atomic charge density approx. for the potential

     negative rho (up, down):  1.125E-04 0.000E+00

     total cpu time spent up to now is     1614.5 secs

     Self-consistent Calculation

     iteration #  1     ecut=    60.00 Ry     beta= 0.20
     Davidson diagonalization with overlap
     ethr =  1.00E-06,  avg # of iterations =  2.0

     Threshold (ethr) on eigenvalues was too large:
     Diagonalizing with lowered threshold

     Davidson diagonalization with overlap
     ethr =  6.27E-10,  avg # of iterations =  4.0

     negative rho (up, down):  1.142E-04 0.000E+00

     total cpu time spent up to now is     1626.6 secs

     total energy              =     -23.79357206 Ry
     estimated scf accuracy    <       0.00000015 Ry

     iteration #  2     ecut=    60.00 Ry     beta= 0.20
     Davidson diagonalization with overlap
     ethr =  1.82E-09,  avg # of iterations =  1.0

     negative rho (up, down):  1.201E-04 0.000E+00

     total cpu time spent up to now is     1638.2 secs

     total energy              =     -23.79357198 Ry
     estimated scf accuracy    <       0.00000009 Ry

     iteration #  3     ecut=    60.00 Ry     beta= 0.20
     Davidson diagonalization with overlap
     ethr =  1.09E-09,  avg # of iterations =  2.0

     negative rho (up, down):  1.180E-04 0.000E+00

     total cpu time spent up to now is     1649.8 secs

     total energy              =     -23.79357203 Ry
     estimated scf accuracy    <          6.6E-09 Ry

     iteration #  4     ecut=    60.00 Ry     beta= 0.20
     Davidson diagonalization with overlap
     ethr =  8.20E-11,  avg # of iterations =  1.0

     negative rho (up, down):  1.147E-04 0.000E+00

     total cpu time spent up to now is     1661.4 secs

     total energy              =     -23.79357207 Ry
     estimated scf accuracy    <          2.9E-09 Ry

     iteration #  5     ecut=    60.00 Ry     beta= 0.20
     Davidson diagonalization with overlap
     ethr =  3.67E-11,  avg # of iterations =  3.0

     negative rho (up, down):  1.160E-04 0.000E+00

     total cpu time spent up to now is     1673.1 secs

     total energy              =     -23.79357205 Ry
     estimated scf accuracy    <          8.2E-09 Ry

     iteration #  6     ecut=    60.00 Ry     beta= 0.20
     Davidson diagonalization with overlap
     ethr =  3.67E-11,  avg # of iterations =  4.0

     negative rho (up, down):  1.156E-04 0.000E+00

     total cpu time spent up to now is     1684.7 secs

     total energy              =     -23.79357206 Ry
     estimated scf accuracy    <          1.2E-10 Ry

     iteration #  7     ecut=    60.00 Ry     beta= 0.20
     Davidson diagonalization with overlap
     ethr =  1.53E-12,  avg # of iterations =  4.0

     negative rho (up, down):  1.137E-04 0.000E+00

     total cpu time spent up to now is     1697.3 secs

     total energy              =     -23.79357206 Ry
     estimated scf accuracy    <          1.3E-10 Ry

     iteration #  8     ecut=    60.00 Ry     beta= 0.20
     Davidson diagonalization with overlap
     ethr =  1.53E-12,  avg # of iterations =  2.0

     negative rho (up, down):  1.133E-04 0.000E+00

     total cpu time spent up to now is     1709.1 secs

     total energy              =     -23.79357205 Ry
     estimated scf accuracy    <          2.5E-11 Ry

     iteration #  9     ecut=    60.00 Ry     beta= 0.20
     Davidson diagonalization with overlap
     ethr =  3.08E-13,  avg # of iterations =  2.0

     negative rho (up, down):  1.127E-04 0.000E+00

     total cpu time spent up to now is     1721.1 secs

     total energy              =     -23.79357204 Ry
     estimated scf accuracy    <          1.3E-11 Ry

     iteration # 10     ecut=    60.00 Ry     beta= 0.20
     Davidson diagonalization with overlap
     ethr =  1.66E-13,  avg # of iterations =  2.0

     negative rho (up, down):  1.125E-04 0.000E+00

     total cpu time spent up to now is     1732.7 secs

     End of self-consistent calculation

          k = 0.0000 0.0000 0.0000 (178925 PWs)   bands (ev):

   -21.1345 -11.2752 -11.2752  -6.2306  -0.9261   0.0580   0.3218   0.3228

     the Fermi energy is    -4.3613 ev

!    total energy              =     -23.79357205 Ry
     estimated scf accuracy    <          2.8E-12 Ry
     smearing contrib. (-TS)   =       0.00000000 Ry
     internal energy E=F+TS    =     -23.79357205 Ry

     The total energy is F=E-TS. E is the sum of the following terms:
     one-electron contribution =     -56.61947620 Ry
     hartree contribution      =      29.35843759 Ry
     xc contribution           =      -7.59861038 Ry
     ewald contribution        =      11.06607694 Ry

     convergence has been achieved in  10 iterations

     negative rho (up, down):  1.125E-04 0.000E+00

     Forces acting on atoms (cartesian axes, Ry/au):

     atom    1 type  1   force =     0.00000000    0.00000325    0.00009187
     atom    2 type  2   force =     0.00000000    0.00006713   -0.00002897
     atom    3 type  2   force =     0.00006073   -0.00003519   -0.00003145
     atom    4 type  2   force =    -0.00006073   -0.00003519   -0.00003145

     Total force =     0.000160     Total SCF correction =     0.000003


     Computing stress (Cartesian axis) and pressure


     negative rho (up, down):  1.125E-04 0.000E+00
          total   stress  (Ry/bohr**3)                   (kbar)     P=       -0.02
  -0.00000009   0.00000000   0.00000000           -0.01        0.00        0.00
   0.00000000  -0.00000009   0.00000000            0.00       -0.01        0.00
   0.00000000   0.00000000  -0.00000012            0.00        0.00       -0.02

     Energy error            =      3.6E-07 Ry
     Gradient error          =      9.2E-05 Ry/Bohr

     bfgs converged in   6 scf cycles and   5 bfgs steps
     (criteria: energy <  1.0E-05 Ry, force <  1.0E-04 Ry/Bohr)

     End of BFGS Geometry Optimization

     Final energy             =     -23.7935720472 Ry

     File ./outdir/gas_nh3.bfgs deleted, as requested
Begin final coordinates

ATOMIC_POSITIONS (angstrom)
N                7.5000000000        7.2650650022        7.6931609168
H                7.5000000000        8.2119004342        7.3061838128
H                8.3199810001        6.7916517818        7.3061791352
H                6.6800189999        6.7916517818        7.3061791352
End final coordinates



     Writing all to output data dir ./outdir/gas_nh3.save/ :
     XML data file, charge density, pseudopotentials, collected wavefunctions
 
     init_run     :    164.87s CPU     31.81s WALL (       1 calls)
     electrons    :   3305.88s CPU   1239.56s WALL (       6 calls)
     update_pot   :    160.09s CPU     61.23s WALL (       5 calls)
     forces       :    186.92s CPU     68.07s WALL (       6 calls)
     stress       :    633.17s CPU    412.31s WALL (       6 calls)

     Called by init_run:
     wfcinit      :      0.08s CPU      0.18s WALL (       1 calls)
     potinit      :    162.21s CPU     28.65s WALL (       1 calls)
     hinit0       :      0.54s CPU      0.41s WALL (       1 calls)

     Called by electrons:
     c_bands      :     14.43s CPU     14.33s WALL (     110 calls)
     sum_band     :     29.77s CPU     29.76s WALL (     110 calls)
     v_of_rho     :   3463.86s CPU   1242.87s WALL (     112 calls)
     newd         :      5.00s CPU      5.01s WALL (     112 calls)
     mix_rho      :     23.59s CPU     21.37s WALL (     110 calls)
     vdW_kernel   :     12.24s CPU     12.24s WALL (       1 calls)

     Called by c_bands:
     init_us_2    :      0.10s CPU      0.08s WALL (     227 calls)
     cegterg      :     14.28s CPU     14.19s WALL (     110 calls)

     Called by *egterg:
     cdiaghg      :      0.18s CPU      0.21s WALL (     369 calls)
                                        0.20s GPU  (     369 calls)
     h_psi        :      2.21s CPU      2.24s WALL (     379 calls)
     s_psi        :      0.13s CPU      0.14s WALL (     379 calls)
     g_psi        :      0.01s CPU      0.02s WALL (     268 calls)

     Called by h_psi:
     h_psi:calbec :      0.06s CPU      0.15s WALL (     379 calls)
     vloc_psi     :      1.86s CPU      1.80s WALL (     379 calls)
                                        1.80s GPU  (     379 calls)
     add_vuspsi   :      0.28s CPU      0.28s WALL (     379 calls)

     General routines
     calbec       :      0.07s CPU      0.15s WALL (     591 calls)
     fft          :   3082.36s CPU    144.33s WALL (    8067 calls)
                                        2.77s GPU  (    1491 calls)
     ffts         :     31.58s CPU      5.98s WALL (   12508 calls)
                                        4.36s GPU  (   12396 calls)
     fftw         :      0.01s CPU      1.79s WALL (     868 calls)
                                        1.78s GPU  (     868 calls)
     interpolate  :     85.42s CPU      8.31s WALL (     112 calls)
 
 
     PWSCF        :      1h14m CPU  30m14.07s WALL

 
   This run was terminated on:  21:18:40  28Jun2026            

=------------------------------------------------------------------------------=
   JOB DONE.
=------------------------------------------------------------------------------=
