
     Program PWSCF v.7.5 starts on 29Jun2026 at  2:14: 7 

     This program is part of the open-source Quantum ESPRESSO suite
     for quantum simulation of materials; please cite
         "P. Giannozzi et al., J. Phys.:Condens. Matter 21 395502 (2009);
         "P. Giannozzi et al., J. Phys.:Condens. Matter 29 465901 (2017);
         "P. Giannozzi et al., J. Chem. Phys. 152 154105 (2020);
          URL http://www.quantum-espresso.org", 
     in publications or presentations arising from this work. More details at
     http://www.quantum-espresso.org/quote

     Serial multi-threaded version, running on   32 processor cores
     39888 MiB available memory on the printing compute node when the environment starts
 
     Reading input from inputs/slab.in

     Current dimensions of program PWSCF are:
     Max number of different atomic species (ntypx) = 10
     Max number of k-points (npk) =  40000
     Max angular momentum in pseudopotentials (lmaxx) =  4
     file O.pbe-n-kjpaw_psl.0.1.UPF: wavefunction(s)  2P renormalized

     IMPORTANT: XC functional enforced from input :
     Exchange-correlation= VDW-DF2-B86R
                           (   1   4  26   0   2   0   0)
     Any further DFT definition will be discarded
     Please, verify this is what you really want

     Found identity + (  0.0000  0.3333  0.0000) symmetry
     This is a supercell, fractional translations are disabled
     Message from routine setup:
     using ibrav=0 with symmetry is DISCOURAGED, use correct ibrav instead
 
 
     G-vector sticks info
     --------------------
     sticks:   dense  smooth     PW     G-vecs:    dense   smooth      PW
     Sum       21075    8435   2225              5471751  1384309  187627
 
     Using Slab Decomposition
 


     bravais-lattice index     =            0
     lattice parameter (alat)  =      21.9714  a.u.
     unit-cell volume          =   22047.4968 (a.u.)^3
     number of atoms/cell      =           84
     number of atomic types    =            2
     number of electrons       =       672.00
     number of Kohn-Sham states=          403
     kinetic-energy cutoff     =      60.0000  Ry
     charge density cutoff     =     600.0000  Ry
     scf convergence threshold =      1.0E-09
     mixing beta               =       0.2000
     number of iterations used =            8  local-TF  mixing
     energy convergence thresh.=      1.0E-05
     force convergence thresh. =      1.0E-04
     Exchange-correlation= VDW-DF2-B86R
                           (   1   4  26   0   2   0   0)
     nstep                     =          200


     GPU acceleration is ACTIVE.  1 visible GPUs per MPI rank


     Effective Screening Medium Method
     =================================
     Boundary Conditions: Vacuum-Slab-Vacuum
     total charge in unit cell        =   0.0000
     grid points for fit at edges     =        4 
 

     celldm(1)=  21.971370  celldm(2)=   0.000000  celldm(3)=   0.000000
     celldm(4)=   0.000000  celldm(5)=   0.000000  celldm(6)=   0.000000

     crystal axes: (cart. coord. in units of alat)
               a(1) = (   1.000000   0.000000   0.000000 )  
               a(2) = (   0.000000   0.914213   0.000000 )  
               a(3) = (   0.000000   0.000000   2.273739 )  

     reciprocal axes: (cart. coord. in units 2 pi/alat)
               b(1) = (  1.000000  0.000000  0.000000 )  
               b(2) = (  0.000000  1.093837  0.000000 )  
               b(3) = (  0.000000  0.000000  0.439804 )  


     PseudoPot. # 1 for V  read from file:
     /home/x/Workspace/3-hEspesso/pseudo/v_pbe_v1.4.uspp.F.UPF
     MD5 check sum: 22b79981416ebb76fdaf5b1b8640f6fb
     Pseudo is Ultrasoft + core correction, Zval = 13.0
     Generated by new atomic code, or converted to UPF format
     Using radial grid of  853 points,  6 beta functions with: 
                l(1) =   0
                l(2) =   0
                l(3) =   1
                l(4) =   1
                l(5) =   2
                l(6) =   2
     Q(r) pseudized with  8 coefficients,  rinner =    1.100   1.100   1.100
                                                       1.100   1.100

     PseudoPot. # 2 for O  read from file:
     /home/x/Workspace/3-hEspesso/pseudo/O.pbe-n-kjpaw_psl.0.1.UPF
     MD5 check sum: 0234752ac141de4415c5fc33072bef88
     Pseudo is Projector augmented-wave + core cor, Zval =  6.0
     Generated using "atomic" code by A. Dal Corso  v.5.0.99 svn rev. 10869
     Shape of augmentation charge: BESSEL
     Using radial grid of 1095 points,  4 beta functions with: 
                l(1) =   0
                l(2) =   0
                l(3) =   1
                l(4) =   1
     Q(r) pseudized with 0 coefficients 


     atomic species   valence    mass     pseudopotential
     V                13.00    50.94150     V ( 1.00)
     O                 6.00    15.99900     O ( 1.00)

      4 Sym. Ops. (no inversion) found



   Cartesian axes

     site n.     atom                  positions (alat units)
         1        V      tau(   1) = (   0.6479172   0.0000000  -0.1436595  )
         2        V      tau(   2) = (   0.8520828   0.1523688  -0.2261385  )
         3        V      tau(   3) = (   0.1479172   0.1523688  -0.2261385  )
         4        V      tau(   4) = (   0.3520828   0.0000000  -0.1436595  )
         5        O      tau(   5) = (   0.6814649   0.1523688  -0.1835463  )
         6        O      tau(   6) = (   0.8185351   0.0000000  -0.1862516  )
         7        O      tau(   7) = (   0.1814649   0.0000000  -0.1862516  )
         8        O      tau(   8) = (   0.3185351   0.1523688  -0.1835463  )
         9        O      tau(   9) = (   0.3540723   0.0000000  -0.0070055  )
        10        O      tau(  10) = (   0.1459277   0.1523688  -0.3627925  )
        11        O      tau(  11) = (   0.8540723   0.1523688  -0.3627925  )
        12        O      tau(  12) = (   0.0000000   0.1523688  -0.1870818  )
        13        O      tau(  13) = (   0.5000000   0.0000000  -0.1827162  )
        14        O      tau(  14) = (   0.6459277   0.0000000  -0.0070055  )
        15        V      tau(  15) = (   0.6479172   0.0000000   0.2261385  )
        16        V      tau(  16) = (   0.8520828   0.1523688   0.1436595  )
        17        V      tau(  17) = (   0.1479172   0.1523688   0.1436595  )
        18        V      tau(  18) = (   0.3520828   0.0000000   0.2261385  )
        19        O      tau(  19) = (   0.6814649   0.1523688   0.1862516  )
        20        O      tau(  20) = (   0.8185351   0.0000000   0.1835463  )
        21        O      tau(  21) = (   0.1814649   0.0000000   0.1835463  )
        22        O      tau(  22) = (   0.3185351   0.1523688   0.1862516  )
        23        O      tau(  23) = (   0.3540723   0.0000000   0.3627925  )
        24        O      tau(  24) = (   0.1459277   0.1523688   0.0070055  )
        25        O      tau(  25) = (   0.8540723   0.1523688   0.0070055  )
        26        O      tau(  26) = (   0.0000000   0.1523688   0.1827162  )
        27        O      tau(  27) = (   0.5000000   0.0000000   0.1870818  )
        28        O      tau(  28) = (   0.6459277   0.0000000   0.3627925  )
        29        V      tau(  29) = (   0.6479172   0.3047375  -0.1436595  )
        30        V      tau(  30) = (   0.8520828   0.4571063  -0.2261385  )
        31        V      tau(  31) = (   0.1479172   0.4571063  -0.2261385  )
        32        V      tau(  32) = (   0.3520828   0.3047375  -0.1436595  )
        33        O      tau(  33) = (   0.6814649   0.4571063  -0.1835463  )
        34        O      tau(  34) = (   0.8185351   0.3047375  -0.1862516  )
        35        O      tau(  35) = (   0.1814649   0.3047375  -0.1862516  )
        36        O      tau(  36) = (   0.3185351   0.4571063  -0.1835463  )
        37        O      tau(  37) = (   0.3540723   0.3047375  -0.0070055  )
        38        O      tau(  38) = (   0.1459277   0.4571063  -0.3627925  )
        39        O      tau(  39) = (   0.8540723   0.4571063  -0.3627925  )
        40        O      tau(  40) = (   0.0000000   0.4571063  -0.1870818  )
        41        O      tau(  41) = (   0.5000000   0.3047375  -0.1827162  )
        42        O      tau(  42) = (   0.6459277   0.3047375  -0.0070055  )
        43        V      tau(  43) = (   0.6479172   0.3047375   0.2261385  )
        44        V      tau(  44) = (   0.8520828   0.4571063   0.1436595  )
        45        V      tau(  45) = (   0.1479172   0.4571063   0.1436595  )
        46        V      tau(  46) = (   0.3520828   0.3047375   0.2261385  )
        47        O      tau(  47) = (   0.6814649   0.4571063   0.1862516  )
        48        O      tau(  48) = (   0.8185351   0.3047375   0.1835463  )
        49        O      tau(  49) = (   0.1814649   0.3047375   0.1835463  )
        50        O      tau(  50) = (   0.3185351   0.4571063   0.1862516  )
        51        O      tau(  51) = (   0.3540723   0.3047375   0.3627925  )
        52        O      tau(  52) = (   0.1459277   0.4571063   0.0070055  )
        53        O      tau(  53) = (   0.8540723   0.4571063   0.0070055  )
        54        O      tau(  54) = (   0.0000000   0.4571063   0.1827162  )
        55        O      tau(  55) = (   0.5000000   0.3047375   0.1870818  )
        56        O      tau(  56) = (   0.6459277   0.3047375   0.3627925  )
        57        V      tau(  57) = (   0.6479172   0.6094751  -0.1436595  )
        58        V      tau(  58) = (   0.8520828   0.7618438  -0.2261385  )
        59        V      tau(  59) = (   0.1479172   0.7618438  -0.2261385  )
        60        V      tau(  60) = (   0.3520828   0.6094751  -0.1436595  )
        61        O      tau(  61) = (   0.6814649   0.7618438  -0.1835463  )
        62        O      tau(  62) = (   0.8185351   0.6094751  -0.1862516  )
        63        O      tau(  63) = (   0.1814649   0.6094751  -0.1862516  )
        64        O      tau(  64) = (   0.3185351   0.7618438  -0.1835463  )
        65        O      tau(  65) = (   0.3540723   0.6094751  -0.0070055  )
        66        O      tau(  66) = (   0.1459277   0.7618438  -0.3627925  )
        67        O      tau(  67) = (   0.8540723   0.7618438  -0.3627925  )
        68        O      tau(  68) = (   0.0000000   0.7618438  -0.1870818  )
        69        O      tau(  69) = (   0.5000000   0.6094751  -0.1827162  )
        70        O      tau(  70) = (   0.6459277   0.6094751  -0.0070055  )
        71        V      tau(  71) = (   0.6479172   0.6094751   0.2261385  )
        72        V      tau(  72) = (   0.8520828   0.7618438   0.1436595  )
        73        V      tau(  73) = (   0.1479172   0.7618438   0.1436595  )
        74        V      tau(  74) = (   0.3520828   0.6094751   0.2261385  )
        75        O      tau(  75) = (   0.6814649   0.7618438   0.1862516  )
        76        O      tau(  76) = (   0.8185351   0.6094751   0.1835463  )
        77        O      tau(  77) = (   0.1814649   0.6094751   0.1835463  )
        78        O      tau(  78) = (   0.3185351   0.7618438   0.1862516  )
        79        O      tau(  79) = (   0.3540723   0.6094751   0.3627925  )
        80        O      tau(  80) = (   0.1459277   0.7618438   0.0070055  )
        81        O      tau(  81) = (   0.8540723   0.7618438   0.0070055  )
        82        O      tau(  82) = (   0.0000000   0.7618438   0.1827162  )
        83        O      tau(  83) = (   0.5000000   0.6094751   0.1870818  )
        84        O      tau(  84) = (   0.6459277   0.6094751   0.3627925  )

     number of k points=     4  Marzari-Vanderbilt smearing, width (Ry)=  0.0100
                       cart. coord. in units 2pi/alat
        k(    1) = (   0.0000000   0.0000000   0.0000000), wk =   0.5000000
        k(    2) = (   0.0000000  -0.5469187   0.0000000), wk =   0.5000000
        k(    3) = (  -0.5000000   0.0000000   0.0000000), wk =   0.5000000
        k(    4) = (  -0.5000000  -0.5469187   0.0000000), wk =   0.5000000

     Dense  grid:  5471751 G-vectors     FFT dimensions: ( 180, 160, 400)

     Smooth grid:  1384309 G-vectors     FFT dimensions: ( 120, 100, 250)

     Estimated max dynamical RAM per process >      40.40 GB

     Check: negative core charge=   -0.000001

     Initial potential from superposition of free atoms

     starting charge     671.9705, renormalised to     672.0000

     negative rho (up, down):  1.786E-02 0.000E+00


     %%%%%%%%%%%%%%%%%%%%%%%%%%%%%%%%%%%%%%%%%%%%%%%%%%%%%%%%%%%%%%%%%%%%%%%%
     %                                                                      %
     % You are using vdW-DF, which was implemented by the Thonhauser group. %
     % Please cite the following two papers that made this development      %
     % possible and the two reviews that describe the various versions:     %
     %                                                                      %
     %   T. Thonhauser et al., PRL 115, 136402 (2015).                      %
     %   T. Thonhauser et al., PRB 76, 125112 (2007).                       %
     %   K. Berland et al., Rep. Prog. Phys. 78, 066501 (2015).             %
     %   D.C. Langreth et al., J. Phys.: Condens. Matter 21, 084203 (2009). %
     %                                                                      %
     % If you are calculating stress with vdW-DF, please also cite:         %
     %                                                                      %
     %   R. Sabatini et al., J. Phys.: Condens. Matter 24, 424209 (2012).   %
     %                                                                      %
     %%%%%%%%%%%%%%%%%%%%%%%%%%%%%%%%%%%%%%%%%%%%%%%%%%%%%%%%%%%%%%%%%%%%%%%%

     %%%%%%%%%%%%%%%%%%%%%%%%%%%%%%%%%%%%%%%%%%%%%%%%%%%%%%%%%%%%%%%%%%%%%%%%
     %                                                                      %
     %  vdW-DF NEWS:                                                        %
     %                                                                      %
     %  * vdW-DF3 is now available. DOI: 10.1021/acs.jctc.0c00471           %
     %    use with input_dft = 'vdW-DF3-opt1' or 'vdW-DF3-opt2'             %
     %                                                                      %
     %  * Unscreened and range-separated hybrid vdW-DF-cx functionals       %
     %    DOI: 10.1063/1.4986522 and 10.1088/1361-648X/ac2ad2               %
     %    use with input_dft = 'vdW-DF-cx0'    and 'vdW-DF-ahcx'            %
     %  * Unscreened and range-separated hybrid vdW-DF2-b86r functionals    %
     %    DOI: 10.1063/1.4986522 and DOI: 10.1103/PhysRevX.12.041003        %
     %    use with input_dft = 'vdW-DF2-br0' and 'vdW-DF2-ahbr'             %
     %                                                                      %
     %%%%%%%%%%%%%%%%%%%%%%%%%%%%%%%%%%%%%%%%%%%%%%%%%%%%%%%%%%%%%%%%%%%%%%%%


     Starting wfcs are  480 randomized atomic wfcs

     total cpu time spent up to now is      145.4 secs

     Self-consistent Calculation

     iteration #  1     ecut=    60.00 Ry     beta= 0.20
     Davidson diagonalization with overlap
     ethr =  1.00E-02,  avg # of iterations =  1.0

     negative rho (up, down):  2.732E-02 0.000E+00

     total cpu time spent up to now is      214.8 secs

     total energy              =   -5982.83407231 Ry
     estimated scf accuracy    <      53.98289138 Ry

     iteration #  2     ecut=    60.00 Ry     beta= 0.20
     Davidson diagonalization with overlap
     ethr =  8.03E-03,  avg # of iterations =  1.0

     negative rho (up, down):  6.778E-02 0.000E+00

     total cpu time spent up to now is      267.2 secs

     total energy              =   -5969.80344658 Ry
     estimated scf accuracy    <      30.62476709 Ry

     iteration #  3     ecut=    60.00 Ry     beta= 0.20
     Davidson diagonalization with overlap
     ethr =  4.56E-03,  avg # of iterations =  7.8

     negative rho (up, down):  4.917E-02 0.000E+00

     total cpu time spent up to now is      336.7 secs

     total energy              =   -5980.89503681 Ry
     estimated scf accuracy    <      75.15250130 Ry

     iteration #  4     ecut=    60.00 Ry     beta= 0.20
     Davidson diagonalization with overlap
     ethr =  4.56E-03,  avg # of iterations =  1.3
     Minimization algorithm failed to find Fermi energy: reverting to bisection
     Possible cause: smearing is larger than the electronic band-gap.

     negative rho (up, down):  3.491E-02 0.000E+00

     total cpu time spent up to now is      391.3 secs

     total energy              =   -5980.32845822 Ry
     estimated scf accuracy    <      17.94916200 Ry

     iteration #  5     ecut=    60.00 Ry     beta= 0.20
     Davidson diagonalization with overlap
     ethr =  2.67E-03,  avg # of iterations =  1.8

     negative rho (up, down):  3.641E-02 0.000E+00

     total cpu time spent up to now is      445.3 secs

     total energy              =   -5981.88229274 Ry
     estimated scf accuracy    <       1.91205608 Ry

     iteration #  6     ecut=    60.00 Ry     beta= 0.20
     Davidson diagonalization with overlap
     ethr =  2.85E-04,  avg # of iterations =  7.5

     negative rho (up, down):  3.403E-02 0.000E+00

     total cpu time spent up to now is      521.3 secs

     total energy              =   -5982.81140377 Ry
     estimated scf accuracy    <       2.40478882 Ry

     iteration #  7     ecut=    60.00 Ry     beta= 0.20
     Davidson diagonalization with overlap
     ethr =  2.85E-04,  avg # of iterations =  2.0

     negative rho (up, down):  3.786E-02 0.000E+00

     total cpu time spent up to now is      579.8 secs

     total energy              =   -5982.91739655 Ry
     estimated scf accuracy    <       0.40994425 Ry

     iteration #  8     ecut=    60.00 Ry     beta= 0.20
     Davidson diagonalization with overlap
     c_bands:  2 eigenvalues not converged
     ethr =  6.10E-05,  avg # of iterations = 17.0

     negative rho (up, down):  3.644E-02 0.000E+00

     total cpu time spent up to now is      657.1 secs

     total energy              =   -5983.06520194 Ry
     estimated scf accuracy    <       0.17830228 Ry

     iteration #  9     ecut=    60.00 Ry     beta= 0.20
     Davidson diagonalization with overlap
     ethr =  2.65E-05,  avg # of iterations = 12.3

     negative rho (up, down):  3.613E-02 0.000E+00

     total cpu time spent up to now is      735.6 secs

     total energy              =   -5983.10363199 Ry
     estimated scf accuracy    <       0.06531142 Ry

     iteration # 10     ecut=    60.00 Ry     beta= 0.20
     Davidson diagonalization with overlap
     c_bands:  3 eigenvalues not converged
     ethr =  9.72E-06,  avg # of iterations = 27.5

     negative rho (up, down):  3.431E-02 0.000E+00

     total cpu time spent up to now is      845.0 secs

     total energy              =   -5983.12657027 Ry
     estimated scf accuracy    <       0.04126178 Ry

     iteration # 11     ecut=    60.00 Ry     beta= 0.20
     Davidson diagonalization with overlap
     ethr =  6.14E-06,  avg # of iterations = 11.8

     negative rho (up, down):  3.464E-02 0.000E+00

     total cpu time spent up to now is      903.8 secs

     total energy              =   -5983.12998884 Ry
     estimated scf accuracy    <       0.01760547 Ry

     iteration # 12     ecut=    60.00 Ry     beta= 0.20
     Davidson diagonalization with overlap
     c_bands:  3 eigenvalues not converged
     ethr =  2.62E-06,  avg # of iterations = 17.3

     negative rho (up, down):  3.576E-02 0.000E+00

     total cpu time spent up to now is      984.7 secs

     total energy              =   -5983.13628515 Ry
     estimated scf accuracy    <       0.01606663 Ry

     iteration # 13     ecut=    60.00 Ry     beta= 0.20
     Davidson diagonalization with overlap
     ethr =  2.39E-06,  avg # of iterations =  1.8

     negative rho (up, down):  3.645E-02 0.000E+00

     total cpu time spent up to now is     1040.7 secs

     total energy              =   -5983.13663766 Ry
     estimated scf accuracy    <       0.01156547 Ry

     iteration # 14     ecut=    60.00 Ry     beta= 0.20
     Davidson diagonalization with overlap
     ethr =  1.72E-06,  avg # of iterations =  7.8

     negative rho (up, down):  3.629E-02 0.000E+00

     total cpu time spent up to now is     1107.3 secs

     total energy              =   -5983.13786445 Ry
     estimated scf accuracy    <       0.01666612 Ry

     iteration # 15     ecut=    60.00 Ry     beta= 0.20
     Davidson diagonalization with overlap
     ethr =  1.72E-06,  avg # of iterations =  5.8

     negative rho (up, down):  4.034E-02 0.000E+00

     total cpu time spent up to now is     1171.0 secs

     total energy              =   -5983.13608482 Ry
     estimated scf accuracy    <       0.01044238 Ry

     iteration # 16     ecut=    60.00 Ry     beta= 0.20
     Davidson diagonalization with overlap
     ethr =  1.55E-06,  avg # of iterations =  3.5

     negative rho (up, down):  4.627E-02 0.000E+00

     total cpu time spent up to now is     1230.5 secs

     total energy              =   -5983.13650307 Ry
     estimated scf accuracy    <       0.00638189 Ry

     iteration # 17     ecut=    60.00 Ry     beta= 0.20
     Davidson diagonalization with overlap
     ethr =  9.50E-07,  avg # of iterations = 14.0

     negative rho (up, down):  4.404E-02 0.000E+00

     total cpu time spent up to now is     1306.6 secs

     total energy              =   -5983.13771585 Ry
     estimated scf accuracy    <       0.00439243 Ry

     iteration # 18     ecut=    60.00 Ry     beta= 0.20
     Davidson diagonalization with overlap
     ethr =  6.54E-07,  avg # of iterations =  4.0

     negative rho (up, down):  4.860E-02 0.000E+00

     total cpu time spent up to now is     1365.9 secs

     total energy              =   -5983.13759484 Ry
     estimated scf accuracy    <       0.00472066 Ry

     iteration # 19     ecut=    60.00 Ry     beta= 0.20
     Davidson diagonalization with overlap
     ethr =  6.54E-07,  avg # of iterations =  1.3

     negative rho (up, down):  6.423E-02 0.000E+00

     total cpu time spent up to now is     1421.8 secs

     total energy              =   -5983.13666959 Ry
     estimated scf accuracy    <       0.00278206 Ry

     iteration # 20     ecut=    60.00 Ry     beta= 0.20
     Davidson diagonalization with overlap
     ethr =  4.14E-07,  avg # of iterations =  6.8

     negative rho (up, down):  5.552E-02 0.000E+00

     total cpu time spent up to now is     1486.9 secs

     total energy              =   -5983.13728633 Ry
     estimated scf accuracy    <       0.00166432 Ry

     iteration # 21     ecut=    60.00 Ry     beta= 0.20
     Davidson diagonalization with overlap
     ethr =  2.48E-07,  avg # of iterations =  5.3

     negative rho (up, down):  4.100E-02 0.000E+00

     total cpu time spent up to now is     1546.3 secs

     total energy              =   -5983.13619906 Ry
     estimated scf accuracy    <       0.00112212 Ry

     iteration # 22     ecut=    60.00 Ry     beta= 0.20
     Davidson diagonalization with overlap
     c_bands:  1 eigenvalues not converged
     ethr =  1.67E-07,  avg # of iterations = 11.3

     negative rho (up, down):  4.627E-02 0.000E+00

     total cpu time spent up to now is     1624.4 secs

     total energy              =   -5983.13572720 Ry
     estimated scf accuracy    <       0.00155145 Ry

     iteration # 23     ecut=    60.00 Ry     beta= 0.20
     Davidson diagonalization with overlap
     ethr =  1.67E-07,  avg # of iterations =  3.0

     negative rho (up, down):  4.335E-02 0.000E+00

     total cpu time spent up to now is     1684.7 secs

     total energy              =   -5983.13526628 Ry
     estimated scf accuracy    <       0.00031562 Ry

     iteration # 24     ecut=    60.00 Ry     beta= 0.20
     Davidson diagonalization with overlap
     ethr =  4.70E-08,  avg # of iterations = 10.0

     negative rho (up, down):  4.087E-02 0.000E+00

     total cpu time spent up to now is     1764.6 secs

     total energy              =   -5983.13539082 Ry
     estimated scf accuracy    <       0.00034332 Ry

     iteration # 25     ecut=    60.00 Ry     beta= 0.20
     Davidson diagonalization with overlap
     ethr =  4.70E-08,  avg # of iterations =  1.0

     negative rho (up, down):  3.782E-02 0.000E+00

     total cpu time spent up to now is     1819.2 secs

     total energy              =   -5983.13421221 Ry
     estimated scf accuracy    <       0.00018337 Ry

     iteration # 26     ecut=    60.00 Ry     beta= 0.20
     Davidson diagonalization with overlap
     ethr =  2.73E-08,  avg # of iterations =  6.5

     negative rho (up, down):  3.739E-02 0.000E+00

     total cpu time spent up to now is     1880.9 secs

     total energy              =   -5983.13426775 Ry
     estimated scf accuracy    <       0.00003193 Ry

     iteration # 27     ecut=    60.00 Ry     beta= 0.20
     Davidson diagonalization with overlap
     c_bands:  1 eigenvalues not converged
     ethr =  4.75E-09,  avg # of iterations = 12.8

     negative rho (up, down):  3.752E-02 0.000E+00

     total cpu time spent up to now is     1970.6 secs

     total energy              =   -5983.13438545 Ry
     estimated scf accuracy    <       0.00004276 Ry

     iteration # 28     ecut=    60.00 Ry     beta= 0.20
     Davidson diagonalization with overlap
     ethr =  4.75E-09,  avg # of iterations =  2.0

     negative rho (up, down):  3.734E-02 0.000E+00

     total cpu time spent up to now is     2026.7 secs

     total energy              =   -5983.13425038 Ry
     estimated scf accuracy    <       0.00002457 Ry

     iteration # 29     ecut=    60.00 Ry     beta= 0.20
