&CONTROL
   calculation      = 'scf'
   restart_mode     = 'from_scratch'
   tstress          = .true.
   tprnfor          = .true.
   outdir           = './outdir/'
   prefix           = 'mg2ni_NbFe'
   etot_conv_thr    = 0.00014
   forc_conv_thr    = 0.0001
   pseudo_dir       = '../pseudo/'
/
&SYSTEM
   ecutwfc          = 60.0
   ecutrho          = 480.0
   occupations      = 'smearing'
   degauss          = 0.01
   smearing         = 'cold'
   nspin            = 2
   starting_magnetization(1) = 0.0
   starting_magnetization(2) = 0.0
   starting_magnetization(3) = 2.0
   starting_magnetization(4) = 0.0
   ntyp             = 4
   nat              = 18
   ibrav            = 0
   vdw_corr         = 'dft-d3'
/
&ELECTRONS
   electron_maxstep = 120
   conv_thr         = 1.2e-09
   mixing_beta      = 0.4
/
&IONS
   ion_dynamics     = 'bfgs'
/
&CELL
/
&FCP
/
&RISM
/
ATOMIC_SPECIES
Nb  92.90637 Nb.pbe-spn-kjpaw_psl.0.3.0.UPF
Mg  24.305 Mg.pbe-n-kjpaw_psl.0.3.0.UPF
Fe  55.845 Fe.pbe-spn-kjpaw_psl.0.2.1.UPF
Ni  58.6934 ni_pbe_v1.4.uspp.F.UPF

K_POINTS automatic
8 8 4  0 0 0

CELL_PARAMETERS angstrom
5.19745104190000 0.00000000000000 0.00000000000000
-2.59872552090000 4.50112463720000 0.00000000000000
0.00000000000000 0.00000000000000 13.20241696130000

ATOMIC_POSITIONS angstrom
Nb  -1.3173663055 3.7613315492 11.0020141344  
Mg  0.0000000000 1.4795861759 6.6012084806  
Mg  3.9160918265 0.7397930880 11.0020141344  
Mg  2.5987255209 3.0215384613 6.6012084806  
Mg  1.3173663055 3.7613315492 2.2004028269  
Mg  1.2813592154 0.7397930880 2.2004028269  
Mg  1.2993627605 2.2505623186 9.4710187506  
Mg  2.5987255209 0.0000000000 8.1322038644  
Mg  1.2993627605 2.2505623186 12.5330095181  
Mg  2.5987255209 0.0000000000 5.0702130969  
Mg  3.8980882814 2.2505623186 3.7313982107  
Mg  3.8980882814 2.2505623186 0.6694074432  
Fe  1.2993627605 2.2505623186 4.4008056537  
Ni  2.5987255209 0.0000000000 0.0000000000  
Ni  3.8980882814 2.2505623186 8.8016113075  
Ni  0.0000000000 0.0000000000 4.4008056537  
Ni  0.0000000000 0.0000000000 0.0000000000  
Ni  0.0000000000 0.0000000000 8.8016113075  


HUBBARD (ortho-atomic)
   U Ni-3d 9.0
   U Fe-3d 4.0
