&CONTROL
   calculation      = 'scf'
   restart_mode     = 'from_scratch'
   tstress          = .true.
   tprnfor          = .true.
   outdir           = './outdir/'
   prefix           = 'mg2nih4_Nb'
   etot_conv_thr    = 0.00014
   forc_conv_thr    = 0.0001
   pseudo_dir       = '../pseudo/'
/
&SYSTEM
   ecutwfc          = 60.0
   ecutrho          = 480.0
   occupations      = 'smearing'
   degauss          = 0.01
   smearing         = 'cold'
   nspin            = 1
   ntyp             = 4
   nat              = 28
   ibrav            = 0
   vdw_corr         = 'dft-d3'
/
&ELECTRONS
   electron_maxstep = 120
   conv_thr         = 1.2e-09
   mixing_beta      = 0.4
/
&IONS
   ion_dynamics     = 'bfgs'
/
&CELL
/
&FCP
/
&RISM
/
ATOMIC_SPECIES
Nb 92.90637 Nb.pbe-spn-kjpaw_psl.0.3.0.UPF
Mg 24.305 Mg.pbe-n-kjpaw_psl.0.3.0.UPF
Ni 58.6934 ni_pbe_v1.4.uspp.F.UPF
H 1.008 H.pbe-rrkjus_psl.1.0.0.UPF

K_POINTS automatic
8 8 6  0 0 0

CELL_PARAMETERS angstrom
7.85199236972871 0.00000000000000 0.00000000000000
-5.25044333669428 5.83837553968914 0.00000000000000
-2.34280847134468 1.04394297211243 5.94608395177569

ATOMIC_POSITIONS angstrom
Nb -4.2792065963 5.4955229079 5.4607179434  
Mg -3.1746666110 4.8234952058 2.4876759674  
Mg 3.4334071727 2.0588233060 3.4584079844  
Mg 4.5379471580 1.3867956039 0.4853660086  
Mg 0.7825802604 6.4825016222 4.4595629638  
Mg -0.5238396986 0.3998168897 1.4865209879  
Mg -0.5224029966 3.5538686307 4.4595629638  
Mg 0.7811435583 3.3284498812 1.4865209879  
Ni -1.7226015765 6.1553205873 5.4656626820  
Ni -1.9557195328 2.4813316280 2.4926207061  
Ni 2.2144600944 4.4009868838 3.4534632458  
Ni 1.9813421383 0.7269979244 0.4804212699  
H -0.5032506657 5.1896764017 5.6320551105  
H -0.4223601390 2.2203827687 2.6590131347  
H 0.6811007008 4.6619357431 3.2870708173  
H 0.7619912274 1.6926421103 0.3140288413  
H 5.1967385498 1.0942273572 2.5297971576  
H 4.0914656533 1.7646102659 5.5028391336  
H -3.8327250917 5.1177082459 0.4432448183  
H -4.9379979881 5.7880911547 3.4162867941  
H -2.5682459864 6.0096553346 4.1415091751  
H -2.4128722450 3.2075163369 1.1684671992  
H 2.6716128067 3.6748021749 4.7776167528  
H 2.8269865480 0.8726631772 1.8045747769  
H 0.5922569907 1.9608958058 5.2073775167  
H 2.7109509201 3.5648242766 2.2343355407  
H -2.4522103584 3.3174942352 3.7117484112  
H -0.3335164290 4.9214227061 0.7387064353  


HUBBARD (ortho-atomic)
   U Ni-3d 9.0
