
     Program PWSCF v.7.5 starts on 12Jun2026 at 23:31:44 

     This program is part of the open-source Quantum ESPRESSO suite
     for quantum simulation of materials; please cite
         "P. Giannozzi et al., J. Phys.:Condens. Matter 21 395502 (2009);
         "P. Giannozzi et al., J. Phys.:Condens. Matter 29 465901 (2017);
         "P. Giannozzi et al., J. Chem. Phys. 152 154105 (2020);
          URL http://www.quantum-espresso.org", 
     in publications or presentations arising from this work. More details at
     http://www.quantum-espresso.org/quote

     Serial multi-threaded version, running on   32 processor cores
     18038 MiB available memory on the printing compute node when the environment starts
 
     Reading input from inputs/mg2nih4_ni.in

     Current dimensions of program PWSCF are:
     Max number of different atomic species (ntypx) = 10
     Max number of k-points (npk) =  40000
     Max angular momentum in pseudopotentials (lmaxx) =  4

     File ./outdir/mg2nih4_ni.update deleted, as requested
     file Mg.pbe-n-kjpaw_psl.0.3.0.UPF: wavefunction(s)  3S renormalized
 
 
     G-vector sticks info
     --------------------
     sticks:   dense  smooth     PW     G-vecs:    dense   smooth      PW
     Sum        5935    2965    859               299073   105753   16511
 
     Using Slab Decomposition
 


     bravais-lattice index     =            0
     lattice parameter (alat)  =      14.2175  a.u.
     unit-cell volume          =    1684.0721 (a.u.)^3
     number of atoms/cell      =           28
     number of atomic types    =            3
     number of electrons       =       120.00
     number of Kohn-Sham states=           72
     kinetic-energy cutoff     =      60.0000  Ry
     charge density cutoff     =     480.0000  Ry
     scf convergence threshold =      1.0E-09
     mixing beta               =       0.3000
     number of iterations used =           12  plain     mixing
     energy convergence thresh.=      1.0E-05
     force convergence thresh. =      1.0E-04
     press convergence thresh. =      5.0E-01
     Exchange-correlation= PBE
                           (   1   4   3   4   0   0   0)
     nstep                     =          200


     GPU acceleration is ACTIVE.  1 visible GPUs per MPI rank


     celldm(1)=  14.217487  celldm(2)=   0.000000  celldm(3)=   0.000000
     celldm(4)=   0.000000  celldm(5)=   0.000000  celldm(6)=   0.000000

     crystal axes: (cart. coord. in units of alat)
               a(1) = (   0.999878  -0.009230  -0.012639 )  
               a(2) = (  -0.675096   0.774817   0.025440 )  
               a(3) = (  -0.309033   0.158255   0.769849 )  

     reciprocal axes: (cart. coord. in units 2 pi/alat)
               b(1) = (  1.011046  0.873493  0.226294 )  
               b(2) = (  0.008713  1.306926 -0.265162 )  
               b(3) = (  0.016311 -0.028848  1.311433 )  


     PseudoPot. # 1 for Ni read from file:
     /home/x/Workspace/3-hEspesso/pseudo/ni_pbe_v1.4.uspp.F.UPF
     MD5 check sum: 1ee80287db30b12d2bc1f57a5b5d6409
     Pseudo is Ultrasoft + core correction, Zval = 18.0
     Generated by new atomic code, or converted to UPF format
     Using radial grid of  865 points,  6 beta functions with: 
                l(1) =   0
                l(2) =   0
                l(3) =   1
                l(4) =   1
                l(5) =   2
                l(6) =   2
     Q(r) pseudized with 10 coefficients,  rinner =    0.980   0.980   0.980
                                                       0.980   0.980

     PseudoPot. # 2 for Mg read from file:
     /home/x/Workspace/3-hEspesso/pseudo/Mg.pbe-n-kjpaw_psl.0.3.0.UPF
     MD5 check sum: 24ecedc7f3e3cbe212e682f4413594e4
     Pseudo is Projector augmented-wave + core cor, Zval =  2.0
     Generated using "atomic" code by A. Dal Corso  v.5.0.99 svn rev. 10869
     Shape of augmentation charge: PSQ
     Using radial grid of 1129 points,  4 beta functions with: 
                l(1) =   0
                l(2) =   0
                l(3) =   1
                l(4) =   1
     Q(r) pseudized with 0 coefficients 


     PseudoPot. # 3 for H  read from file:
     /home/x/Workspace/3-hEspesso/pseudo/H.pbe-rrkjus_psl.1.0.0.UPF
     MD5 check sum: f52b6d4d1c606e5624b1dc7b2218f220
     Pseudo is Ultrasoft, Zval =  1.0
     Generated using "atomic" code by A. Dal Corso  v.5.1
     Using radial grid of  929 points,  2 beta functions with: 
                l(1) =   0
                l(2) =   0
     Q(r) pseudized with 0 coefficients 


     atomic species   valence    mass     pseudopotential
     Ni               18.00    58.69340     Ni( 1.00)
     Mg                2.00    24.30500     Mg( 1.00)
     H                 1.00     1.00794     H ( 1.00)

     No symmetry found



   Cartesian axes

     site n.     atom                  positions (alat units)
         1        Ni     tau(   1) = (  -0.5939399   0.6987268   0.7714494  )
         2        Mg     tau(   2) = (  -0.3971745   0.6547473   0.3545960  )
         3        Mg     tau(   3) = (   0.4354196   0.2694978   0.4155694  )
         4        Mg     tau(   4) = (   0.5795880   0.1812436   0.0265552  )
         5        Mg     tau(   5) = (   0.1017240   0.8733783   0.5964273  )
         6        Mg     tau(   6) = (  -0.0771458   0.0465970   0.1912451  )
         7        Mg     tau(   7) = (  -0.0834312   0.5083114   0.5823653  )
         8        Mg     tau(   8) = (   0.0694887   0.4336284   0.1874017  )
         9        Ni     tau(   9) = (  -0.2365136   0.8188443   0.7019065  )
        10        Ni     tau(  10) = (  -0.2431766   0.3385651   0.3181502  )
        11        Ni     tau(  11) = (   0.2703216   0.5803449   0.4707955  )
        12        Ni     tau(  12) = (   0.2452403   0.1092574   0.0700614  )
        13        H      tau(  13) = (  -0.0725970   0.7119403   0.7636386  )
        14        H      tau(  14) = (  -0.0504261   0.2901115   0.3725145  )
        15        H      tau(  15) = (   0.0850212   0.6496732   0.4090758  )
        16        H      tau(  16) = (   0.0752535   0.2115812   0.0237969  )
        17        H      tau(  17) = (   0.6736190   0.1411898   0.2922435  )
        18        H      tau(  18) = (   0.4990888   0.2401487   0.6984202  )
        19        H      tau(  19) = (  -0.4575353   0.6723777   0.0793454  )
        20        H      tau(  20) = (  -0.6477286   0.7682245   0.5706945  )
        21        H      tau(  21) = (  -0.3464323   0.8271471   0.5309912  )
        22        H      tau(  22) = (  -0.3661979   0.4281648   0.1687364  )
        23        H      tau(  23) = (   0.4129081   0.5174740   0.6195305  )
        24        H      tau(  24) = (   0.3884870   0.1215072   0.2145792  )
        25        H      tau(  25) = (   0.0489191   0.3024032   0.6656870  )
        26        H      tau(  26) = (   0.3215951   0.4739321   0.3024334  )
        27        H      tau(  27) = (  -0.3243654   0.4290254   0.4859784  )
        28        H      tau(  28) = (  -0.0895284   0.6357310   0.0729184  )

     --------------------------------------------
     DFT-D3 Dispersion Correction (3-body terms):
     --------------------------------------------
       Reference C6 values for interpolation: 

         atom   Coordination number   C6
         H          0.912             6.05
         H          0.000            15.18
         Mg         0.000          1366.75
         Mg         0.963           902.54
         Mg         1.950           351.12
         Ni         0.000          1149.49
         Ni         1.794           356.66
         Ni         6.546           257.56
         Ni         6.292           283.75

       Values used:

         atom   Coordination number  R0_AB[au]  C6      C8
         Ni         7.045            3.162    262.99  22037.03
         Mg         9.486            3.292    351.12  31436.69
         Mg        10.471            3.292    351.12  31436.69
         Mg        10.198            3.292    351.12  31436.69
         Mg        10.096            3.292    351.12  31436.69
         Mg         9.913            3.292    351.12  31436.69
         Mg        10.475            3.292    351.12  31436.69
         Mg         9.740            3.292    351.12  31436.69
         Ni         9.212            3.162    257.65  21589.01
         Ni         9.864            3.162    257.59  21583.87
         Ni         9.248            3.162    257.64  21588.52
         Ni         9.084            3.162    257.67  21591.07
         H          2.324            2.062      6.05     73.18
         H          2.090            2.062      6.05     73.18
         H          2.014            2.062      6.05     73.18
         H          2.279            2.062      6.05     73.18
         H          2.115            2.062      6.05     73.18
         H          2.422            2.062      6.05     73.18
         H          2.294            2.062      6.05     73.18
         H          2.073            2.062      6.05     73.18
         H          2.549            2.062      6.05     73.18
         H          2.418            2.062      6.05     73.18
         H          1.963            2.062      6.05     73.18
         H          2.641            2.062      6.05     73.18
         H          2.424            2.062      6.05     73.18
         H          2.224            2.062      6.05     73.18
         H          2.477            2.062      6.05     73.18
         H          1.907            2.062      6.05     73.18

         Molecular C6 ( Ry / a.u.^6 ) =     61928.62


     number of k points=   384  Marzari-Vanderbilt smearing, width (Ry)=  0.0100

     Number of k-points >= 100: set verbosity='high' to print them.

     Dense  grid:   299073 G-vectors     FFT dimensions: ( 100, 108,  90)

     Smooth grid:   105753 G-vectors     FFT dimensions: (  72,  75,  60)

     Estimated max dynamical RAM per process >       6.78 GB

     Check: negative core charge=   -0.000002

     Initial potential from superposition of free atoms

     starting charge     109.9934, renormalised to     120.0000
     Starting wfcs are  109 randomized atomic wfcs

     total cpu time spent up to now is       17.2 secs

     Self-consistent Calculation

     iteration #  1     ecut=    60.00 Ry     beta= 0.30
     Davidson diagonalization with overlap
     ethr =  1.00E-02,  avg # of iterations =  5.5

     total cpu time spent up to now is       72.7 secs

     total energy              =   -1878.54610901 Ry
     estimated scf accuracy    <     286.37278754 Ry

     iteration #  2     ecut=    60.00 Ry     beta= 0.30
     Davidson diagonalization with overlap
     ethr =  1.00E-02,  avg # of iterations =  4.0

     total cpu time spent up to now is      122.7 secs

     total energy              =   -1970.75631661 Ry
     estimated scf accuracy    <     103.36738809 Ry

     iteration #  3     ecut=    60.00 Ry     beta= 0.30
     Davidson diagonalization with overlap
     ethr =  1.00E-02,  avg # of iterations =  2.2
     Minimization algorithm failed to find Fermi energy: reverting to bisection
     Possible cause: smearing is larger than the electronic band-gap.

     total cpu time spent up to now is      157.3 secs

     total energy              =   -1971.19920928 Ry
     estimated scf accuracy    <      23.22796938 Ry

     iteration #  4     ecut=    60.00 Ry     beta= 0.30
     Davidson diagonalization with overlap
     ethr =  1.00E-02,  avg # of iterations =  2.0

     total cpu time spent up to now is      184.0 secs

     total energy              =   -1972.30006298 Ry
     estimated scf accuracy    <       5.56823044 Ry

     iteration #  5     ecut=    60.00 Ry     beta= 0.30
     Davidson diagonalization with overlap
     ethr =  4.64E-03,  avg # of iterations =  1.0

     total cpu time spent up to now is      205.6 secs

     total energy              =   -1971.79949959 Ry
     estimated scf accuracy    <       5.62278370 Ry

     iteration #  6     ecut=    60.00 Ry     beta= 0.30
     Davidson diagonalization with overlap
     ethr =  4.64E-03,  avg # of iterations =  1.0

     total cpu time spent up to now is      227.5 secs

     total energy              =   -1971.75900956 Ry
     estimated scf accuracy    <       2.88605842 Ry

     iteration #  7     ecut=    60.00 Ry     beta= 0.30
     Davidson diagonalization with overlap
     ethr =  2.41E-03,  avg # of iterations =  1.0

     total cpu time spent up to now is      249.5 secs

     total energy              =   -1972.67642289 Ry
     estimated scf accuracy    <       2.23100661 Ry

     iteration #  8     ecut=    60.00 Ry     beta= 0.30
     Davidson diagonalization with overlap
     ethr =  1.86E-03,  avg # of iterations =  2.0

     negative rho (up, down):  1.231E-02 0.000E+00

     total cpu time spent up to now is      278.8 secs

     total energy              =   -1976.90478506 Ry
     estimated scf accuracy    <       4.83686595 Ry

     iteration #  9     ecut=    60.00 Ry     beta= 0.30
     Davidson diagonalization with overlap
     ethr =  1.86E-03,  avg # of iterations =  2.0

     negative rho (up, down):  6.500E-03 0.000E+00

     total cpu time spent up to now is      309.6 secs

     total energy              =   -1977.13682043 Ry
     estimated scf accuracy    <      16.57474918 Ry

     iteration # 10     ecut=    60.00 Ry     beta= 0.30
     Davidson diagonalization with overlap
     ethr =  1.86E-03,  avg # of iterations =  1.0

     total cpu time spent up to now is      331.3 secs

     total energy              =   -1968.24567809 Ry
     estimated scf accuracy    <      15.84044430 Ry

     iteration # 11     ecut=    60.00 Ry     beta= 0.30
     Davidson diagonalization with overlap
     ethr =  1.86E-03,  avg # of iterations =  3.8

     total cpu time spent up to now is      379.6 secs

     total energy              =   -1971.71726882 Ry
     estimated scf accuracy    <       1.69295815 Ry

     iteration # 12     ecut=    60.00 Ry     beta= 0.30
     Davidson diagonalization with overlap
     ethr =  1.41E-03,  avg # of iterations =  2.0

     total cpu time spent up to now is      409.2 secs

     total energy              =   -1971.37966939 Ry
     estimated scf accuracy    <       2.79002267 Ry

     iteration # 13     ecut=    60.00 Ry     beta= 0.30
     Davidson diagonalization with overlap
     ethr =  1.41E-03,  avg # of iterations =  2.0

     total cpu time spent up to now is      436.7 secs

     total energy              =   -1971.76360857 Ry
     estimated scf accuracy    <       2.41135541 Ry

     iteration # 14     ecut=    60.00 Ry     beta= 0.30
     Davidson diagonalization with overlap
     ethr =  1.41E-03,  avg # of iterations =  1.0

     total cpu time spent up to now is      458.7 secs

     total energy              =   -1970.85648487 Ry
     estimated scf accuracy    <       2.36660364 Ry

     iteration # 15     ecut=    60.00 Ry     beta= 0.30
     Davidson diagonalization with overlap
     ethr =  1.41E-03,  avg # of iterations =  1.8

     total cpu time spent up to now is      486.1 secs

     total energy              =   -1971.08701673 Ry
     estimated scf accuracy    <       0.07404434 Ry

     iteration # 16     ecut=    60.00 Ry     beta= 0.30
     Davidson diagonalization with overlap
     ethr =  6.17E-05,  avg # of iterations =  3.4

     total cpu time spent up to now is      526.8 secs

     total energy              =   -1971.11225008 Ry
     estimated scf accuracy    <       0.25350694 Ry

     iteration # 17     ecut=    60.00 Ry     beta= 0.30
     Davidson diagonalization with overlap
     ethr =  6.17E-05,  avg # of iterations =  1.0

     total cpu time spent up to now is      548.3 secs

     total energy              =   -1971.11045714 Ry
     estimated scf accuracy    <       0.12655644 Ry

     iteration # 18     ecut=    60.00 Ry     beta= 0.30
     Davidson diagonalization with overlap
     ethr =  6.17E-05,  avg # of iterations =  1.0

     total cpu time spent up to now is      569.7 secs

     total energy              =   -1971.10679318 Ry
     estimated scf accuracy    <       0.08565087 Ry

     iteration # 19     ecut=    60.00 Ry     beta= 0.30
     Davidson diagonalization with overlap
     ethr =  6.17E-05,  avg # of iterations =  1.0

     total cpu time spent up to now is      591.3 secs

     total energy              =   -1971.09651243 Ry
     estimated scf accuracy    <       0.05112165 Ry

     iteration # 20     ecut=    60.00 Ry     beta= 0.30
     Davidson diagonalization with overlap
     ethr =  4.26E-05,  avg # of iterations =  2.0

     total cpu time spent up to now is      617.3 secs

     total energy              =   -1971.10194040 Ry
     estimated scf accuracy    <       0.00153826 Ry

     iteration # 21     ecut=    60.00 Ry     beta= 0.30
     Davidson diagonalization with overlap
     ethr =  1.28E-06,  avg # of iterations =  4.4

     total cpu time spent up to now is      661.9 secs

     total energy              =   -1971.10233614 Ry
     estimated scf accuracy    <       0.00020168 Ry

     iteration # 22     ecut=    60.00 Ry     beta= 0.30
     Davidson diagonalization with overlap
     ethr =  1.68E-07,  avg # of iterations =  2.0

     total cpu time spent up to now is      690.0 secs

     total energy              =   -1971.10235576 Ry
     estimated scf accuracy    <       0.00001608 Ry

     iteration # 23     ecut=    60.00 Ry     beta= 0.30
     Davidson diagonalization with overlap
     ethr =  1.34E-08,  avg # of iterations =  4.1

     total cpu time spent up to now is      734.7 secs

     total energy              =   -1971.10236270 Ry
     estimated scf accuracy    <       0.00000196 Ry

     iteration # 24     ecut=    60.00 Ry     beta= 0.30
     Davidson diagonalization with overlap
     ethr =  1.63E-09,  avg # of iterations =  2.8

     total cpu time spent up to now is      767.3 secs

     total energy              =   -1971.10236312 Ry
     estimated scf accuracy    <       0.00000022 Ry

     iteration # 25     ecut=    60.00 Ry     beta= 0.30
     Davidson diagonalization with overlap
     ethr =  1.83E-10,  avg # of iterations =  3.0

     total cpu time spent up to now is      801.0 secs

     total energy              =   -1971.10236316 Ry
     estimated scf accuracy    <       0.00000002 Ry

     iteration # 26     ecut=    60.00 Ry     beta= 0.30
     Davidson diagonalization with overlap
     ethr =  1.90E-11,  avg # of iterations =  2.9

     total cpu time spent up to now is      835.4 secs

     total energy              =   -1971.10236316 Ry
     estimated scf accuracy    <          6.7E-09 Ry

     iteration # 27     ecut=    60.00 Ry     beta= 0.30
     Davidson diagonalization with overlap
     ethr =  5.59E-12,  avg # of iterations =  2.5

     total cpu time spent up to now is      868.7 secs

     total energy              =   -1971.10236317 Ry
     estimated scf accuracy    <          2.9E-09 Ry

     iteration # 28     ecut=    60.00 Ry     beta= 0.30
     Davidson diagonalization with overlap
     ethr =  2.42E-12,  avg # of iterations =  2.0

     total cpu time spent up to now is      896.3 secs

     End of self-consistent calculation

     Number of k-points >= 100: set verbosity='high' to print the bands.

     the Fermi energy is     6.4888 ev

!    total energy              =   -1971.10236317 Ry
     estimated scf accuracy    <          1.1E-10 Ry
     smearing contrib. (-TS)   =       0.00144142 Ry
     internal energy E=F+TS    =   -1971.10380458 Ry

     The total energy is F=E-TS. E is the sum of the following terms:
     one-electron contribution =   -1761.01935900 Ry
     hartree contribution      =     914.80746928 Ry
     xc contribution           =    -201.21410387 Ry
     ewald contribution        =    -704.26884579 Ry
     DFT-D3 Dispersion         =      -0.36373369 Ry
     one-center paw contrib.   =    -219.04523152 Ry

     convergence has been achieved in  28 iterations

     Forces acting on atoms (cartesian axes, Ry/au):

     atom    1 type  1   force =     0.00046437   -0.00031985   -0.00009802
     atom    2 type  2   force =    -0.00024427   -0.00036103   -0.00049292
     atom    3 type  2   force =     0.00013411    0.00006311   -0.00002420
     atom    4 type  2   force =    -0.00005114   -0.00026400   -0.00009856
     atom    5 type  2   force =    -0.00001006    0.00019647    0.00012283
     atom    6 type  2   force =     0.00001477    0.00013695   -0.00022802
     atom    7 type  2   force =    -0.00034306    0.00005149   -0.00000151
     atom    8 type  2   force =     0.00007128    0.00008618   -0.00015578
     atom    9 type  1   force =     0.00017680   -0.00013683    0.00013462
     atom   10 type  1   force =    -0.00068504   -0.00023771   -0.00021670
     atom   11 type  1   force =     0.00031852    0.00041414   -0.00014309
     atom   12 type  1   force =     0.00013970   -0.00018178    0.00002610
     atom   13 type  3   force =    -0.00021075    0.00020892   -0.00003696
     atom   14 type  3   force =     0.00020803   -0.00000413    0.00006254
     atom   15 type  3   force =    -0.00019614    0.00008106    0.00013381
     atom   16 type  3   force =    -0.00008131    0.00010313    0.00002276
     atom   17 type  3   force =    -0.00010139   -0.00017079   -0.00004004
     atom   18 type  3   force =     0.00004505    0.00031185   -0.00003136
     atom   19 type  3   force =    -0.00019910    0.00020958   -0.00000646
     atom   20 type  3   force =    -0.00001265   -0.00010338   -0.00003345
     atom   21 type  3   force =     0.00081024   -0.00065783    0.00006263
     atom   22 type  3   force =     0.00008667    0.00008205    0.00017788
     atom   23 type  3   force =    -0.00001320    0.00030809    0.00040015
     atom   24 type  3   force =     0.00009805   -0.00000730   -0.00005839
     atom   25 type  3   force =    -0.00020742    0.00004884    0.00040797
     atom   26 type  3   force =     0.00013263    0.00010365    0.00008832
     atom   27 type  3   force =    -0.00007738    0.00014756    0.00005231
     atom   28 type  3   force =    -0.00026730   -0.00010845   -0.00002646

     Total force =     0.002088     Total SCF correction =     0.000015


     Computing stress (Cartesian axis) and pressure

          total   stress  (Ry/bohr**3)                   (kbar)     P=       -0.13
  -0.00000097   0.00000167   0.00000120           -0.14        0.25        0.18
   0.00000167   0.00000073   0.00000059            0.25        0.11        0.09
   0.00000120   0.00000059  -0.00000234            0.18        0.09       -0.34


     BFGS Geometry Optimization
     Energy error            =      5.0E-06 Ry
     Gradient error          =      8.1E-04 Ry/Bohr
     Cell gradient error     =      3.4E-01 kbar

     number of scf cycles    =   1
     number of bfgs steps    =   0

     enthalpy           new  =   -1971.1023631667 Ry

     new trust radius        =       0.0010455411 bohr
     new conv_thr            =       0.0000000010 Ry

     new unit-cell volume =   1683.96322 a.u.^3 (   249.53760 Ang^3 )
     density =      3.19234 g/cm^3

CELL_PARAMETERS (angstrom)
   7.522459381  -0.069132748  -0.094858809
  -5.078759741   5.829283652   0.191322902
  -2.324749469   1.190649561   5.791622441

ATOMIC_POSITIONS (angstrom)
Ni              -4.4678001036        5.2567456499        5.8036049564
Mg              -2.9879412829        4.9258501757        2.6673931308
Mg               3.2760798095        2.0278382418        3.1264981761
Mg               4.3605002802        1.3636685133        0.1998768065
Mg               0.7657124045        6.5712442218        4.4871844476
Mg              -0.5803322793        0.3506518699        1.4386289861
Mg              -0.6275758322        3.8244514605        4.3812455957
Mg               0.5230066372        3.2625812012        1.4098282222
Ni              -1.7788737001        6.1606757411        5.2806415315
Ni              -1.8296957099        2.5470974989        2.3933530148
Ni               2.0341913214        4.3667011224        3.5419053623
Ni               1.8451616855        0.8220094565        0.5271626482
H               -0.5458910425        5.3566022114        5.7449943066
H               -0.3790894912        2.1827369915        2.8025283890
H                0.6398400761        4.8880655256        3.0776916139
H                0.5661897828        1.5919558024        0.1790793701
H                5.0679529306        1.0624236796        2.1987326521
H                3.7550951558        1.8072068698        5.2544281474
H               -3.4420911886        5.0587494185        0.5968926946
H               -4.8727494604        5.7797010100        4.2933288324
H               -2.6055358118        6.2228147896        3.9947617339
H               -2.7548299312        3.2213336736        1.2694844224
H                3.1067625057        3.8936840039        4.6611707452
H                2.9228760961        0.9143260918        1.6143772473
H                0.3681731239        2.2753079282        5.0083096313
H                2.4197712253        3.5659157964        2.2754176488
H               -2.4401226612        3.2278911173        3.6560803191
H               -0.6734821534        4.7829764502        0.5486108513



     Writing config-only to output data dir ./outdir/mg2nih4_ni.save/ :
     XML data file
     NEW-OLD atomic charge density approx. for the potential
     New effective cutoffs (rho, wfc):  480.04   60.01

     Check: negative core charge=   -0.000002

     total cpu time spent up to now is      912.3 secs

     Self-consistent Calculation

     iteration #  1     ecut=    60.00 Ry     beta= 0.30
     Davidson diagonalization with overlap
     ethr =  1.00E-06,  avg # of iterations =  2.0

     Threshold (ethr) on eigenvalues was too large:
     Diagonalizing with lowered threshold

     Davidson diagonalization with overlap
     ethr =  1.39E-09,  avg # of iterations =  2.0

     total cpu time spent up to now is      970.7 secs

     total energy              =   -1971.10232639 Ry
     estimated scf accuracy    <       0.00000172 Ry

     iteration #  2     ecut=    60.00 Ry     beta= 0.30
     Davidson diagonalization with overlap
     ethr =  1.44E-09,  avg # of iterations =  2.0

     total cpu time spent up to now is      999.0 secs

     total energy              =   -1971.10232625 Ry
     estimated scf accuracy    <       0.00000355 Ry

     iteration #  3     ecut=    60.00 Ry     beta= 0.30
     Davidson diagonalization with overlap
     ethr =  1.44E-09,  avg # of iterations =  2.0

     total cpu time spent up to now is     1026.7 secs

     total energy              =   -1971.10232657 Ry
     estimated scf accuracy    <       0.00000108 Ry

     iteration #  4     ecut=    60.00 Ry     beta= 0.30
     Davidson diagonalization with overlap
     ethr =  8.98E-10,  avg # of iterations =  2.0

     total cpu time spent up to now is     1053.0 secs

     total energy              =   -1971.10232661 Ry
     estimated scf accuracy    <       0.00000060 Ry

     iteration #  5     ecut=    60.00 Ry     beta= 0.30
     Davidson diagonalization with overlap
     ethr =  5.00E-10,  avg # of iterations =  1.1

     total cpu time spent up to now is     1076.5 secs

     total energy              =   -1971.10232665 Ry
     estimated scf accuracy    <       0.00000005 Ry

     iteration #  6     ecut=    60.00 Ry     beta= 0.30
     Davidson diagonalization with overlap
     ethr =  4.36E-11,  avg # of iterations =  2.0

     total cpu time spent up to now is     1104.5 secs

     total energy              =   -1971.10232666 Ry
     estimated scf accuracy    <       0.00000003 Ry

     iteration #  7     ecut=    60.00 Ry     beta= 0.30
     Davidson diagonalization with overlap
     ethr =  2.74E-11,  avg # of iterations =  1.1

     total cpu time spent up to now is     1127.2 secs

     total energy              =   -1971.10232666 Ry
     estimated scf accuracy    <          4.2E-09 Ry

     iteration #  8     ecut=    60.00 Ry     beta= 0.30
     Davidson diagonalization with overlap
     ethr =  3.50E-12,  avg # of iterations =  2.6

     total cpu time spent up to now is     1161.0 secs

     total energy              =   -1971.10232666 Ry
     estimated scf accuracy    <          4.8E-09 Ry

     iteration #  9     ecut=    60.00 Ry     beta= 0.30
     Davidson diagonalization with overlap
     ethr =  3.50E-12,  avg # of iterations =  1.1

     total cpu time spent up to now is     1183.9 secs

     End of self-consistent calculation

     Number of k-points >= 100: set verbosity='high' to print the bands.

     the Fermi energy is     6.4892 ev

!    total energy              =   -1971.10232666 Ry
     estimated scf accuracy    <          3.0E-10 Ry
     smearing contrib. (-TS)   =       0.00144239 Ry
     internal energy E=F+TS    =   -1971.10376905 Ry

     The total energy is F=E-TS. E is the sum of the following terms:
     one-electron contribution =   -1761.01398314 Ry
     hartree contribution      =     914.80665172 Ry
     xc contribution           =    -201.21467900 Ry
     ewald contribution        =    -704.27275390 Ry
     DFT-D3 Dispersion         =      -0.36371450 Ry
     one-center paw contrib.   =    -219.04529022 Ry

     convergence has been achieved in   9 iterations

     Forces acting on atoms (cartesian axes, Ry/au):

     atom    1 type  1   force =     0.00036079   -0.00025136   -0.00004843
     atom    2 type  2   force =    -0.00022228   -0.00032882   -0.00047415
     atom    3 type  2   force =     0.00008446    0.00002771   -0.00001605
     atom    4 type  2   force =    -0.00004626   -0.00020378   -0.00009440
     atom    5 type  2   force =     0.00003040    0.00015164    0.00011807
     atom    6 type  2   force =     0.00001154    0.00013268   -0.00019772
     atom    7 type  2   force =    -0.00032270    0.00005482   -0.00002015
     atom    8 type  2   force =     0.00002684    0.00008216   -0.00012460
     atom    9 type  1   force =     0.00010637    0.00000607    0.00013819
     atom   10 type  1   force =    -0.00038840   -0.00020490   -0.00015005
     atom   11 type  1   force =     0.00022335    0.00036829   -0.00005510
     atom   12 type  1   force =     0.00005191   -0.00015803    0.00006324
     atom   13 type  3   force =    -0.00009617    0.00014005    0.00001037
     atom   14 type  3   force =     0.00007752    0.00002345    0.00002408
     atom   15 type  3   force =    -0.00016788    0.00007169    0.00013688
     atom   16 type  3   force =    -0.00005050    0.00008690    0.00003275
     atom   17 type  3   force =    -0.00010360   -0.00018139   -0.00004044
     atom   18 type  3   force =     0.00001766    0.00021254   -0.00004816
     atom   19 type  3   force =    -0.00012067    0.00013388   -0.00004657
     atom   20 type  3   force =     0.00002054   -0.00008856    0.00002096
     atom   21 type  3   force =     0.00077468   -0.00065697   -0.00003388
     atom   22 type  3   force =     0.00005110    0.00012321    0.00006092
     atom   23 type  3   force =     0.00000187    0.00031803    0.00040998
     atom   24 type  3   force =     0.00009052   -0.00001051   -0.00003581
     atom   25 type  3   force =    -0.00015364    0.00006048    0.00029989
     atom   26 type  3   force =     0.00013674    0.00008209    0.00005359
     atom   27 type  3   force =    -0.00008083    0.00013630    0.00005783
     atom   28 type  3   force =    -0.00031337   -0.00012766   -0.00004124

     Total force =     0.001786     Total SCF correction =     0.000060


     Computing stress (Cartesian axis) and pressure

          total   stress  (Ry/bohr**3)                   (kbar)     P=       -0.23
  -0.00000174   0.00000138   0.00000103           -0.26        0.20        0.15
   0.00000138  -0.00000035   0.00000043            0.20       -0.05        0.06
   0.00000103   0.00000043  -0.00000259            0.15        0.06       -0.38

     Energy error            =      3.7E-05 Ry
     Gradient error          =      7.7E-04 Ry/Bohr
     Cell gradient error     =      3.8E-01 kbar

     number of scf cycles    =   2
     number of bfgs steps    =   1

     enthalpy           old  =   -1971.1023631667 Ry
     enthalpy           new  =   -1971.1023266590 Ry

     CASE: enthalpy          _new > enthalpy          _old

     new trust radius        =       0.0000633788 bohr

     trust_radius < trust_radius_min

     resetting bfgs history

     new conv_thr            =       0.0000000010 Ry

     new unit-cell volume =   1683.96325 a.u.^3 (   249.53761 Ang^3 )
     density =      3.19234 g/cm^3

CELL_PARAMETERS (angstrom)
   7.522459418  -0.069132725  -0.094858824
  -5.078759748   5.829283670   0.191322925
  -2.324749488   1.190649574   5.791622479

ATOMIC_POSITIONS (angstrom)
Ni              -4.4678000907        5.2567456668        5.8036049914
Mg              -2.9879412619        4.9258502264        2.6673931444
Mg               3.2760798275        2.0278382639        3.1264981846
Mg               4.3605003189        1.3636685439        0.1998768024
Mg               0.7657124074        6.5712442670        4.4871844899
Mg              -0.5803322820        0.3506518737        1.4386289788
Mg              -0.6275758426        3.8244515047        4.3812456388
Mg               0.5230066502        3.2625812224        1.4098282229
Ni              -1.7788736932        6.1606757759        5.2806415816
Ni              -1.8296957157        2.5470975516        2.3933530487
Ni               2.0341913328        4.3667011420        3.5419053619
Ni               1.8451617069        0.8220094650        0.5271626495
H               -0.5458910527        5.3566022595        5.7449943515
H               -0.3790894879        2.1827369992        2.8025284069
H                0.6398400758        4.8880655677        3.0776916535
H                0.5661897828        1.5919558149        0.1790793761
H                5.0679529609        1.0624237147        2.1987326604
H                3.7550951586        1.8072068961        5.2544281644
H               -3.4420912052        5.0587494433        0.5968927182
H               -4.8727494690        5.7797010412        4.2933288772
H               -2.6055357648        6.2228148025        3.9947617623
H               -2.7548299442        3.2213336784        1.2694844484
H                3.1067624977        3.8936840349        4.6611707936
H                2.9228761150        0.9143261064        1.6143772460
H                0.3681731031        2.2753079557        5.0083096936
H                2.4197712400        3.5659158203        2.2754176642
H               -2.4401226801        3.2278911364        3.6560803537
H               -0.6734821443        4.7829764912        0.5486108748



     Writing config-only to output data dir ./outdir/mg2nih4_ni.save/ :
     XML data file
     NEW-OLD atomic charge density approx. for the potential
     New effective cutoffs (rho, wfc):  480.04   60.01

     Check: negative core charge=   -0.000002

     total cpu time spent up to now is     1199.8 secs

     Self-consistent Calculation

     iteration #  1     ecut=    60.00 Ry     beta= 0.30
     Davidson diagonalization with overlap
     ethr =  1.00E-06,  avg # of iterations =  2.0

     Threshold (ethr) on eigenvalues was too large:
     Diagonalizing with lowered threshold

     Davidson diagonalization with overlap
     ethr =  1.23E-11,  avg # of iterations =  1.0

     total cpu time spent up to now is     1246.4 secs

     total energy              =   -1971.10232665 Ry
     estimated scf accuracy    <       0.00000002 Ry

     iteration #  2     ecut=    60.00 Ry     beta= 0.30
     Davidson diagonalization with overlap
     ethr =  1.34E-11,  avg # of iterations =  3.0

     total cpu time spent up to now is     1280.4 secs

     total energy              =   -1971.10232665 Ry
     estimated scf accuracy    <       0.00000011 Ry

     iteration #  3     ecut=    60.00 Ry     beta= 0.30
     Davidson diagonalization with overlap
     ethr =  1.34E-11,  avg # of iterations =  3.0

     total cpu time spent up to now is     1312.3 secs

     total energy              =   -1971.10232666 Ry
     estimated scf accuracy    <          5.8E-09 Ry

     iteration #  4     ecut=    60.00 Ry     beta= 0.30
     Davidson diagonalization with overlap
     ethr =  4.84E-12,  avg # of iterations =  1.0

     total cpu time spent up to now is     1333.7 secs

     End of self-consistent calculation

     Number of k-points >= 100: set verbosity='high' to print the bands.

     the Fermi energy is     6.4892 ev

!    total energy              =   -1971.10232666 Ry
     estimated scf accuracy    <          1.2E-10 Ry
     smearing contrib. (-TS)   =       0.00144237 Ry
     internal energy E=F+TS    =   -1971.10376903 Ry

     The total energy is F=E-TS. E is the sum of the following terms:
     one-electron contribution =   -1761.01436645 Ry
     hartree contribution      =     914.80706916 Ry
     xc contribution           =    -201.21471701 Ry
     ewald contribution        =    -704.27275081 Ry
     DFT-D3 Dispersion         =      -0.36371450 Ry
     one-center paw contrib.   =    -219.04528943 Ry

     convergence has been achieved in   4 iterations

     Forces acting on atoms (cartesian axes, Ry/au):

     atom    1 type  1   force =     0.00037054   -0.00025510   -0.00005086
     atom    2 type  2   force =    -0.00022305   -0.00032909   -0.00047433
     atom    3 type  2   force =     0.00008396    0.00002772   -0.00001624
     atom    4 type  2   force =    -0.00004725   -0.00020398   -0.00009450
     atom    5 type  2   force =     0.00002957    0.00015157    0.00011788
     atom    6 type  2   force =     0.00001077    0.00013253   -0.00019783
     atom    7 type  2   force =    -0.00032351    0.00005476   -0.00002017
     atom    8 type  2   force =     0.00002610    0.00008214   -0.00012483
     atom    9 type  1   force =     0.00011398    0.00000935    0.00015138
     atom   10 type  1   force =    -0.00040688   -0.00022275   -0.00014957
     atom   11 type  1   force =     0.00024608    0.00038716   -0.00006923
     atom   12 type  1   force =     0.00004767   -0.00015613    0.00006894
     atom   13 type  3   force =    -0.00009705    0.00013999    0.00001030
     atom   14 type  3   force =     0.00007685    0.00002329    0.00002395
     atom   15 type  3   force =    -0.00016846    0.00007153    0.00013681
     atom   16 type  3   force =    -0.00005128    0.00008679    0.00003265
     atom   17 type  3   force =    -0.00010438   -0.00018147   -0.00004059
     atom   18 type  3   force =     0.00001698    0.00021252   -0.00004830
     atom   19 type  3   force =    -0.00012148    0.00013400   -0.00004656
     atom   20 type  3   force =     0.00001976   -0.00008868    0.00002074
     atom   21 type  3   force =     0.00077385   -0.00065705   -0.00003390
     atom   22 type  3   force =     0.00005055    0.00012293    0.00006095
     atom   23 type  3   force =     0.00000113    0.00031791    0.00040983
     atom   24 type  3   force =     0.00008983   -0.00001061   -0.00003606
     atom   25 type  3   force =    -0.00015453    0.00006027    0.00029987
     atom   26 type  3   force =     0.00013602    0.00008202    0.00005344
     atom   27 type  3   force =    -0.00008167    0.00013619    0.00005761
     atom   28 type  3   force =    -0.00031408   -0.00012783   -0.00004139

     Total force =     0.001804     Total SCF correction =     0.000013


     Computing stress (Cartesian axis) and pressure

          total   stress  (Ry/bohr**3)                   (kbar)     P=       -0.18
  -0.00000138   0.00000138   0.00000103           -0.20        0.20        0.15
   0.00000138   0.00000001   0.00000043            0.20        0.00        0.06
   0.00000103   0.00000043  -0.00000223            0.15        0.06       -0.33

     Energy error            =      3.7E-05 Ry
     Gradient error          =      7.7E-04 Ry/Bohr
     Cell gradient error     =      3.3E-01 kbar

     number of scf cycles    =   3
     number of bfgs steps    =   1

     enthalpy           old  =   -1971.1023631667 Ry
     enthalpy           new  =   -1971.1023266593 Ry

     CASE: enthalpy          _new > enthalpy          _old

     new trust radius        =       0.0000633869 bohr

     trust_radius < trust_radius_min

     resetting bfgs history

     Message from routine bfgs:
     history already reset at previous step: stopping
     new conv_thr            =       0.0000000010 Ry

     new unit-cell volume =   1683.96325 a.u.^3 (   249.53761 Ang^3 )
     density =      3.19234 g/cm^3

CELL_PARAMETERS (angstrom)
   7.522459418  -0.069132725  -0.094858824
  -5.078759748   5.829283670   0.191322925
  -2.324749488   1.190649574   5.791622479

ATOMIC_POSITIONS (angstrom)
Ni              -4.4678000907        5.2567456668        5.8036049914
Mg              -2.9879412619        4.9258502264        2.6673931444
Mg               3.2760798275        2.0278382639        3.1264981846
Mg               4.3605003189        1.3636685439        0.1998768024
Mg               0.7657124074        6.5712442670        4.4871844899
Mg              -0.5803322820        0.3506518737        1.4386289788
Mg              -0.6275758426        3.8244515047        4.3812456388
Mg               0.5230066502        3.2625812224        1.4098282229
Ni              -1.7788736932        6.1606757759        5.2806415816
Ni              -1.8296957157        2.5470975516        2.3933530487
Ni               2.0341913328        4.3667011420        3.5419053619
Ni               1.8451617069        0.8220094650        0.5271626495
H               -0.5458910527        5.3566022595        5.7449943515
H               -0.3790894879        2.1827369992        2.8025284069
H                0.6398400758        4.8880655677        3.0776916535
H                0.5661897828        1.5919558149        0.1790793761
H                5.0679529609        1.0624237147        2.1987326604
H                3.7550951586        1.8072068961        5.2544281644
H               -3.4420912052        5.0587494433        0.5968927182
H               -4.8727494690        5.7797010412        4.2933288772
H               -2.6055357648        6.2228148025        3.9947617623
H               -2.7548299442        3.2213336784        1.2694844484
H                3.1067624977        3.8936840349        4.6611707936
H                2.9228761150        0.9143261064        1.6143772460
H                0.3681731031        2.2753079557        5.0083096936
H                2.4197712400        3.5659158203        2.2754176642
H               -2.4401226801        3.2278911364        3.6560803537
H               -0.6734821443        4.7829764912        0.5486108748



     Writing config-only to output data dir ./outdir/mg2nih4_ni.save/ :
     XML data file
     NEW-OLD atomic charge density approx. for the potential
     New effective cutoffs (rho, wfc):  480.04   60.01

     Check: negative core charge=   -0.000002

     total cpu time spent up to now is     1349.8 secs

     Self-consistent Calculation

     iteration #  1     ecut=    60.00 Ry     beta= 0.30
     Davidson diagonalization with overlap
     ethr =  1.00E-06,  avg # of iterations =  2.0

     Threshold (ethr) on eigenvalues was too large:
     Diagonalizing with lowered threshold

     Davidson diagonalization with overlap
     ethr =  9.52E-12,  avg # of iterations =  1.0

     total cpu time spent up to now is     1395.2 secs

     total energy              =   -1971.10232665 Ry
     estimated scf accuracy    <       0.00000001 Ry

     iteration #  2     ecut=    60.00 Ry     beta= 0.30
     Davidson diagonalization with overlap
     ethr =  1.04E-11,  avg # of iterations =  3.0

     total cpu time spent up to now is     1429.2 secs

     total energy              =   -1971.10232665 Ry
     estimated scf accuracy    <       0.00000009 Ry

     iteration #  3     ecut=    60.00 Ry     beta= 0.30
     Davidson diagonalization with overlap
     ethr =  1.04E-11,  avg # of iterations =  2.9

     total cpu time spent up to now is     1463.7 secs

     End of self-consistent calculation

     Number of k-points >= 100: set verbosity='high' to print the bands.

     the Fermi energy is     6.4892 ev

!    total energy              =   -1971.10232666 Ry
     estimated scf accuracy    <          1.3E-10 Ry
     smearing contrib. (-TS)   =       0.00144237 Ry
     internal energy E=F+TS    =   -1971.10376903 Ry

     The total energy is F=E-TS. E is the sum of the following terms:
     one-electron contribution =   -1761.01411688 Ry
     hartree contribution      =     914.80679149 Ry
     xc contribution           =    -201.21468903 Ry
     ewald contribution        =    -704.27275080 Ry
     DFT-D3 Dispersion         =      -0.36371450 Ry
     one-center paw contrib.   =    -219.04528931 Ry

     convergence has been achieved in   3 iterations

     Forces acting on atoms (cartesian axes, Ry/au):

     atom    1 type  1   force =     0.00036762   -0.00025431   -0.00004939
     atom    2 type  2   force =    -0.00022306   -0.00032903   -0.00047425
     atom    3 type  2   force =     0.00008395    0.00002778   -0.00001610
     atom    4 type  2   force =    -0.00004705   -0.00020384   -0.00009434
     atom    5 type  2   force =     0.00002976    0.00015162    0.00011808
     atom    6 type  2   force =     0.00001094    0.00013264   -0.00019766
     atom    7 type  2   force =    -0.00032340    0.00005477   -0.00002004
     atom    8 type  2   force =     0.00002618    0.00008213   -0.00012466
     atom    9 type  1   force =     0.00011364    0.00000656    0.00014856
     atom   10 type  1   force =    -0.00040428   -0.00021961   -0.00015027
     atom   11 type  1   force =     0.00024190    0.00038534   -0.00006778
     atom   12 type  1   force =     0.00005059   -0.00015676    0.00006608
     atom   13 type  3   force =    -0.00009698    0.00014003    0.00001039
     atom   14 type  3   force =     0.00007687    0.00002336    0.00002410
     atom   15 type  3   force =    -0.00016839    0.00007161    0.00013696
     atom   16 type  3   force =    -0.00005121    0.00008688    0.00003270
     atom   17 type  3   force =    -0.00010429   -0.00018140   -0.00004041
     atom   18 type  3   force =     0.00001702    0.00021256   -0.00004811
     atom   19 type  3   force =    -0.00012139    0.00013402   -0.00004647
     atom   20 type  3   force =     0.00001978   -0.00008862    0.00002093
     atom   21 type  3   force =     0.00077402   -0.00065702   -0.00003371
     atom   22 type  3   force =     0.00005053    0.00012301    0.00006109
     atom   23 type  3   force =     0.00000122    0.00031797    0.00040995
     atom   24 type  3   force =     0.00008999   -0.00001055   -0.00003587
     atom   25 type  3   force =    -0.00015443    0.00006036    0.00030002
     atom   26 type  3   force =     0.00013605    0.00008205    0.00005363
     atom   27 type  3   force =    -0.00008156    0.00013623    0.00005779
     atom   28 type  3   force =    -0.00031404   -0.00012777   -0.00004122

     Total force =     0.001801     Total SCF correction =     0.000010


     Computing stress (Cartesian axis) and pressure

          total   stress  (Ry/bohr**3)                   (kbar)     P=       -0.21
  -0.00000163   0.00000138   0.00000103           -0.24        0.20        0.15
   0.00000138  -0.00000025   0.00000043            0.20       -0.04        0.06
   0.00000103   0.00000043  -0.00000248            0.15        0.06       -0.37

     Message from routine bfgs:
     history already reset at previous step: exiting
     Energy error            =      3.7E-05 Ry
     Gradient error          =      7.7E-04 Ry/Bohr
     Cell gradient error     =      3.7E-01 kbar

     bfgs failed after   4 scf cycles and   1 bfgs steps, convergence not achieved
     (criteria: energy <  1.0E-05 Ry, force <  1.0E-04 Ry/Bohr, cell <  5.0E-01 kbar)

     End of BFGS Geometry Optimization

     Final enthalpy           =   -1971.1023266594 Ry

     File ./outdir/mg2nih4_ni.bfgs deleted, as requested
Begin final coordinates
     new unit-cell volume =   1683.96325 a.u.^3 (   249.53761 Ang^3 )
     density =      3.19234 g/cm^3

CELL_PARAMETERS (angstrom)
   7.522459418  -0.069132725  -0.094858824
  -5.078759748   5.829283670   0.191322925
  -2.324749488   1.190649574   5.791622479

ATOMIC_POSITIONS (angstrom)
Ni              -4.4678000907        5.2567456668        5.8036049914
Mg              -2.9879412619        4.9258502264        2.6673931444
Mg               3.2760798275        2.0278382639        3.1264981846
Mg               4.3605003189        1.3636685439        0.1998768024
Mg               0.7657124074        6.5712442670        4.4871844899
Mg              -0.5803322820        0.3506518737        1.4386289788
Mg              -0.6275758426        3.8244515047        4.3812456388
Mg               0.5230066502        3.2625812224        1.4098282229
Ni              -1.7788736932        6.1606757759        5.2806415816
Ni              -1.8296957157        2.5470975516        2.3933530487
Ni               2.0341913328        4.3667011420        3.5419053619
Ni               1.8451617069        0.8220094650        0.5271626495
H               -0.5458910527        5.3566022595        5.7449943515
H               -0.3790894879        2.1827369992        2.8025284069
H                0.6398400758        4.8880655677        3.0776916535
H                0.5661897828        1.5919558149        0.1790793761
H                5.0679529609        1.0624237147        2.1987326604
H                3.7550951586        1.8072068961        5.2544281644
H               -3.4420912052        5.0587494433        0.5968927182
H               -4.8727494690        5.7797010412        4.2933288772
H               -2.6055357648        6.2228148025        3.9947617623
H               -2.7548299442        3.2213336784        1.2694844484
H                3.1067624977        3.8936840349        4.6611707936
H                2.9228761150        0.9143261064        1.6143772460
H                0.3681731031        2.2753079557        5.0083096936
H                2.4197712400        3.5659158203        2.2754176642
H               -2.4401226801        3.2278911364        3.6560803537
H               -0.6734821443        4.7829764912        0.5486108748
End final coordinates



     Writing config-only to output data dir ./outdir/mg2nih4_ni.save/ :
     XML data file

     Writing all to output data dir ./outdir/mg2nih4_ni.save/ :
     XML data file, charge density, pseudopotentials, collected wavefunctions
 
     init_run     :     54.87s CPU     17.00s WALL (       1 calls)
     electrons    :   1570.00s CPU   1398.73s WALL (       4 calls)
     update_pot   :      2.14s CPU      0.19s WALL (       3 calls)
     forces       :     19.04s CPU     17.80s WALL (       4 calls)
     force_dftd3  :      2.91s CPU      2.80s WALL (       4 calls)
     stress       :     43.57s CPU     37.76s WALL (       4 calls)
     stres_dftd3  :      2.95s CPU      2.80s WALL (       4 calls)

     Called by init_run:
     wfcinit      :     12.53s CPU     13.67s WALL (       1 calls)
     potinit      :     41.20s CPU      2.24s WALL (       1 calls)
     hinit0       :      0.58s CPU      0.44s WALL (       1 calls)

     Called by electrons:
     c_bands      :   1333.67s CPU   1229.83s WALL (      47 calls)
     sum_band     :    192.99s CPU    157.46s WALL (      47 calls)
     v_of_rho     :      0.33s CPU      0.25s WALL (      48 calls)
     newd         :      7.32s CPU      6.83s WALL (      48 calls)
     PAW_pot      :     31.58s CPU      1.83s WALL (      51 calls)
     mix_rho      :      0.52s CPU      0.40s WALL (      47 calls)
     energy_dftd3 :      2.53s CPU      2.50s WALL (       4 calls)

     Called by c_bands:
     init_us_2    :     30.84s CPU     23.16s WALL (   40704 calls)
     cegterg      :   1252.31s CPU   1152.59s WALL (   18048 calls)

     Called by *egterg:
     cdiaghg      :    331.55s CPU    349.66s WALL (   54477 calls)
                                      349.11s GPU  (   54477 calls)
     h_psi        :    510.80s CPU    427.63s WALL (   57165 calls)
     s_psi        :    107.78s CPU    106.28s WALL (   57165 calls)
     g_psi        :      2.02s CPU      2.02s WALL (   38733 calls)

     Called by h_psi:
     h_psi:calbec :      2.26s CPU      1.77s WALL (   57165 calls)
     vloc_psi     :    406.03s CPU    325.94s WALL (   57165 calls)
                                      325.77s GPU  (   57165 calls)
     add_vuspsi   :     99.99s CPU     98.30s WALL (   57165 calls)

     General routines
     calbec       :      2.71s CPU      2.22s WALL (  102477 calls)
     fft          :     32.36s CPU      1.74s WALL (     722 calls)
                                        0.10s GPU  (     674 calls)
     ffts         :     11.41s CPU      0.65s WALL (      95 calls)
                                        0.00s GPU  (      47 calls)
     fftw         :      6.11s CPU    342.36s WALL (  539788 calls)
                                      339.94s GPU  (  539788 calls)
     interpolate  :     44.04s CPU      2.38s WALL (      48 calls)
     davcio       :      0.02s CPU      0.98s WALL (     384 calls)
 
 
     PWSCF        :  28m28.20s CPU  24m41.14s WALL

 
   This run was terminated on:  23:56:25  12Jun2026            

=------------------------------------------------------------------------------=
   JOB DONE.
=------------------------------------------------------------------------------=
