
     Program PWSCF v.7.5 starts on 11Jun2026 at 22:46:37 

     This program is part of the open-source Quantum ESPRESSO suite
     for quantum simulation of materials; please cite
         "P. Giannozzi et al., J. Phys.:Condens. Matter 21 395502 (2009);
         "P. Giannozzi et al., J. Phys.:Condens. Matter 29 465901 (2017);
         "P. Giannozzi et al., J. Chem. Phys. 152 154105 (2020);
          URL http://www.quantum-espresso.org", 
     in publications or presentations arising from this work. More details at
     http://www.quantum-espresso.org/quote

     Serial multi-threaded version, running on   32 processor cores
     10136 MiB available memory on the printing compute node when the environment starts
 
     Reading input from inputs/mg2nih4_co_nisite.in

     Current dimensions of program PWSCF are:
     Max number of different atomic species (ntypx) = 10
     Max number of k-points (npk) =  40000
     Max angular momentum in pseudopotentials (lmaxx) =  4
     file Mg.pbe-n-kjpaw_psl.0.3.0.UPF: wavefunction(s)  3S renormalized
 
 
     G-vector sticks info
     --------------------
     sticks:   dense  smooth     PW     G-vecs:    dense   smooth      PW
     Sum        6253    3123    899               326697   115555   17991
 
     Using Slab Decomposition
 


     bravais-lattice index     =            0
     lattice parameter (alat)  =      14.8381  a.u.
     unit-cell volume          =    1839.4989 (a.u.)^3
     number of atoms/cell      =           28
     number of atomic types    =            4
     number of electrons       =       103.00
     number of Kohn-Sham states=           62
     kinetic-energy cutoff     =      60.0000  Ry
     charge density cutoff     =     480.0000  Ry
     scf convergence threshold =      1.0E-09
     mixing beta               =       0.3000
     number of iterations used =           12  plain     mixing
     energy convergence thresh.=      1.0E-05
     force convergence thresh. =      1.0E-04
     press convergence thresh. =      5.0E-01
     Exchange-correlation= PBE
                           (   1   4   3   4   0   0   0)
     nstep                     =          200


     GPU acceleration is ACTIVE.  1 visible GPUs per MPI rank


     celldm(1)=  14.838115  celldm(2)=   0.000000  celldm(3)=   0.000000
     celldm(4)=   0.000000  celldm(5)=   0.000000  celldm(6)=   0.000000

     crystal axes: (cart. coord. in units of alat)
               a(1) = (   1.000000   0.000000   0.000000 )  
               a(2) = (  -0.668677   0.743553   0.000000 )  
               a(3) = (  -0.298371   0.132953   0.757271 )  

     reciprocal axes: (cart. coord. in units 2 pi/alat)
               b(1) = (  1.000000  0.899299  0.236120 )  
               b(2) = (  0.000000  1.344893 -0.236120 )  
               b(3) = (  0.000000 -0.000000  1.320532 )  


     PseudoPot. # 1 for Mg read from file:
     /home/x/Workspace/3-hEspesso/pseudo/Mg.pbe-n-kjpaw_psl.0.3.0.UPF
     MD5 check sum: 24ecedc7f3e3cbe212e682f4413594e4
     Pseudo is Projector augmented-wave + core cor, Zval =  2.0
     Generated using "atomic" code by A. Dal Corso  v.5.0.99 svn rev. 10869
     Shape of augmentation charge: PSQ
     Using radial grid of 1129 points,  4 beta functions with: 
                l(1) =   0
                l(2) =   0
                l(3) =   1
                l(4) =   1
     Q(r) pseudized with 0 coefficients 


     PseudoPot. # 2 for Co read from file:
     /home/x/Workspace/3-hEspesso/pseudo/Co_pbe_v1.2.uspp.F.UPF
     MD5 check sum: 5f91765df6ddd3222702df6e7b74a16d
     Pseudo is Ultrasoft + core correction, Zval = 17.0
     Generated by new atomic code, or converted to UPF format
     Using radial grid of  863 points,  6 beta functions with: 
                l(1) =   0
                l(2) =   0
                l(3) =   1
                l(4) =   1
                l(5) =   2
                l(6) =   2
     Q(r) pseudized with  8 coefficients,  rinner =    1.200   1.200   1.200
                                                       1.200   1.200

     PseudoPot. # 3 for Ni read from file:
     /home/x/Workspace/3-hEspesso/pseudo/ni_pbe_v1.4.uspp.F.UPF
     MD5 check sum: 1ee80287db30b12d2bc1f57a5b5d6409
     Pseudo is Ultrasoft + core correction, Zval = 18.0
     Generated by new atomic code, or converted to UPF format
     Using radial grid of  865 points,  6 beta functions with: 
                l(1) =   0
                l(2) =   0
                l(3) =   1
                l(4) =   1
                l(5) =   2
                l(6) =   2
     Q(r) pseudized with 10 coefficients,  rinner =    0.980   0.980   0.980
                                                       0.980   0.980

     PseudoPot. # 4 for H  read from file:
     /home/x/Workspace/3-hEspesso/pseudo/H.pbe-rrkjus_psl.1.0.0.UPF
     MD5 check sum: f52b6d4d1c606e5624b1dc7b2218f220
     Pseudo is Ultrasoft, Zval =  1.0
     Generated using "atomic" code by A. Dal Corso  v.5.1
     Using radial grid of  929 points,  2 beta functions with: 
                l(1) =   0
                l(2) =   0
     Q(r) pseudized with 0 coefficients 


     atomic species   valence    mass     pseudopotential
     Mg                2.00    24.30500     Mg( 1.00)
     Co               17.00    58.93320     Co( 1.00)
     Ni               18.00    58.69340     Ni( 1.00)
     H                 1.00     1.00794     H ( 1.00)

     No symmetry found



   Cartesian axes

     site n.     atom                  positions (alat units)
         1        Mg     tau(   1) = (  -0.5449835   0.6998890   0.6954563  )
         2        Mg     tau(   2) = (  -0.4043135   0.6143021   0.3168210  )
         3        Mg     tau(   3) = (   0.4372657   0.2622039   0.4404497  )
         4        Mg     tau(   4) = (   0.5779358   0.1766170   0.0618144  )
         5        Mg     tau(   5) = (   0.0996665   0.8255868   0.5679530  )
         6        Mg     tau(   6) = (  -0.0667142   0.0509192   0.1893177  )
         7        Mg     tau(   7) = (  -0.0665313   0.4526072   0.5679530  )
         8        Mg     tau(   8) = (   0.0994835   0.4238988   0.1893177  )
         9        Co     tau(   9) = (  -0.2193840   0.7839183   0.6960861  )
        10        Ni     tau(  10) = (  -0.2490730   0.3160130   0.3174507  )
        11        Ni     tau(  11) = (   0.2820252   0.5604930   0.4398200  )
        12        Ni     tau(  12) = (   0.2523362   0.0925877   0.0611846  )
        13        H      tau(  13) = (  -0.0640921   0.6609375   0.7172772  )
        14        H      tau(  14) = (  -0.0537902   0.2827795   0.3386418  )
        15        H      tau(  15) = (   0.0867424   0.5937265   0.4186289  )
        16        H      tau(  16) = (   0.0970443   0.2155685   0.0399935  )
        17        H      tau(  17) = (   0.6618369   0.1393567   0.3221854  )
        18        H      tau(  18) = (   0.5210736   0.2247341   0.7008207  )
        19        H      tau(  19) = (  -0.4881213   0.6517719   0.0564500  )
        20        H      tau(  20) = (  -0.6288847   0.7371494   0.4350853  )
        21        H      tau(  21) = (  -0.3270821   0.7653669   0.5274469  )
        22        H      tau(  22) = (  -0.3072943   0.4084971   0.1488116  )
        23        H      tau(  23) = (   0.3402465   0.4680089   0.6084592  )
        24        H      tau(  24) = (   0.3600343   0.1111391   0.2298238  )
        25        H      tau(  25) = (   0.0754276   0.2497323   0.6631919  )
        26        H      tau(  26) = (   0.3452564   0.4540025   0.2845565  )
        27        H      tau(  27) = (  -0.3123042   0.4225035   0.4727142  )
        28        H      tau(  28) = (  -0.0424754   0.6267738   0.0940789  )

     --------------------------------------------
     DFT-D3 Dispersion Correction (3-body terms):
     --------------------------------------------
       Reference C6 values for interpolation: 

         atom   Coordination number   C6
         H          0.912             6.05
         H          0.000            15.18
         Mg         0.000          1366.75
         Mg         0.963           902.54
         Mg         1.950           351.12
         Co         0.000          1065.56
         Co         1.715           373.09
         Co         2.926           296.13
         Co         7.779           236.57
         Ni         0.000          1149.49
         Ni         1.794           356.66
         Ni         6.546           257.56
         Ni         6.292           283.75

       Values used:

         atom   Coordination number  R0_AB[au]  C6      C8
         Mg         8.769            3.292    351.12  31436.69
         Mg         8.765            3.292    351.12  31436.69
         Mg         8.769            3.292    351.12  31436.69
         Mg         8.770            3.292    351.12  31436.69
         Mg         9.353            3.292    351.12  31436.69
         Mg         9.352            3.292    351.12  31436.69
         Mg         8.849            3.292    351.12  31436.69
         Mg         8.840            3.292    351.12  31436.69
         Co         9.344            3.243    236.57  20800.86
         Ni         9.206            3.162    257.65  21589.09
         Ni         9.206            3.162    257.65  21589.09
         Ni         9.206            3.162    257.65  21589.09
         H          2.187            2.062      6.05     73.18
         H          2.172            2.062      6.05     73.18
         H          2.172            2.062      6.05     73.18
         H          2.172            2.062      6.05     73.18
         H          2.024            2.062      6.05     73.18
         H          2.038            2.062      6.05     73.18
         H          2.024            2.062      6.05     73.18
         H          2.024            2.062      6.05     73.18
         H          2.017            2.062      6.05     73.18
         H          2.000            2.062      6.05     73.18
         H          2.000            2.062      6.05     73.18
         H          2.000            2.062      6.05     73.18
         H          2.110            2.062      6.05     73.18
         H          2.110            2.062      6.05     73.18
         H          2.110            2.062      6.05     73.18
         H          2.125            2.062      6.05     73.18

         Molecular C6 ( Ry / a.u.^6 ) =     62847.07


     number of k points=   384  Marzari-Vanderbilt smearing, width (Ry)=  0.0100

     Number of k-points >= 100: set verbosity='high' to print them.

     Dense  grid:   326697 G-vectors     FFT dimensions: ( 108, 108,  90)

     Smooth grid:   115555 G-vectors     FFT dimensions: (  75,  75,  64)

     Estimated max dynamical RAM per process >       6.59 GB

     Check: negative core charge=   -0.000002

     Initial potential from superposition of free atoms

     starting charge      95.9924, renormalised to     103.0000
     Starting wfcs are  100 randomized atomic wfcs

     total cpu time spent up to now is       16.4 secs

     Self-consistent Calculation

     iteration #  1     ecut=    60.00 Ry     beta= 0.30
     Davidson diagonalization with overlap
     ethr =  1.00E-02,  avg # of iterations =  4.9

     total cpu time spent up to now is       63.0 secs

     total energy              =   -1551.26984201 Ry
     estimated scf accuracy    <     186.99545072 Ry

     iteration #  2     ecut=    60.00 Ry     beta= 0.30
     Davidson diagonalization with overlap
     ethr =  1.00E-02,  avg # of iterations =  3.0

     total cpu time spent up to now is       98.2 secs

     total energy              =   -1617.41501354 Ry
     estimated scf accuracy    <      88.18739818 Ry

     iteration #  3     ecut=    60.00 Ry     beta= 0.30
     Davidson diagonalization with overlap
     ethr =  1.00E-02,  avg # of iterations =  2.0

     total cpu time spent up to now is      124.9 secs

     total energy              =   -1617.72007321 Ry
     estimated scf accuracy    <      22.11205991 Ry

     iteration #  4     ecut=    60.00 Ry     beta= 0.30
     Davidson diagonalization with overlap
     ethr =  1.00E-02,  avg # of iterations =  1.0

     total cpu time spent up to now is      143.3 secs

     total energy              =   -1618.29959988 Ry
     estimated scf accuracy    <       8.41801483 Ry

     iteration #  5     ecut=    60.00 Ry     beta= 0.30
     Davidson diagonalization with overlap
     ethr =  8.17E-03,  avg # of iterations =  1.0

     total cpu time spent up to now is      161.7 secs

     total energy              =   -1616.25060025 Ry
     estimated scf accuracy    <      10.48092186 Ry

     iteration #  6     ecut=    60.00 Ry     beta= 0.30
     Davidson diagonalization with overlap
     ethr =  8.17E-03,  avg # of iterations =  1.0

     total cpu time spent up to now is      180.6 secs

     total energy              =   -1616.58638213 Ry
     estimated scf accuracy    <       1.28840808 Ry

     iteration #  7     ecut=    60.00 Ry     beta= 0.30
     Davidson diagonalization with overlap
     ethr =  1.25E-03,  avg # of iterations =  3.0

     total cpu time spent up to now is      214.1 secs

     total energy              =   -1616.37156114 Ry
     estimated scf accuracy    <       1.68134635 Ry

     iteration #  8     ecut=    60.00 Ry     beta= 0.30
     Davidson diagonalization with overlap
     ethr =  1.25E-03,  avg # of iterations =  3.0

     total cpu time spent up to now is      242.8 secs

     total energy              =   -1616.80294942 Ry
     estimated scf accuracy    <       2.92590012 Ry

     iteration #  9     ecut=    60.00 Ry     beta= 0.30
     Davidson diagonalization with overlap
     ethr =  1.25E-03,  avg # of iterations =  1.0

     total cpu time spent up to now is      261.2 secs

     total energy              =   -1616.79141869 Ry
     estimated scf accuracy    <       1.47295864 Ry

     iteration # 10     ecut=    60.00 Ry     beta= 0.30
     Davidson diagonalization with overlap
     ethr =  1.25E-03,  avg # of iterations =  1.0

     total cpu time spent up to now is      279.5 secs

     total energy              =   -1616.67816620 Ry
     estimated scf accuracy    <       1.14967434 Ry

     iteration # 11     ecut=    60.00 Ry     beta= 0.30
     Davidson diagonalization with overlap
     ethr =  1.12E-03,  avg # of iterations =  1.0

     total cpu time spent up to now is      297.9 secs

     total energy              =   -1616.66624107 Ry
     estimated scf accuracy    <       0.20620287 Ry

     iteration # 12     ecut=    60.00 Ry     beta= 0.30
     Davidson diagonalization with overlap
     ethr =  2.00E-04,  avg # of iterations =  2.2

     total cpu time spent up to now is      323.3 secs

     total energy              =   -1616.70522670 Ry
     estimated scf accuracy    <       0.05045880 Ry

     iteration # 13     ecut=    60.00 Ry     beta= 0.30
     Davidson diagonalization with overlap
     ethr =  4.90E-05,  avg # of iterations =  1.8

     total cpu time spent up to now is      351.4 secs

     total energy              =   -1616.70728410 Ry
     estimated scf accuracy    <       0.02917354 Ry

     iteration # 14     ecut=    60.00 Ry     beta= 0.30
     Davidson diagonalization with overlap
     ethr =  2.83E-05,  avg # of iterations =  1.1

     total cpu time spent up to now is      370.9 secs

     total energy              =   -1616.69969999 Ry
     estimated scf accuracy    <       0.05065116 Ry

     iteration # 15     ecut=    60.00 Ry     beta= 0.30
     Davidson diagonalization with overlap
     ethr =  2.83E-05,  avg # of iterations =  1.0

     total cpu time spent up to now is      389.5 secs

     total energy              =   -1616.70234175 Ry
     estimated scf accuracy    <       0.00415852 Ry

     iteration # 16     ecut=    60.00 Ry     beta= 0.30
     Davidson diagonalization with overlap
     ethr =  4.04E-06,  avg # of iterations =  5.6

     total cpu time spent up to now is      438.8 secs

     total energy              =   -1616.70211247 Ry
     estimated scf accuracy    <       0.00391106 Ry

     iteration # 17     ecut=    60.00 Ry     beta= 0.30
     Davidson diagonalization with overlap
     ethr =  3.80E-06,  avg # of iterations =  1.8

     total cpu time spent up to now is      462.3 secs

     total energy              =   -1616.70248608 Ry
     estimated scf accuracy    <       0.00003275 Ry

     iteration # 18     ecut=    60.00 Ry     beta= 0.30
     Davidson diagonalization with overlap
     ethr =  3.18E-08,  avg # of iterations =  4.3

     total cpu time spent up to now is      507.7 secs

     total energy              =   -1616.70256928 Ry
     estimated scf accuracy    <       0.00001081 Ry

     iteration # 19     ecut=    60.00 Ry     beta= 0.30
     Davidson diagonalization with overlap
     ethr =  1.05E-08,  avg # of iterations =  1.1

     total cpu time spent up to now is      526.7 secs

     total energy              =   -1616.70256990 Ry
     estimated scf accuracy    <       0.00000065 Ry

     iteration # 20     ecut=    60.00 Ry     beta= 0.30
     Davidson diagonalization with overlap
     ethr =  6.32E-10,  avg # of iterations =  3.0

     total cpu time spent up to now is      557.8 secs

     total energy              =   -1616.70256983 Ry
     estimated scf accuracy    <       0.00000078 Ry

     iteration # 21     ecut=    60.00 Ry     beta= 0.30
     Davidson diagonalization with overlap
     ethr =  6.32E-10,  avg # of iterations =  2.0

     total cpu time spent up to now is      581.5 secs

     total energy              =   -1616.70256993 Ry
     estimated scf accuracy    <       0.00000021 Ry

     iteration # 22     ecut=    60.00 Ry     beta= 0.30
     Davidson diagonalization with overlap
     ethr =  2.07E-10,  avg # of iterations =  2.0

     total cpu time spent up to now is      604.7 secs

     total energy              =   -1616.70256996 Ry
     estimated scf accuracy    <          7.6E-09 Ry

     iteration # 23     ecut=    60.00 Ry     beta= 0.30
     Davidson diagonalization with overlap
     ethr =  7.40E-12,  avg # of iterations =  4.6

     total cpu time spent up to now is      652.2 secs

     total energy              =   -1616.70256997 Ry
     estimated scf accuracy    <          1.4E-09 Ry

     iteration # 24     ecut=    60.00 Ry     beta= 0.30
     Davidson diagonalization with overlap
     ethr =  1.32E-12,  avg # of iterations =  2.0

     total cpu time spent up to now is      674.9 secs

     End of self-consistent calculation

     Number of k-points >= 100: set verbosity='high' to print the bands.

     the Fermi energy is     5.1523 ev

!    total energy              =   -1616.70256997 Ry
     estimated scf accuracy    <          4.4E-10 Ry
     smearing contrib. (-TS)   =       0.00036726 Ry
     internal energy E=F+TS    =   -1616.70293723 Ry

     The total energy is F=E-TS. E is the sum of the following terms:
     one-electron contribution =   -1392.55395340 Ry
     hartree contribution      =     723.02378886 Ry
     xc contribution           =    -164.12128525 Ry
     ewald contribution        =    -532.42456649 Ry
     DFT-D3 Dispersion         =      -0.33748818 Ry
     one-center paw contrib.   =    -250.28943277 Ry

     convergence has been achieved in  24 iterations

     Forces acting on atoms (cartesian axes, Ry/au):

     atom    1 type  1   force =     0.00530858   -0.00054964   -0.00051469
     atom    2 type  1   force =     0.00183673    0.00186573    0.00284574
     atom    3 type  1   force =    -0.00163795   -0.00398787    0.00530631
     atom    4 type  1   force =     0.00318109   -0.00505528   -0.00365362
     atom    5 type  1   force =    -0.00550814   -0.00096030    0.00210771
     atom    6 type  1   force =    -0.00436401   -0.00539841   -0.00482095
     atom    7 type  1   force =    -0.00122256    0.00419815    0.00174150
     atom    8 type  1   force =     0.00063030    0.00607291   -0.00397735
     atom    9 type  2   force =    -0.00122446   -0.00921971   -0.00919343
     atom   10 type  3   force =     0.00105483    0.00091806   -0.00337970
     atom   11 type  3   force =    -0.00106873   -0.00007630    0.00394729
     atom   12 type  3   force =    -0.00008320    0.00185185    0.00199686
     atom   13 type  4   force =     0.00191953    0.00363696    0.00714086
     atom   14 type  4   force =     0.00033856   -0.00018897    0.00147546
     atom   15 type  4   force =     0.00111808   -0.00014538   -0.00056459
     atom   16 type  4   force =     0.00062535   -0.00122158   -0.00107736
     atom   17 type  4   force =     0.00044175    0.00207805   -0.00010392
     atom   18 type  4   force =    -0.00105490   -0.00369849   -0.00075169
     atom   19 type  4   force =     0.00166602   -0.00041946    0.00058753
     atom   20 type  4   force =    -0.00052994    0.00047270   -0.00125683
     atom   21 type  4   force =    -0.00239307    0.00551130    0.00057077
     atom   22 type  4   force =    -0.00127877    0.00022388    0.00068152
     atom   23 type  4   force =     0.00024051    0.00087128    0.00060245
     atom   24 type  4   force =     0.00046777   -0.00003051   -0.00017474
     atom   25 type  4   force =    -0.00261984    0.00187697   -0.00062916
     atom   26 type  4   force =     0.00091972   -0.00055037    0.00100153
     atom   27 type  4   force =     0.00054874    0.00013900    0.00015490
     atom   28 type  4   force =     0.00268801    0.00178544   -0.00006240

     Total force =     0.026348     Total SCF correction =     0.000022


     Computing stress (Cartesian axis) and pressure

          total   stress  (Ry/bohr**3)                   (kbar)     P=      -25.86
  -0.00016454  -0.00001421   0.00002208          -24.20       -2.09        3.25
  -0.00001421  -0.00019686  -0.00002498           -2.09      -28.96       -3.67
   0.00002208  -0.00002498  -0.00016599            3.25       -3.67      -24.42


     BFGS Geometry Optimization
     Energy error            =      5.4E-03 Ry
     Gradient error          =      9.2E-03 Ry/Bohr
     Cell gradient error     =      2.9E+01 kbar

     number of scf cycles    =   1
     number of bfgs steps    =   0

     enthalpy           new  =   -1616.7025699678 Ry

     new trust radius        =       0.0426629490 bohr
     new conv_thr            =       0.0000000010 Ry

     new unit-cell volume =   1815.35049 a.u.^3 (   269.00719 Ang^3 )
     density =      2.75050 g/cm^3

CELL_PARAMETERS (angstrom)
   7.819693429  -0.002789635   0.004335009
  -5.230920034   5.811507699  -0.006544555
  -2.330259511   1.035924523   5.919464501

ATOMIC_POSITIONS (angstrom)
Mg              -4.2577442511        5.4662970793        5.4319941861
Mg              -3.1609795302        4.8003122613        2.4740877945
Mg               3.4196009554        2.0432101353        3.4474639011
Mg               4.5207320341        1.3753938904        0.4830684800
Mg               0.7766181374        6.4470302064        4.4385508054
Mg              -0.5233064794        0.3942668055        1.4772735436
Mg              -0.5196992063        3.5359895491        4.4394657120
Mg               0.7778983804        3.3140623478        1.4766074264
Co              -1.7153312542        6.1173748878        5.4333452874
Ni              -1.9466254134        2.4687425295        2.4778669652
Ni               2.2051319755        4.3763431185        3.4396868153
Ni               1.9731552827        0.7233906064        0.4801192621
H               -0.4989019334        5.1627099325        5.6089279793
H               -0.4197647193        2.2078448387        2.6471371655
H                0.6790465825        4.6366211134        3.2705983356
H                0.7587582890        1.6832020457        0.3115222719
H                5.1766022194        1.0865103412        2.5214298548
H                4.0764912078        1.7490888546        5.4807660486
H               -3.8176545390        5.0933852709        0.4364039355
H               -4.9181356894        5.7594758682        3.3951071423
H               -2.5587922054        5.9813077818        4.1194509689
H               -2.4041151775        3.1919762237        1.1606420912
H                2.6620820708        3.6532428155        4.7572888283
H                2.8162905413        0.8662210740        1.7980103092
H                0.5906178470        1.9487722246        5.1845383109
H                2.7002516431        3.5446315073        2.2248626888
H               -2.4409634676        3.2997938083        3.6930022512
H               -0.3320689283        4.8977991051        0.7323510155



     Writing config-only to output data dir ./outdir/mg2nih4_co_nisite.save/ :
     XML data file
     NEW-OLD atomic charge density approx. for the potential
     New effective cutoffs (rho, wfc):  485.02   60.64

     Check: negative core charge=   -0.000002

     total cpu time spent up to now is      688.0 secs

     Self-consistent Calculation

     iteration #  1     ecut=    60.00 Ry     beta= 0.30
     Davidson diagonalization with overlap
     c_bands:  1 eigenvalues not converged
     c_bands:  1 eigenvalues not converged
     ethr =  1.00E-06,  avg # of iterations =  4.1

     total cpu time spent up to now is      731.4 secs

     total energy              =   -1616.70449931 Ry
     estimated scf accuracy    <       0.00603587 Ry

     iteration #  2     ecut=    60.00 Ry     beta= 0.30
     Davidson diagonalization with overlap
     ethr =  5.86E-06,  avg # of iterations =  3.0

     total cpu time spent up to now is      761.0 secs

     total energy              =   -1616.70423542 Ry
     estimated scf accuracy    <       0.03191320 Ry

     iteration #  3     ecut=    60.00 Ry     beta= 0.30
     Davidson diagonalization with overlap
     ethr =  5.86E-06,  avg # of iterations =  3.0

     total cpu time spent up to now is      789.1 secs

     total energy              =   -1616.70652249 Ry
     estimated scf accuracy    <       0.00469799 Ry

     iteration #  4     ecut=    60.00 Ry     beta= 0.30
     Davidson diagonalization with overlap
     ethr =  4.56E-06,  avg # of iterations =  1.1

     total cpu time spent up to now is      808.4 secs

     total energy              =   -1616.70677932 Ry
     estimated scf accuracy    <       0.00002855 Ry

     iteration #  5     ecut=    60.00 Ry     beta= 0.30
     Davidson diagonalization with overlap
     ethr =  2.77E-08,  avg # of iterations =  3.7

     total cpu time spent up to now is      843.6 secs

     total energy              =   -1616.70680037 Ry
     estimated scf accuracy    <       0.00007190 Ry

     iteration #  6     ecut=    60.00 Ry     beta= 0.30
     Davidson diagonalization with overlap
     ethr =  2.77E-08,  avg # of iterations =  1.8

     total cpu time spent up to now is      867.9 secs

     total energy              =   -1616.70680066 Ry
     estimated scf accuracy    <       0.00002079 Ry

     iteration #  7     ecut=    60.00 Ry     beta= 0.30
     Davidson diagonalization with overlap
     ethr =  2.02E-08,  avg # of iterations =  2.0

     total cpu time spent up to now is      890.5 secs

     total energy              =   -1616.70680226 Ry
     estimated scf accuracy    <       0.00000149 Ry

     iteration #  8     ecut=    60.00 Ry     beta= 0.30
     Davidson diagonalization with overlap
     ethr =  1.44E-09,  avg # of iterations =  4.1

     total cpu time spent up to now is      925.2 secs

     total energy              =   -1616.70680256 Ry
     estimated scf accuracy    <       0.00000061 Ry

     iteration #  9     ecut=    60.00 Ry     beta= 0.30
     Davidson diagonalization with overlap
     ethr =  5.96E-10,  avg # of iterations =  2.2

     total cpu time spent up to now is      949.7 secs

     total energy              =   -1616.70680261 Ry
     estimated scf accuracy    <       0.00000028 Ry

     iteration # 10     ecut=    60.00 Ry     beta= 0.30
     Davidson diagonalization with overlap
     ethr =  2.75E-10,  avg # of iterations =  2.4

     total cpu time spent up to now is      977.8 secs

     total energy              =   -1616.70680264 Ry
     estimated scf accuracy    <       0.00000004 Ry

     iteration # 11     ecut=    60.00 Ry     beta= 0.30
     Davidson diagonalization with overlap
     ethr =  3.49E-11,  avg # of iterations =  4.0

     total cpu time spent up to now is     1013.2 secs

     total energy              =   -1616.70680265 Ry
     estimated scf accuracy    <          4.5E-09 Ry

     iteration # 12     ecut=    60.00 Ry     beta= 0.30
     Davidson diagonalization with overlap
     ethr =  4.37E-12,  avg # of iterations =  1.3

     total cpu time spent up to now is     1033.5 secs

     End of self-consistent calculation

     Number of k-points >= 100: set verbosity='high' to print the bands.

     the Fermi energy is     5.2626 ev

!    total energy              =   -1616.70680265 Ry
     estimated scf accuracy    <          4.9E-10 Ry
     smearing contrib. (-TS)   =       0.00026875 Ry
     internal energy E=F+TS    =   -1616.70707140 Ry

     The total energy is F=E-TS. E is the sum of the following terms:
     one-electron contribution =   -1388.27933080 Ry
     hartree contribution      =     721.26751816 Ry
     xc contribution           =    -164.21832250 Ry
     ewald contribution        =    -534.83401684 Ry
     DFT-D3 Dispersion         =      -0.34177432 Ry
     one-center paw contrib.   =    -250.30114510 Ry

     convergence has been achieved in  12 iterations

     Forces acting on atoms (cartesian axes, Ry/au):

     atom    1 type  1   force =     0.00443422   -0.00113392   -0.00021613
     atom    2 type  1   force =     0.00214786    0.00205227    0.00288585
     atom    3 type  1   force =    -0.00197031   -0.00356921    0.00401871
     atom    4 type  1   force =     0.00253293   -0.00404865   -0.00347654
     atom    5 type  1   force =    -0.00455921   -0.00043461    0.00176355
     atom    6 type  1   force =    -0.00383539   -0.00524970   -0.00416109
     atom    7 type  1   force =    -0.00105882    0.00418827    0.00150742
     atom    8 type  1   force =     0.00020830    0.00455766   -0.00323876
     atom    9 type  2   force =    -0.00056784   -0.00915510   -0.00825657
     atom   10 type  3   force =     0.00233111    0.00175796   -0.00398300
     atom   11 type  3   force =    -0.00178242   -0.00107647    0.00416624
     atom   12 type  3   force =    -0.00012697    0.00284437    0.00275839
     atom   13 type  4   force =     0.00381301    0.00262496    0.00788657
     atom   14 type  4   force =     0.00189575   -0.00060981    0.00200177
     atom   15 type  4   force =    -0.00066285    0.00048722   -0.00124925
     atom   16 type  4   force =    -0.00120452   -0.00023455   -0.00175337
     atom   17 type  4   force =    -0.00083293   -0.00076636   -0.00022844
     atom   18 type  4   force =    -0.00013322   -0.00201036   -0.00085851
     atom   19 type  4   force =     0.00053770   -0.00277500    0.00065963
     atom   20 type  4   force =     0.00059713    0.00291475   -0.00110053
     atom   21 type  4   force =    -0.00406212    0.00506266   -0.00195074
     atom   22 type  4   force =    -0.00173359    0.00113023   -0.00088958
     atom   23 type  4   force =     0.00070690   -0.00009806    0.00214286
     atom   24 type  4   force =     0.00152007    0.00021012    0.00137950
     atom   25 type  4   force =    -0.00117296    0.00182807   -0.00260661
     atom   26 type  4   force =     0.00172737   -0.00144931   -0.00079378
     atom   27 type  4   force =    -0.00039827    0.00097949    0.00211957
     atom   28 type  4   force =     0.00164908    0.00197307    0.00147283

     Total force =     0.025901     Total SCF correction =     0.000040


     Computing stress (Cartesian axis) and pressure

          total   stress  (Ry/bohr**3)                   (kbar)     P=      -15.90
  -0.00009794  -0.00001053   0.00002205          -14.41       -1.55        3.24
  -0.00001053  -0.00012677  -0.00002358           -1.55      -18.65       -3.47
   0.00002205  -0.00002358  -0.00009947            3.24       -3.47      -14.63

     Energy error            =      4.2E-03 Ry
     Gradient error          =      9.2E-03 Ry/Bohr
     Cell gradient error     =      1.9E+01 kbar

     number of scf cycles    =   2
     number of bfgs steps    =   1

     enthalpy           old  =   -1616.7025699678 Ry
     enthalpy           new  =   -1616.7068026537 Ry

     CASE: enthalpy          _new < enthalpy          _old

     new trust radius        =       0.0638989357 bohr
     new conv_thr            =       0.0000000009 Ry

     new unit-cell volume =   1781.23132 a.u.^3 (   263.95125 Ang^3 )
     density =      2.80318 g/cm^3

CELL_PARAMETERS (angstrom)
   7.774868896  -0.007494463   0.013899364
  -5.204444473   5.771918919  -0.020588322
  -2.310267214   1.021897358   5.880793704

ATOMIC_POSITIONS (angstrom)
Mg              -4.2247391995        5.4202215866        5.3876858730
Mg              -3.1402524811        4.7659841942        2.4528252509
Mg               3.4007516462        2.0173854185        3.4336918485
Mg               4.4975762346        1.3571337685        0.4799512740
Mg               0.7683394631        6.3927213603        4.4072345691
Mg              -0.5232392949        0.3836622957        1.4626270865
Mg              -0.5146570614        3.5092740558        4.4100846017
Mg               0.7735166287        3.2926922092        1.4607512684
Co              -1.7032574475        6.0556612885        5.3819036522
Ni              -1.9313479805        2.4504456094        2.4532405986
Ni               2.1920797032        4.3371182494        3.4214099855
Ni               1.9618550296        0.7194310289        0.4819080812
H               -0.4880210431        5.1207336340        5.5779449792
H               -0.4133895215        2.1876884771        2.6305828210
H                0.6757659820        4.5982904275        3.2448932613
H                0.7525503663        1.6695893972        0.3064471523
H                5.1485172732        1.0714558060        2.5114155742
H                4.0585411619        1.7240403255        5.4505806138
H               -3.7975656772        5.0546569943        0.4232305182
H               -4.8886749764        5.7187296326        3.3604212244
H               -2.5472451267        5.9393236661        4.0824041749
H               -2.3928063773        3.1696370872        1.1458410524
H                2.6512292195        3.6184545448        4.7303859218
H                2.8034912895        0.8559894439        1.7913095540
H                0.5909011024        1.9293653247        5.1496786591
H                2.6872866676        3.5123977839        2.2098097063
H               -2.4247983226        3.2731633165        3.6664297572
H               -0.3302063340        4.8632584680        0.7227773927



     Writing config-only to output data dir ./outdir/mg2nih4_co_nisite.save/ :
     XML data file
     NEW-OLD atomic charge density approx. for the potential
     New effective cutoffs (rho, wfc):  492.96   61.63

     Check: negative core charge=   -0.000002

     total cpu time spent up to now is     1046.6 secs

     Self-consistent Calculation

     iteration #  1     ecut=    60.00 Ry     beta= 0.30
     Davidson diagonalization with overlap
     ethr =  1.00E-06,  avg # of iterations =  4.7

     total cpu time spent up to now is     1097.5 secs

     total energy              =   -1616.70590254 Ry
     estimated scf accuracy    <       0.01269405 Ry

     iteration #  2     ecut=    60.00 Ry     beta= 0.30
     Davidson diagonalization with overlap
     ethr =  1.23E-05,  avg # of iterations =  3.0

     total cpu time spent up to now is     1127.0 secs

     total energy              =   -1616.70563194 Ry
     estimated scf accuracy    <       0.06070623 Ry

     iteration #  3     ecut=    60.00 Ry     beta= 0.30
     Davidson diagonalization with overlap
     ethr =  1.23E-05,  avg # of iterations =  3.0

     total cpu time spent up to now is     1155.4 secs

     total energy              =   -1616.71005200 Ry
     estimated scf accuracy    <       0.00864054 Ry

     iteration #  4     ecut=    60.00 Ry     beta= 0.30
     Davidson diagonalization with overlap
     ethr =  8.39E-06,  avg # of iterations =  1.3

     total cpu time spent up to now is     1177.0 secs

     total energy              =   -1616.71057353 Ry
     estimated scf accuracy    <       0.00009940 Ry

     iteration #  5     ecut=    60.00 Ry     beta= 0.30
     Davidson diagonalization with overlap
     ethr =  9.65E-08,  avg # of iterations =  3.1

     total cpu time spent up to now is     1206.8 secs

     total energy              =   -1616.71060784 Ry
     estimated scf accuracy    <       0.00010927 Ry

     iteration #  6     ecut=    60.00 Ry     beta= 0.30
     Davidson diagonalization with overlap
     ethr =  9.65E-08,  avg # of iterations =  1.1

     total cpu time spent up to now is     1226.0 secs

     total energy              =   -1616.71061064 Ry
     estimated scf accuracy    <       0.00003286 Ry

     iteration #  7     ecut=    60.00 Ry     beta= 0.30
     Davidson diagonalization with overlap
     ethr =  3.19E-08,  avg # of iterations =  2.0

     total cpu time spent up to now is     1248.6 secs

     total energy              =   -1616.71061447 Ry
     estimated scf accuracy    <       0.00000885 Ry

     iteration #  8     ecut=    60.00 Ry     beta= 0.30
     Davidson diagonalization with overlap
     ethr =  8.60E-09,  avg # of iterations =  2.0

     total cpu time spent up to now is     1277.8 secs

     total energy              =   -1616.71061508 Ry
     estimated scf accuracy    <       0.00000077 Ry

     iteration #  9     ecut=    60.00 Ry     beta= 0.30
     Davidson diagonalization with overlap
     ethr =  7.46E-10,  avg # of iterations =  4.0

     total cpu time spent up to now is     1319.6 secs

     total energy              =   -1616.71061580 Ry
     estimated scf accuracy    <       0.00000125 Ry

     iteration # 10     ecut=    60.00 Ry     beta= 0.30
     Davidson diagonalization with overlap
     ethr =  7.46E-10,  avg # of iterations =  1.9

     total cpu time spent up to now is     1343.2 secs

     total energy              =   -1616.71061590 Ry
     estimated scf accuracy    <       0.00000004 Ry

     iteration # 11     ecut=    60.00 Ry     beta= 0.30
     Davidson diagonalization with overlap
     ethr =  3.65E-11,  avg # of iterations =  2.9

     total cpu time spent up to now is     1373.3 secs

     total energy              =   -1616.71061591 Ry
     estimated scf accuracy    <          7.6E-09 Ry

     iteration # 12     ecut=    60.00 Ry     beta= 0.30
     Davidson diagonalization with overlap
     ethr =  7.42E-12,  avg # of iterations =  2.0

     total cpu time spent up to now is     1396.1 secs

     total energy              =   -1616.71061591 Ry
     estimated scf accuracy    <          1.1E-09 Ry

     iteration # 13     ecut=    60.00 Ry     beta= 0.30
     Davidson diagonalization with overlap
     ethr =  1.11E-12,  avg # of iterations =  2.0

     total cpu time spent up to now is     1419.5 secs

     End of self-consistent calculation

     Number of k-points >= 100: set verbosity='high' to print the bands.

     the Fermi energy is     5.4265 ev

!    total energy              =   -1616.71061592 Ry
     estimated scf accuracy    <          8.9E-11 Ry
     smearing contrib. (-TS)   =       0.00007367 Ry
     internal energy E=F+TS    =   -1616.71068959 Ry

     The total energy is F=E-TS. E is the sum of the following terms:
     one-electron contribution =   -1381.54281552 Ry
     hartree contribution      =     718.46542977 Ry
     xc contribution           =    -164.35085339 Ry
     ewald contribution        =    -538.61631353 Ry
     DFT-D3 Dispersion         =      -0.34804098 Ry
     one-center paw contrib.   =    -250.31809594 Ry

     convergence has been achieved in  13 iterations

     Forces acting on atoms (cartesian axes, Ry/au):

     atom    1 type  1   force =     0.00258201   -0.00193271    0.00031496
     atom    2 type  1   force =     0.00235861    0.00219065    0.00271199
     atom    3 type  1   force =    -0.00207058   -0.00257433    0.00158568
     atom    4 type  1   force =     0.00138285   -0.00236089   -0.00283622
     atom    5 type  1   force =    -0.00265453    0.00065611    0.00100418
     atom    6 type  1   force =    -0.00273155   -0.00480626   -0.00279837
     atom    7 type  1   force =    -0.00084212    0.00376363    0.00102181
     atom    8 type  1   force =    -0.00054478    0.00180302   -0.00171836
     atom    9 type  2   force =     0.00035586   -0.00777723   -0.00597128
     atom   10 type  3   force =     0.00330487    0.00208659   -0.00392660
     atom   11 type  3   force =    -0.00205909   -0.00168864    0.00354044
     atom   12 type  3   force =    -0.00023310    0.00320426    0.00297034
     atom   13 type  4   force =     0.00607329    0.00156248    0.00884171
     atom   14 type  4   force =     0.00355011   -0.00107701    0.00268634
     atom   15 type  4   force =    -0.00258606    0.00128794   -0.00220469
     atom   16 type  4   force =    -0.00346542    0.00078202   -0.00270653
     atom   17 type  4   force =    -0.00202596   -0.00359052   -0.00048402
     atom   18 type  4   force =     0.00082933   -0.00081194   -0.00111011
     atom   19 type  4   force =    -0.00057977   -0.00479270    0.00081113
     atom   20 type  4   force =     0.00154265    0.00503451   -0.00075842
     atom   21 type  4   force =    -0.00607858    0.00438837   -0.00482581
     atom   22 type  4   force =    -0.00224391    0.00217291   -0.00266461
     atom   23 type  4   force =     0.00121438   -0.00126789    0.00380217
     atom   24 type  4   force =     0.00276241    0.00048169    0.00304736
     atom   25 type  4   force =     0.00035855    0.00163156   -0.00450293
     atom   26 type  4   force =     0.00255406   -0.00230163   -0.00257644
     atom   27 type  4   force =    -0.00144473    0.00159922    0.00403304
     atom   28 type  4   force =     0.00069121    0.00233681    0.00271325

     Total force =     0.027252     Total SCF correction =     0.000026


     Computing stress (Cartesian axis) and pressure

          total   stress  (Ry/bohr**3)                   (kbar)     P=       -2.20
  -0.00000596  -0.00000488   0.00001939           -0.88       -0.72        2.85
  -0.00000488  -0.00003007  -0.00001955           -0.72       -4.42       -2.88
   0.00001939  -0.00001955  -0.00000884            2.85       -2.88       -1.30

     Energy error            =      3.8E-03 Ry
     Gradient error          =      8.8E-03 Ry/Bohr
     Cell gradient error     =      4.4E+00 kbar

     number of scf cycles    =   3
     number of bfgs steps    =   2

     enthalpy           old  =   -1616.7068026537 Ry
     enthalpy           new  =   -1616.7106159155 Ry

     CASE: enthalpy          _new < enthalpy          _old

     new trust radius        =       0.0473383688 bohr
     new conv_thr            =       0.0000000009 Ry

     new unit-cell volume =   1758.71130 a.u.^3 (   260.61413 Ang^3 )
     density =      2.83908 g/cm^3

CELL_PARAMETERS (angstrom)
   7.747131486  -0.011552373   0.024708135
  -5.188910807   5.743578788  -0.036223691
  -2.294343131   1.008991091   5.854123866

ATOMIC_POSITIONS (angstrom)
Mg              -4.2000784547        5.3831798658        5.3538613873
Mg              -3.1249408021        4.7413020170        2.4362405413
Mg               3.3895617848        1.9954221495        3.4265613993
Mg               4.4842088980        1.3422963717        0.4780664085
Mg               0.7633783272        6.3516212850        4.3843983179
Mg              -0.5241367479        0.3727144268        1.4510218509
Mg              -0.5098514568        3.4897125654        4.3895059210
Mg               0.7707897362        3.2768212430        1.4480923882
Co              -1.6930007891        6.0043473158        5.3406892917
Ni              -1.9184648063        2.4372679645        2.4323337418
Ni               2.1841680525        4.3057344098        3.4106737554
Ni               1.9548941140        0.7179152247        0.4857080760
H               -0.4741871454        5.0881561031        5.5607879029
H               -0.4055905402        2.1710720366        2.6203164190
H                0.6732468229        4.5696599853        3.2245351441
H                0.7461443276        1.6601047934        0.3007374209
H                5.1311456247        1.0564152490        2.5071500366
H                4.0511996108        1.7024961614        5.4319818843
H               -3.7860067710        5.0236469708        0.4100246005
H               -4.8681141077        5.6909693178        3.3313648589
H               -2.5427235584        5.9093660947        4.0501571187
H               -2.3871355630        3.1544441013        1.1311094530
H                2.6478333740        3.5896849110        4.7152773263
H                2.7985433882        0.8477376976        1.7903517610
H                0.5942938100        1.9135615629        5.1235395555
H                2.6819193628        3.4862518843        2.1979176509
H               -2.4139818110        3.2531470686        3.6487871053
H               -0.3288290051        4.8391963041        0.7153250238



     Writing config-only to output data dir ./outdir/mg2nih4_co_nisite.save/ :
     XML data file
     NEW-OLD atomic charge density approx. for the potential
     New effective cutoffs (rho, wfc):  499.14   62.41

     Check: negative core charge=   -0.000002

     total cpu time spent up to now is     1432.7 secs

     Self-consistent Calculation

     iteration #  1     ecut=    60.00 Ry     beta= 0.30
     Davidson diagonalization with overlap
     ethr =  1.00E-06,  avg # of iterations =  4.4

     total cpu time spent up to now is     1481.6 secs

     total energy              =   -1616.71013882 Ry
     estimated scf accuracy    <       0.00612630 Ry

     iteration #  2     ecut=    60.00 Ry     beta= 0.30
     Davidson diagonalization with overlap
     ethr =  5.95E-06,  avg # of iterations =  3.0

     total cpu time spent up to now is     1511.1 secs

     total energy              =   -1616.71002357 Ry
     estimated scf accuracy    <       0.02585817 Ry

     iteration #  3     ecut=    60.00 Ry     beta= 0.30
     Davidson diagonalization with overlap
     ethr =  5.95E-06,  avg # of iterations =  3.0

     total cpu time spent up to now is     1539.8 secs

     total energy              =   -1616.71194421 Ry
     estimated scf accuracy    <       0.00387886 Ry

     iteration #  4     ecut=    60.00 Ry     beta= 0.30
     Davidson diagonalization with overlap
     ethr =  3.77E-06,  avg # of iterations =  1.9

     total cpu time spent up to now is     1563.8 secs

     total energy              =   -1616.71221159 Ry
     estimated scf accuracy    <       0.00021671 Ry

     iteration #  5     ecut=    60.00 Ry     beta= 0.30
     Davidson diagonalization with overlap
     ethr =  2.10E-07,  avg # of iterations =  2.3

     total cpu time spent up to now is     1589.0 secs

     total energy              =   -1616.71222983 Ry
     estimated scf accuracy    <       0.00003010 Ry

     iteration #  6     ecut=    60.00 Ry     beta= 0.30
     Davidson diagonalization with overlap
     ethr =  2.92E-08,  avg # of iterations =  2.0

     total cpu time spent up to now is     1612.6 secs

     total energy              =   -1616.71223057 Ry
     estimated scf accuracy    <       0.00004215 Ry

     iteration #  7     ecut=    60.00 Ry     beta= 0.30
     Davidson diagonalization with overlap
     ethr =  2.92E-08,  avg # of iterations =  1.5

     total cpu time spent up to now is     1634.9 secs

     total energy              =   -1616.71223358 Ry
     estimated scf accuracy    <       0.00000573 Ry

     iteration #  8     ecut=    60.00 Ry     beta= 0.30
     Davidson diagonalization with overlap
     ethr =  5.56E-09,  avg # of iterations =  4.0

     total cpu time spent up to now is     1668.8 secs

     total energy              =   -1616.71223458 Ry
     estimated scf accuracy    <       0.00000157 Ry

     iteration #  9     ecut=    60.00 Ry     beta= 0.30
     Davidson diagonalization with overlap
     ethr =  1.52E-09,  avg # of iterations =  5.2

     total cpu time spent up to now is     1709.3 secs

     total energy              =   -1616.71223495 Ry
     estimated scf accuracy    <       0.00000060 Ry

     iteration # 10     ecut=    60.00 Ry     beta= 0.30
     Davidson diagonalization with overlap
     ethr =  5.81E-10,  avg # of iterations =  2.7

     total cpu time spent up to now is     1736.3 secs

     total energy              =   -1616.71223504 Ry
     estimated scf accuracy    <       0.00000009 Ry

     iteration # 11     ecut=    60.00 Ry     beta= 0.30
     Davidson diagonalization with overlap
     ethr =  8.60E-11,  avg # of iterations =  2.3

     total cpu time spent up to now is     1761.7 secs

     total energy              =   -1616.71223506 Ry
     estimated scf accuracy    <          3.2E-09 Ry

     iteration # 12     ecut=    60.00 Ry     beta= 0.30
     Davidson diagonalization with overlap
     ethr =  3.06E-12,  avg # of iterations =  2.9

     total cpu time spent up to now is     1792.1 secs

     End of self-consistent calculation

     Number of k-points >= 100: set verbosity='high' to print the bands.

     the Fermi energy is     5.5428 ev

!    total energy              =   -1616.71223506 Ry
     estimated scf accuracy    <          4.3E-10 Ry
     smearing contrib. (-TS)   =      -0.00007419 Ry
     internal energy E=F+TS    =   -1616.71216087 Ry

     The total energy is F=E-TS. E is the sum of the following terms:
     one-electron contribution =   -1376.30557456 Ry
     hartree contribution      =     716.24848616 Ry
     xc contribution           =    -164.43018762 Ry
     ewald contribution        =    -541.54319971 Ry
     DFT-D3 Dispersion         =      -0.35231225 Ry
     one-center paw contrib.   =    -250.32937289 Ry

     convergence has been achieved in  12 iterations

     Forces acting on atoms (cartesian axes, Ry/au):

     atom    1 type  1   force =     0.00067435   -0.00234006    0.00077679
     atom    2 type  1   force =     0.00213666    0.00205375    0.00223971
     atom    3 type  1   force =    -0.00160580   -0.00140014   -0.00065427
     atom    4 type  1   force =     0.00034841   -0.00098942   -0.00192474
     atom    5 type  1   force =    -0.00071311    0.00175974    0.00017579
     atom    6 type  1   force =    -0.00155592   -0.00420203   -0.00139442
     atom    7 type  1   force =    -0.00068882    0.00295328    0.00052779
     atom    8 type  1   force =    -0.00120013   -0.00068661   -0.00014647
     atom    9 type  2   force =     0.00082559   -0.00564616   -0.00360713
     atom   10 type  3   force =     0.00297472    0.00137949   -0.00282815
     atom   11 type  3   force =    -0.00144588   -0.00126779    0.00199352
     atom   12 type  3   force =    -0.00032052    0.00237094    0.00210695
     atom   13 type  4   force =     0.00668529    0.00152740    0.00920799
     atom   14 type  4   force =     0.00367625   -0.00117758    0.00299842
     atom   15 type  4   force =    -0.00284195    0.00163509   -0.00273874
     atom   16 type  4   force =    -0.00430091    0.00078251   -0.00326279
     atom   17 type  4   force =    -0.00204225   -0.00395058   -0.00076496
     atom   18 type  4   force =     0.00112757   -0.00123243   -0.00142604
     atom   19 type  4   force =    -0.00075157   -0.00451321    0.00097183
     atom   20 type  4   force =     0.00138263    0.00479620   -0.00036237
     atom   21 type  4   force =    -0.00662719    0.00394175   -0.00524125
     atom   22 type  4   force =    -0.00230547    0.00239544   -0.00296322
     atom   23 type  4   force =     0.00124911   -0.00164658    0.00394810
     atom   24 type  4   force =     0.00307865    0.00053283    0.00317171
     atom   25 type  4   force =     0.00068465    0.00134081   -0.00450874
     atom   26 type  4   force =     0.00264245   -0.00229172   -0.00275586
     atom   27 type  4   force =    -0.00172550    0.00126387    0.00411391
     atom   28 type  4   force =     0.00063870    0.00261120    0.00234664

     Total force =     0.025461     Total SCF correction =     0.000075


     Computing stress (Cartesian axis) and pressure

          total   stress  (Ry/bohr**3)                   (kbar)     P=        5.92
   0.00004801   0.00000059   0.00001276            7.06        0.09        1.88
   0.00000059   0.00002955  -0.00001389            0.09        4.35       -2.04
   0.00001276  -0.00001389   0.00004311            1.88       -2.04        6.34

     Energy error            =      1.6E-03 Ry
     Gradient error          =      9.2E-03 Ry/Bohr
     Cell gradient error     =      7.1E+00 kbar

     number of scf cycles    =   4
     number of bfgs steps    =   3

     enthalpy           old  =   -1616.7106159155 Ry
     enthalpy           new  =   -1616.7122350643 Ry

     CASE: enthalpy          _new < enthalpy          _old

     new trust radius        =       0.0307867220 bohr
     new conv_thr            =       0.0000000009 Ry

     new unit-cell volume =   1748.99137 a.u.^3 (   259.17378 Ang^3 )
     density =      2.85486 g/cm^3

CELL_PARAMETERS (angstrom)
   7.738081255  -0.014045064   0.034441919
  -5.184704772   5.728530748  -0.050523687
  -2.284598623   0.998807893   5.841428484

ATOMIC_POSITIONS (angstrom)
Mg              -4.1865503611        5.3586932726        5.3341193949
Mg              -3.1163647247        4.7282875608        2.4262672404
Mg               3.3865411667        1.9802280014        3.4252832359
Mg               4.4811179935        1.3327392748        0.4771947630
Mg               0.7622927158        6.3281259921        4.3717002319
Mg              -0.5257711422        0.3626607449        1.4437670221
Mg              -0.5061709805        3.4790843468        4.3792214423
Mg               0.7697187699        3.2674783997        1.4401991360
Co              -1.6858656608        5.9691455419        5.3140768971
Ni              -1.9098011614        2.4298184499        2.4179615500
Ni               2.1821198862        4.2860092303        3.4071827728
Ni               1.9526223444        0.7184242483        0.4901457806
H               -0.4596607154        5.0688475958        5.5587598656
H               -0.3979352965        2.1598121418        2.6171220964
H                0.6720670618        4.5535043194        3.2112110299
H                0.7404595035        1.6551869700        0.2948726321
H                5.1256110356        1.0443527828        2.5077442029
H                4.0536275348        1.6863317317        5.4251229017
H               -3.7829071089        5.0038752859        0.3991734995
H               -4.8584505011        5.6774837238        3.3115938225
H               -2.5452129002        5.8943263695        4.0269847100
H               -2.3871658760        3.1473593320        1.1189026769
H                2.6511507440        3.5703745186        4.7119010431
H                2.8010309575        0.8424921523        1.7939095629
H                0.5991927570        1.9032412064        5.1085650534
H                2.6839156160        3.4692632029        2.1904807363
H               -2.4093495442        3.2411689275        3.6410795768
H               -0.3273720756        4.8277947701        0.7103111499



     Writing config-only to output data dir ./outdir/mg2nih4_co_nisite.save/ :
     XML data file
     NEW-OLD atomic charge density approx. for the potential
     New effective cutoffs (rho, wfc):  502.83   62.88

     Check: negative core charge=   -0.000001

     total cpu time spent up to now is     1805.3 secs

     Self-consistent Calculation

     iteration #  1     ecut=    60.00 Ry     beta= 0.30
     Davidson diagonalization with overlap
     ethr =  1.00E-06,  avg # of iterations =  4.2

     total cpu time spent up to now is     1852.3 secs

     total energy              =   -1616.71296229 Ry
     estimated scf accuracy    <       0.00169250 Ry

     iteration #  2     ecut=    60.00 Ry     beta= 0.30
     Davidson diagonalization with overlap
     ethr =  1.64E-06,  avg # of iterations =  3.1

     total cpu time spent up to now is     1882.7 secs

     total energy              =   -1616.71294674 Ry
     estimated scf accuracy    <       0.00452845 Ry

     iteration #  3     ecut=    60.00 Ry     beta= 0.30
     Davidson diagonalization with overlap
     ethr =  1.64E-06,  avg # of iterations =  2.5

     total cpu time spent up to now is     1911.2 secs

     total energy              =   -1616.71329260 Ry
     estimated scf accuracy    <       0.00079167 Ry

     iteration #  4     ecut=    60.00 Ry     beta= 0.30
     Davidson diagonalization with overlap
     ethr =  7.69E-07,  avg # of iterations =  2.1

     total cpu time spent up to now is     1934.6 secs

     total energy              =   -1616.71334373 Ry
     estimated scf accuracy    <       0.00069624 Ry

     iteration #  5     ecut=    60.00 Ry     beta= 0.30
     Davidson diagonalization with overlap
     ethr =  6.76E-07,  avg # of iterations =  1.1

     total cpu time spent up to now is     1953.9 secs

     total energy              =   -1616.71338026 Ry
     estimated scf accuracy    <       0.00001445 Ry

     iteration #  6     ecut=    60.00 Ry     beta= 0.30
     Davidson diagonalization with overlap
     ethr =  1.40E-08,  avg # of iterations =  3.1

     total cpu time spent up to now is     1984.2 secs

     total energy              =   -1616.71338253 Ry
     estimated scf accuracy    <       0.00003634 Ry

     iteration #  7     ecut=    60.00 Ry     beta= 0.30
     Davidson diagonalization with overlap
     ethr =  1.40E-08,  avg # of iterations =  2.0

     total cpu time spent up to now is     2007.0 secs

     total energy              =   -1616.71338443 Ry
     estimated scf accuracy    <       0.00000572 Ry

     iteration #  8     ecut=    60.00 Ry     beta= 0.30
     Davidson diagonalization with overlap
     ethr =  5.55E-09,  avg # of iterations =  3.1

     total cpu time spent up to now is     2041.3 secs

     total energy              =   -1616.71338496 Ry
     estimated scf accuracy    <       0.00000109 Ry

     iteration #  9     ecut=    60.00 Ry     beta= 0.30
     Davidson diagonalization with overlap
     ethr =  1.06E-09,  avg # of iterations =  5.1

     total cpu time spent up to now is     2080.0 secs

     total energy              =   -1616.71338535 Ry
     estimated scf accuracy    <       0.00000086 Ry

     iteration # 10     ecut=    60.00 Ry     beta= 0.30
     Davidson diagonalization with overlap
     ethr =  8.37E-10,  avg # of iterations =  1.0

     total cpu time spent up to now is     2098.7 secs

     total energy              =   -1616.71338542 Ry
     estimated scf accuracy    <       0.00000002 Ry

     iteration # 11     ecut=    60.00 Ry     beta= 0.30
     Davidson diagonalization with overlap
     ethr =  2.40E-11,  avg # of iterations =  3.5

     total cpu time spent up to now is     2132.4 secs

     total energy              =   -1616.71338543 Ry
     estimated scf accuracy    <       0.00000002 Ry

     iteration # 12     ecut=    60.00 Ry     beta= 0.30
     Davidson diagonalization with overlap
     ethr =  1.50E-11,  avg # of iterations =  1.8

     total cpu time spent up to now is     2157.4 secs

     End of self-consistent calculation

     Number of k-points >= 100: set verbosity='high' to print the bands.

     the Fermi energy is     5.5998 ev

!    total energy              =   -1616.71338544 Ry
     estimated scf accuracy    <          7.5E-10 Ry
     smearing contrib. (-TS)   =      -0.00013760 Ry
     internal energy E=F+TS    =   -1616.71324783 Ry

     The total energy is F=E-TS. E is the sum of the following terms:
     one-electron contribution =   -1373.22291974 Ry
     hartree contribution      =     714.90286231 Ry
     xc contribution           =    -164.45255495 Ry
     ewald contribution        =    -543.25258349 Ry
     DFT-D3 Dispersion         =      -0.35419897 Ry
     one-center paw contrib.   =    -250.33385299 Ry

     convergence has been achieved in  12 iterations

     Forces acting on atoms (cartesian axes, Ry/au):

     atom    1 type  1   force =    -0.00079719   -0.00230674    0.00108160
     atom    2 type  1   force =     0.00159627    0.00167139    0.00160269
     atom    3 type  1   force =    -0.00076768   -0.00033279   -0.00219200
     atom    4 type  1   force =    -0.00038215   -0.00017613   -0.00101073
     atom    5 type  1   force =     0.00081310    0.00254717   -0.00051548
     atom    6 type  1   force =    -0.00055263   -0.00355426   -0.00028548
     atom    7 type  1   force =    -0.00056744    0.00209306    0.00015588
     atom    8 type  1   force =    -0.00162592   -0.00242316    0.00109769
     atom    9 type  2   force =     0.00085328   -0.00355158   -0.00185321
     atom   10 type  3   force =     0.00180480    0.00023812   -0.00128640
     atom   11 type  3   force =    -0.00040086   -0.00035286    0.00023572
     atom   12 type  3   force =    -0.00037794    0.00104014    0.00071129
     atom   13 type  4   force =     0.00568046    0.00234987    0.00888463
     atom   14 type  4   force =     0.00244441   -0.00094508    0.00290683
     atom   15 type  4   force =    -0.00166651    0.00152616   -0.00276827
     atom   16 type  4   force =    -0.00375011   -0.00008441   -0.00334770
     atom   17 type  4   force =    -0.00120490   -0.00248431   -0.00102088
     atom   18 type  4   force =     0.00093888   -0.00258415   -0.00174151
     atom   19 type  4   force =    -0.00023236   -0.00262360    0.00109697
     atom   20 type  4   force =     0.00048668    0.00291357    0.00002232
     atom   21 type  4   force =    -0.00575996    0.00372945   -0.00340047
     atom   22 type  4   force =    -0.00191818    0.00184548   -0.00188853
     atom   23 type  4   force =     0.00084296   -0.00127459    0.00271791
     atom   24 type  4   force =     0.00251141    0.00037902    0.00191567
     atom   25 type  4   force =     0.00007187    0.00103463   -0.00303869
     atom   26 type  4   force =     0.00211404   -0.00161789   -0.00171249
     atom   27 type  4   force =    -0.00135716    0.00029018    0.00277324
     atom   28 type  4   force =     0.00120284    0.00265330    0.00085939

     Total force =     0.020371     Total SCF correction =     0.000119


     Computing stress (Cartesian axis) and pressure

          total   stress  (Ry/bohr**3)                   (kbar)     P=        7.64
   0.00005768   0.00000578   0.00000342            8.49        0.85        0.50
   0.00000578   0.00004666  -0.00000770            0.85        6.86       -1.13
   0.00000342  -0.00000770   0.00005141            0.50       -1.13        7.56

     Energy error            =      1.2E-03 Ry
     Gradient error          =      8.9E-03 Ry/Bohr
     Cell gradient error     =      8.5E+00 kbar

     number of scf cycles    =   5
     number of bfgs steps    =   4

     enthalpy           old  =   -1616.7122350643 Ry
     enthalpy           new  =   -1616.7133854353 Ry

     CASE: enthalpy          _new < enthalpy          _old

     new trust radius        =       0.0461435248 bohr
     new conv_thr            =       0.0000000009 Ry

     new unit-cell volume =   1745.98643 a.u.^3 (   258.72849 Ang^3 )
     density =      2.85977 g/cm^3

CELL_PARAMETERS (angstrom)
   7.740538809  -0.014926832   0.044816652
  -5.186988243   5.718687096  -0.066828814
  -2.277583304   0.987659101   5.835611724

ATOMIC_POSITIONS (angstrom)
Mg              -4.1781925405        5.3361074991        5.3201327333
Mg              -3.1100585388        4.7203262952        2.4190175016
Mg               3.3887633623        1.9667494893        3.4264926572
Mg               4.4847860232        1.3251971222        0.4761495691
Mg               0.7645587566        6.3124491828        4.3624322998
Mg              -0.5284746394        0.3498109418        1.4379281854
Mg              -0.5026252345        3.4725396558        4.3735596136
Mg               0.7693996344        3.2598220159        1.4340706093
Co              -1.6790401487        5.9361006757        5.2908826736
Ni              -1.9021925329        2.4239678510        2.4050277880
Ni               2.1843848511        4.2704709636        3.4070262212
Ni               1.9531658253        0.7205419745        0.4954638567
H               -0.4402425743        5.0554524050        5.5690901285
H               -0.3886829583        2.1494666876        2.6187892963
H                0.6722340830        4.5426896382        3.1986848336
H                0.7337099445        1.6518705769        0.2864711642
H                5.1274749859        1.0325977689        2.5108154777
H                4.0634113718        1.6690536988        5.4235977444
H               -3.7842414065        4.9872436256        0.3880696349
H               -4.8544446440        5.6699474854        3.2940540295
H               -2.5540507371        5.8871298341        4.0049997524
H               -2.3913838609        3.1441290986        1.1059734273
H                2.6601019363        3.5534868529        4.7153913909
H                2.8097211925        0.8384735124        1.8007901596
H                0.6054744633        1.8945784250        5.0976367233
H                2.6922581022        3.4550552675        2.1841950877
H               -2.4081394629        3.2312126067        3.6385392415
H               -0.3241335788        4.8233999507        0.7051120594



     Writing config-only to output data dir ./outdir/mg2nih4_co_nisite.save/ :
     XML data file
     NEW-OLD atomic charge density approx. for the potential
     New effective cutoffs (rho, wfc):  505.75   63.25

     Check: negative core charge=   -0.000001

     total cpu time spent up to now is     2170.6 secs

     Self-consistent Calculation

     iteration #  1     ecut=    60.00 Ry     beta= 0.30
     Davidson diagonalization with overlap
     ethr =  1.00E-06,  avg # of iterations =  4.2

     total cpu time spent up to now is     2217.8 secs

     total energy              =   -1616.71450167 Ry
     estimated scf accuracy    <       0.00104238 Ry

     iteration #  2     ecut=    60.00 Ry     beta= 0.30
     Davidson diagonalization with overlap
     ethr =  1.01E-06,  avg # of iterations =  2.1

     total cpu time spent up to now is     2241.7 secs

     total energy              =   -1616.71448450 Ry
     estimated scf accuracy    <       0.00069113 Ry

     iteration #  3     ecut=    60.00 Ry     beta= 0.30
     Davidson diagonalization with overlap
     ethr =  6.71E-07,  avg # of iterations =  2.7

     total cpu time spent up to now is     2271.3 secs

     total energy              =   -1616.71451364 Ry
     estimated scf accuracy    <       0.00073993 Ry

     iteration #  4     ecut=    60.00 Ry     beta= 0.30
     Davidson diagonalization with overlap
     ethr =  6.71E-07,  avg # of iterations =  2.4

     total cpu time spent up to now is     2297.3 secs

     total energy              =   -1616.71453511 Ry
     estimated scf accuracy    <       0.00088022 Ry

     iteration #  5     ecut=    60.00 Ry     beta= 0.30
     Davidson diagonalization with overlap
     ethr =  6.71E-07,  avg # of iterations =  1.0

     total cpu time spent up to now is     2315.7 secs

     total energy              =   -1616.71458515 Ry
     estimated scf accuracy    <       0.00001845 Ry

     iteration #  6     ecut=    60.00 Ry     beta= 0.30
     Davidson diagonalization with overlap
     ethr =  1.79E-08,  avg # of iterations =  3.1

     total cpu time spent up to now is     2345.1 secs

     total energy              =   -1616.71458763 Ry
     estimated scf accuracy    <       0.00003073 Ry

     iteration #  7     ecut=    60.00 Ry     beta= 0.30
     Davidson diagonalization with overlap
     ethr =  1.79E-08,  avg # of iterations =  2.0

     total cpu time spent up to now is     2369.4 secs

     total energy              =   -1616.71458903 Ry
     estimated scf accuracy    <       0.00000652 Ry

     iteration #  8     ecut=    60.00 Ry     beta= 0.30
     Davidson diagonalization with overlap
     ethr =  6.33E-09,  avg # of iterations =  3.9

     total cpu time spent up to now is     2414.1 secs

     total energy              =   -1616.71458989 Ry
     estimated scf accuracy    <       0.00000151 Ry

     iteration #  9     ecut=    60.00 Ry     beta= 0.30
     Davidson diagonalization with overlap
     ethr =  1.47E-09,  avg # of iterations =  5.0

     total cpu time spent up to now is     2454.0 secs

     total energy              =   -1616.71459024 Ry
     estimated scf accuracy    <       0.00000143 Ry

     iteration # 10     ecut=    60.00 Ry     beta= 0.30
     Davidson diagonalization with overlap
     ethr =  1.39E-09,  avg # of iterations =  1.2

     total cpu time spent up to now is     2474.1 secs

     total energy              =   -1616.71459036 Ry
     estimated scf accuracy    <       0.00000006 Ry

     iteration # 11     ecut=    60.00 Ry     beta= 0.30
     Davidson diagonalization with overlap
     ethr =  5.42E-11,  avg # of iterations =  3.6

     total cpu time spent up to now is     2509.1 secs

     total energy              =   -1616.71459039 Ry
     estimated scf accuracy    <       0.00000002 Ry

     iteration # 12     ecut=    60.00 Ry     beta= 0.30
     Davidson diagonalization with overlap
     ethr =  2.16E-11,  avg # of iterations =  1.5

     total cpu time spent up to now is     2532.7 secs

     total energy              =   -1616.71459039 Ry
     estimated scf accuracy    <          1.1E-09 Ry

     iteration # 13     ecut=    60.00 Ry     beta= 0.30
     Davidson diagonalization with overlap
     ethr =  1.09E-12,  avg # of iterations =  2.8

     total cpu time spent up to now is     2562.9 secs

     End of self-consistent calculation

     Number of k-points >= 100: set verbosity='high' to print the bands.

     the Fermi energy is     5.6284 ev

!    total energy              =   -1616.71459039 Ry
     estimated scf accuracy    <          1.5E-10 Ry
     smearing contrib. (-TS)   =      -0.00014917 Ry
     internal energy E=F+TS    =   -1616.71444122 Ry

     The total energy is F=E-TS. E is the sum of the following terms:
     one-electron contribution =   -1371.02909930 Ry
     hartree contribution      =     713.89708522 Ry
     xc contribution           =    -164.43969850 Ry
     ewald contribution        =    -544.45358881 Ry
     DFT-D3 Dispersion         =      -0.35480401 Ry
     one-center paw contrib.   =    -250.33433582 Ry

     convergence has been achieved in  13 iterations

     Forces acting on atoms (cartesian axes, Ry/au):

     atom    1 type  1   force =    -0.00208842   -0.00192536    0.00135384
     atom    2 type  1   force =     0.00074013    0.00098134    0.00073501
     atom    3 type  1   force =     0.00052312    0.00083650   -0.00340324
     atom    4 type  1   force =    -0.00102021    0.00038466    0.00002625
     atom    5 type  1   force =     0.00222591    0.00310222   -0.00122186
     atom    6 type  1   force =     0.00052902   -0.00265716    0.00076981
     atom    7 type  1   force =    -0.00036230    0.00119786   -0.00015936
     atom    8 type  1   force =    -0.00197836   -0.00393540    0.00224319
     atom    9 type  2   force =     0.00068089   -0.00115233   -0.00018194
     atom   10 type  3   force =    -0.00001549   -0.00118898    0.00062596
     atom   11 type  3   force =     0.00099652    0.00084221   -0.00178909
     atom   12 type  3   force =    -0.00041170   -0.00064026   -0.00110839
     atom   13 type  4   force =     0.00313996    0.00386862    0.00774187
     atom   14 type  4   force =    -0.00000994   -0.00043022    0.00245383
     atom   15 type  4   force =     0.00067952    0.00104491   -0.00235629
     atom   16 type  4   force =    -0.00211296   -0.00170611   -0.00304826
     atom   17 type  4   force =     0.00029722    0.00030725   -0.00130880
     atom   18 type  4   force =     0.00048162   -0.00451280   -0.00212959
     atom   19 type  4   force =     0.00076910    0.00058274    0.00119494
     atom   20 type  4   force =    -0.00096798   -0.00028248    0.00049541
     atom   21 type  4   force =    -0.00367839    0.00354128    0.00043915
     atom   22 type  4   force =    -0.00107827    0.00061601    0.00040087
     atom   23 type  4   force =     0.00000273   -0.00031969    0.00021661
     atom   24 type  4   force =     0.00115628    0.00003395   -0.00060988
     atom   25 type  4   force =    -0.00119102    0.00065378   -0.00031994
     atom   26 type  4   force =     0.00104848   -0.00038712    0.00024103
     atom   27 type  4   force =    -0.00050277   -0.00123639    0.00027986
     atom   28 type  4   force =     0.00214731    0.00238097   -0.00158100

     Total force =     0.016709     Total SCF correction =     0.000037


     Computing stress (Cartesian axis) and pressure

          total   stress  (Ry/bohr**3)                   (kbar)     P=        5.09
   0.00003638   0.00001234  -0.00001024            5.35        1.82       -1.51
   0.00001234   0.00003745   0.00000032            1.82        5.51        0.05
  -0.00001024   0.00000032   0.00003004           -1.51        0.05        4.42

     Energy error            =      1.2E-03 Ry
     Gradient error          =      7.7E-03 Ry/Bohr
     Cell gradient error     =      5.5E+00 kbar

     number of scf cycles    =   6
     number of bfgs steps    =   5

     enthalpy           old  =   -1616.7133854353 Ry
     enthalpy           new  =   -1616.7145903941 Ry

     CASE: enthalpy          _new < enthalpy          _old

     new trust radius        =       0.0408836234 bohr
     new conv_thr            =       0.0000000008 Ry

     new unit-cell volume =   1749.64526 a.u.^3 (   259.27068 Ang^3 )
     density =      2.85379 g/cm^3

CELL_PARAMETERS (angstrom)
   7.750616106  -0.012169436   0.048467643
  -5.191660116   5.717001527  -0.075028203
  -2.277445012   0.980995718   5.838078793

ATOMIC_POSITIONS (angstrom)
Mg              -4.1786892298        5.3252107988        5.3188164697
Mg              -3.1078738306        4.7202544373        2.4184405805
Mg               3.3938542693        1.9627715765        3.4267123621
Mg               4.4917189179        1.3242161593        0.4742874716
Mg               0.7694826477        6.3126376343        4.3595198330
Mg              -0.5307600807        0.3401112514        1.4363361511
Mg              -0.5013392020        3.4732666225        4.3740804828
Mg               0.7695342103        3.2564532698        1.4329133003
Co              -1.6755520754        5.9209767887        5.2817407763
Ni              -1.8994138771        2.4215442910        2.4003159625
Ni               2.1895174685        4.2673816674        3.4079993754
Ni               1.9554949341        0.7231087544        0.4977163831
H               -0.4262102020        5.0556167637        5.5863589196
H               -0.3834239308        2.1450897561        2.6241346166
H                0.6744037231        4.5423480051        3.1918977793
H                0.7294252667        1.6508322606        0.2790596987
H                5.1340699365        1.0290369799        2.5121643013
H                4.0730632449        1.6588637734        5.4245529818
H               -3.7866520692        4.9815490456        0.3838650815
H               -4.8568026166        5.6695820212        3.2883161288
H               -2.5639428933        5.8910532295        3.9962870403
H               -2.3964717585        3.1451786568        1.1001914369
H                2.6684156237        3.5481445636        4.7209734104
H                2.8187440908        0.8381971374        1.8051676940
H                0.6080874115        1.8922350197        5.0950164505
H                2.7018668386        3.4511868301        2.1815556350
H               -2.4103150707        3.2268965961        3.6413183565
H               -0.3190780565        4.8278454234        0.7015165807



     Writing config-only to output data dir ./outdir/mg2nih4_co_nisite.save/ :
     XML data file
     NEW-OLD atomic charge density approx. for the potential
     New effective cutoffs (rho, wfc):  506.58   63.35

     Check: negative core charge=   -0.000001

     total cpu time spent up to now is     2576.1 secs

     Self-consistent Calculation

     iteration #  1     ecut=    60.00 Ry     beta= 0.30
     Davidson diagonalization with overlap
     ethr =  1.00E-06,  avg # of iterations =  4.1

     total cpu time spent up to now is     2619.5 secs

     total energy              =   -1616.71524147 Ry
     estimated scf accuracy    <       0.00050097 Ry

     iteration #  2     ecut=    60.00 Ry     beta= 0.30
     Davidson diagonalization with overlap
     ethr =  4.86E-07,  avg # of iterations =  2.4

     total cpu time spent up to now is     2647.1 secs

     total energy              =   -1616.71517185 Ry
     estimated scf accuracy    <       0.00165702 Ry

     iteration #  3     ecut=    60.00 Ry     beta= 0.30
     Davidson diagonalization with overlap
     ethr =  4.86E-07,  avg # of iterations =  2.7

     total cpu time spent up to now is     2677.7 secs

     total energy              =   -1616.71528092 Ry
     estimated scf accuracy    <       0.00045760 Ry

     iteration #  4     ecut=    60.00 Ry     beta= 0.30
     Davidson diagonalization with overlap
     ethr =  4.44E-07,  avg # of iterations =  2.1

     total cpu time spent up to now is     2700.7 secs

     total energy              =   -1616.71530509 Ry
     estimated scf accuracy    <       0.00018965 Ry

     iteration #  5     ecut=    60.00 Ry     beta= 0.30
     Davidson diagonalization with overlap
     ethr =  1.84E-07,  avg # of iterations =  1.4

     total cpu time spent up to now is     2722.8 secs

     total energy              =   -1616.71531734 Ry
     estimated scf accuracy    <       0.00000909 Ry

     iteration #  6     ecut=    60.00 Ry     beta= 0.30
     Davidson diagonalization with overlap
     ethr =  8.83E-09,  avg # of iterations =  3.0

     total cpu time spent up to now is     2751.7 secs

     total energy              =   -1616.71531820 Ry
     estimated scf accuracy    <       0.00001523 Ry

     iteration #  7     ecut=    60.00 Ry     beta= 0.30
     Davidson diagonalization with overlap
     ethr =  8.83E-09,  avg # of iterations =  1.8

     total cpu time spent up to now is     2776.1 secs

     total energy              =   -1616.71531890 Ry
     estimated scf accuracy    <       0.00000282 Ry

     iteration #  8     ecut=    60.00 Ry     beta= 0.30
     Davidson diagonalization with overlap
     ethr =  2.73E-09,  avg # of iterations =  2.4

     total cpu time spent up to now is     2803.6 secs

     total energy              =   -1616.71531930 Ry
     estimated scf accuracy    <       0.00000054 Ry

     iteration #  9     ecut=    60.00 Ry     beta= 0.30
     Davidson diagonalization with overlap
     ethr =  5.27E-10,  avg # of iterations =  4.9

     total cpu time spent up to now is     2842.0 secs

     total energy              =   -1616.71531951 Ry
     estimated scf accuracy    <       0.00000012 Ry

     iteration # 10     ecut=    60.00 Ry     beta= 0.30
     Davidson diagonalization with overlap
     ethr =  1.18E-10,  avg # of iterations =  3.0

     total cpu time spent up to now is     2871.8 secs

     total energy              =   -1616.71531952 Ry
     estimated scf accuracy    <       0.00000005 Ry

     iteration # 11     ecut=    60.00 Ry     beta= 0.30
     Davidson diagonalization with overlap
     ethr =  4.79E-11,  avg # of iterations =  1.8

     total cpu time spent up to now is     2896.8 secs

     total energy              =   -1616.71531953 Ry
     estimated scf accuracy    <          1.7E-09 Ry

     iteration # 12     ecut=    60.00 Ry     beta= 0.30
     Davidson diagonalization with overlap
     ethr =  1.66E-12,  avg # of iterations =  3.8

     total cpu time spent up to now is     2933.4 secs

     End of self-consistent calculation

     Number of k-points >= 100: set verbosity='high' to print the bands.

     the Fermi energy is     5.6210 ev

!    total energy              =   -1616.71531953 Ry
     estimated scf accuracy    <          2.6E-10 Ry
     smearing contrib. (-TS)   =      -0.00013722 Ry
     internal energy E=F+TS    =   -1616.71518231 Ry

     The total energy is F=E-TS. E is the sum of the following terms:
     one-electron contribution =   -1370.76705496 Ry
     hartree contribution      =     713.72667908 Ry
     xc contribution           =    -164.40757344 Ry
     ewald contribution        =    -544.58183142 Ry
     DFT-D3 Dispersion         =      -0.35411053 Ry
     one-center paw contrib.   =    -250.33129105 Ry

     convergence has been achieved in  12 iterations

     Forces acting on atoms (cartesian axes, Ry/au):

     atom    1 type  1   force =    -0.00230264   -0.00146343    0.00147783
     atom    2 type  1   force =     0.00017765    0.00043001    0.00026619
     atom    3 type  1   force =     0.00144345    0.00132320   -0.00352393
     atom    4 type  1   force =    -0.00117543    0.00040988    0.00045997
     atom    5 type  1   force =     0.00258999    0.00295443   -0.00148492
     atom    6 type  1   force =     0.00103880   -0.00199619    0.00107148
     atom    7 type  1   force =    -0.00012194    0.00103979   -0.00017905
     atom    8 type  1   force =    -0.00204439   -0.00434310    0.00249353
     atom    9 type  2   force =     0.00041687    0.00019234    0.00052202
     atom   10 type  3   force =    -0.00133284   -0.00189898    0.00167734
     atom   11 type  3   force =     0.00182292    0.00143452   -0.00273018
     atom   12 type  3   force =    -0.00034977   -0.00155382   -0.00207844
     atom   13 type  4   force =     0.00090956    0.00484122    0.00640855
     atom   14 type  4   force =    -0.00191983   -0.00002464    0.00195276
     atom   15 type  4   force =     0.00241534    0.00052659   -0.00176520
     atom   16 type  4   force =    -0.00066684   -0.00288694   -0.00256918
     atom   17 type  4   force =     0.00140052    0.00238739   -0.00144176
     atom   18 type  4   force =     0.00020324   -0.00545918   -0.00234660
     atom   19 type  4   force =     0.00150760    0.00289498    0.00117499
     atom   20 type  4   force =    -0.00192670   -0.00256069    0.00077774
     atom   21 type  4   force =    -0.00192597    0.00341732    0.00348011
     atom   22 type  4   force =    -0.00034729   -0.00041117    0.00224091
     atom   23 type  4   force =    -0.00069994    0.00047539   -0.00182429
     atom   24 type  4   force =    -0.00002091   -0.00027327   -0.00262424
     atom   25 type  4   force =    -0.00213844    0.00040768    0.00175867
     atom   26 type  4   force =     0.00016397    0.00057395    0.00161703
     atom   27 type  4   force =     0.00021228   -0.00230562   -0.00161986
     atom   28 type  4   force =     0.00267071    0.00186832   -0.00319146

     Total force =     0.018958     Total SCF correction =     0.000073


     Computing stress (Cartesian axis) and pressure

          total   stress  (Ry/bohr**3)                   (kbar)     P=        0.78
   0.00000371   0.00001567  -0.00001887            0.55        2.30       -2.78
   0.00001567   0.00001334   0.00000494            2.30        1.96        0.73
  -0.00001887   0.00000494  -0.00000109           -2.78        0.73       -0.16

     Energy error            =      7.3E-04 Ry
     Gradient error          =      6.4E-03 Ry/Bohr
     Cell gradient error     =      2.8E+00 kbar

     number of scf cycles    =   7
     number of bfgs steps    =   6

     enthalpy           old  =   -1616.7145903941 Ry
     enthalpy           new  =   -1616.7153195290 Ry

     CASE: enthalpy          _new < enthalpy          _old

     new trust radius        =       0.0459416196 bohr
     new conv_thr            =       0.0000000006 Ry

     new unit-cell volume =   1754.74657 a.u.^3 (   260.02661 Ang^3 )
     density =      2.84549 g/cm^3

CELL_PARAMETERS (angstrom)
   7.761708330  -0.005486085   0.046638998
  -5.194088927   5.716344756  -0.077871505
  -2.281227598   0.975538046   5.842703603

ATOMIC_POSITIONS (angstrom)
Mg              -4.1825213253        5.3166087146        5.3231453595
Mg              -3.1056553345        4.7222598107        2.4213227581
Mg               3.3991944526        1.9639917019        3.4229130201
Mg               4.4986721863        1.3270968966        0.4703266560
Mg               0.7765843383        6.3201746122        4.3570540725
Mg              -0.5328863459        0.3303375177        1.4363661727
Mg              -0.5013306014        3.4774473236        4.3759269214
Mg               0.7692501611        3.2530580735        1.4340105955
Co              -1.6727895646        5.9116439262        5.2769920629
Ni              -1.8986183722        2.4190703656        2.3993207713
Ni               2.1960639139        4.2701726277        3.4067169027
Ni               1.9579292534        0.7259910581        0.4972017097
H               -0.4139930978        5.0630655563        5.6080984191
H               -0.3807178708        2.1428049598        2.6312553656
H                0.6785707648        4.5463339219        3.1854261285
H                0.7259690379        1.6494614791        0.2705191873
H                5.1412308874        1.0313650958        2.5094657105
H                4.0803566909        1.6504381276        5.4221260638
H               -3.7863541854        4.9796506528        0.3843971291
H               -4.8606085821        5.6691492095        3.2884563738
H               -2.5742280467        5.8999738518        3.9941862198
H               -2.4008789137        3.1467360047        1.0989075396
H                2.6748975137        3.5483242312        4.7241533563
H                2.8268196207        0.8402022564        1.8057497976
H                0.6068582201        1.8928981720        5.0944786804
H                2.7117755473        3.4522285083        2.1794215947
H               -2.4134274213        3.2229037852        3.6453672596
H               -0.3106776667        4.8361655977        0.6972895101



     Writing config-only to output data dir ./outdir/mg2nih4_co_nisite.save/ :
     XML data file
     NEW-OLD atomic charge density approx. for the potential
     New effective cutoffs (rho, wfc):  506.72   63.36

     Check: negative core charge=   -0.000002

     total cpu time spent up to now is     2946.5 secs

     Self-consistent Calculation

     iteration #  1     ecut=    60.00 Ry     beta= 0.30
     Davidson diagonalization with overlap
     ethr =  1.00E-06,  avg # of iterations =  4.0

     total cpu time spent up to now is     2988.8 secs

     total energy              =   -1616.71594251 Ry
     estimated scf accuracy    <       0.00054386 Ry

     iteration #  2     ecut=    60.00 Ry     beta= 0.30
     Davidson diagonalization with overlap
     ethr =  5.28E-07,  avg # of iterations =  3.0

     total cpu time spent up to now is     3017.5 secs

     total energy              =   -1616.71587465 Ry
     estimated scf accuracy    <       0.00231749 Ry

     iteration #  3     ecut=    60.00 Ry     beta= 0.30
     Davidson diagonalization with overlap
     ethr =  5.28E-07,  avg # of iterations =  2.7

     total cpu time spent up to now is     3047.8 secs

     total energy              =   -1616.71602920 Ry
     estimated scf accuracy    <       0.00045787 Ry

     iteration #  4     ecut=    60.00 Ry     beta= 0.30
     Davidson diagonalization with overlap
     ethr =  4.45E-07,  avg # of iterations =  2.0

     total cpu time spent up to now is     3070.6 secs

     total energy              =   -1616.71605876 Ry
     estimated scf accuracy    <       0.00011838 Ry

     iteration #  5     ecut=    60.00 Ry     beta= 0.30
     Davidson diagonalization with overlap
     ethr =  1.15E-07,  avg # of iterations =  1.4

     total cpu time spent up to now is     3093.0 secs

     total energy              =   -1616.71606465 Ry
     estimated scf accuracy    <       0.00001024 Ry

     iteration #  6     ecut=    60.00 Ry     beta= 0.30
     Davidson diagonalization with overlap
     ethr =  9.94E-09,  avg # of iterations =  2.7

     total cpu time spent up to now is     3122.2 secs

     total energy              =   -1616.71606482 Ry
     estimated scf accuracy    <       0.00002563 Ry

     iteration #  7     ecut=    60.00 Ry     beta= 0.30
     Davidson diagonalization with overlap
     ethr =  9.94E-09,  avg # of iterations =  2.0

     total cpu time spent up to now is     3145.1 secs

     total energy              =   -1616.71606663 Ry
     estimated scf accuracy    <       0.00000121 Ry

     iteration #  8     ecut=    60.00 Ry     beta= 0.30
     Davidson diagonalization with overlap
     ethr =  1.17E-09,  avg # of iterations =  4.2

     total cpu time spent up to now is     3180.9 secs

     total energy              =   -1616.71606684 Ry
     estimated scf accuracy    <       0.00000086 Ry

     iteration #  9     ecut=    60.00 Ry     beta= 0.30
     Davidson diagonalization with overlap
     ethr =  8.39E-10,  avg # of iterations =  2.3

     total cpu time spent up to now is     3211.1 secs

     total energy              =   -1616.71606693 Ry
     estimated scf accuracy    <       0.00000012 Ry

     iteration # 10     ecut=    60.00 Ry     beta= 0.30
     Davidson diagonalization with overlap
     ethr =  1.17E-10,  avg # of iterations =  4.0

     total cpu time spent up to now is     3247.4 secs

     total energy              =   -1616.71606697 Ry
     estimated scf accuracy    <       0.00000002 Ry

     iteration # 11     ecut=    60.00 Ry     beta= 0.30
     Davidson diagonalization with overlap
     ethr =  2.00E-11,  avg # of iterations =  1.1

     total cpu time spent up to now is     3266.3 secs

     total energy              =   -1616.71606697 Ry
     estimated scf accuracy    <          1.3E-09 Ry

     iteration # 12     ecut=    60.00 Ry     beta= 0.30
     Davidson diagonalization with overlap
     ethr =  1.31E-12,  avg # of iterations =  2.4

     total cpu time spent up to now is     3294.2 secs

     End of self-consistent calculation

     Number of k-points >= 100: set verbosity='high' to print the bands.

     the Fermi energy is     5.6060 ev

!    total energy              =   -1616.71606697 Ry
     estimated scf accuracy    <          1.5E-10 Ry
     smearing contrib. (-TS)   =      -0.00012086 Ry
     internal energy E=F+TS    =   -1616.71594612 Ry

     The total energy is F=E-TS. E is the sum of the following terms:
     one-electron contribution =   -1371.26726772 Ry
     hartree contribution      =     713.90089896 Ry
     xc contribution           =    -164.37555305 Ry
     ewald contribution        =    -544.29354018 Ry
     DFT-D3 Dispersion         =      -0.35313750 Ry
     one-center paw contrib.   =    -250.32734662 Ry

     convergence has been achieved in  12 iterations

     Forces acting on atoms (cartesian axes, Ry/au):

     atom    1 type  1   force =    -0.00180731   -0.00102110    0.00156839
     atom    2 type  1   force =    -0.00011856    0.00001000    0.00014374
     atom    3 type  1   force =     0.00208020    0.00134874   -0.00300689
     atom    4 type  1   force =    -0.00106047    0.00021609    0.00043973
     atom    5 type  1   force =     0.00231775    0.00230930   -0.00146962
     atom    6 type  1   force =     0.00122025   -0.00141832    0.00089394
     atom    7 type  1   force =     0.00019999    0.00143703   -0.00000155
     atom    8 type  1   force =    -0.00194069   -0.00415060    0.00214521
     atom    9 type  2   force =     0.00017555    0.00083269    0.00064640
     atom   10 type  3   force =    -0.00212781   -0.00200338    0.00200818
     atom   11 type  3   force =     0.00214118    0.00146786   -0.00277803
     atom   12 type  3   force =    -0.00021504   -0.00178912   -0.00233223
     atom   13 type  4   force =    -0.00081776    0.00520292    0.00496992
     atom   14 type  4   force =    -0.00315877    0.00021202    0.00149602
     atom   15 type  4   force =     0.00337445    0.00005514   -0.00113029
     atom   16 type  4   force =     0.00031616   -0.00357188   -0.00204126
     atom   17 type  4   force =     0.00206678    0.00361233   -0.00146343
     atom   18 type  4   force =     0.00023107   -0.00535587   -0.00245961
     atom   19 type  4   force =     0.00191219    0.00430787    0.00105173
     atom   20 type  4   force =    -0.00238453   -0.00391543    0.00094798
     atom   21 type  4   force =    -0.00070565    0.00328704    0.00555358
     atom   22 type  4   force =     0.00021533   -0.00113286    0.00344729
     atom   23 type  4   force =    -0.00122775    0.00096188   -0.00327954
     atom   24 type  4   force =    -0.00088069   -0.00053169   -0.00398118
     atom   25 type  4   force =    -0.00266571    0.00021962    0.00313071
     atom   26 type  4   force =    -0.00051139    0.00126580    0.00226778
     atom   27 type  4   force =     0.00069327   -0.00299070   -0.00283340
     atom   28 type  4   force =     0.00267797    0.00113462   -0.00393356

     Total force =     0.021208     Total SCF correction =     0.000045


     Computing stress (Cartesian axis) and pressure

          total   stress  (Ry/bohr**3)                   (kbar)     P=       -3.23
  -0.00002626   0.00001632  -0.00002321           -3.86        2.40       -3.41
   0.00001632  -0.00001125   0.00000704            2.40       -1.65        1.04
  -0.00002321   0.00000704  -0.00002844           -3.41        1.04       -4.18

     Energy error            =      7.5E-04 Ry
     Gradient error          =      5.6E-03 Ry/Bohr
     Cell gradient error     =      4.2E+00 kbar

     number of scf cycles    =   8
     number of bfgs steps    =   7

     enthalpy           old  =   -1616.7153195290 Ry
     enthalpy           new  =   -1616.7160669736 Ry

     CASE: enthalpy          _new < enthalpy          _old

     new trust radius        =       0.0505640787 bohr
     new conv_thr            =       0.0000000006 Ry

     new unit-cell volume =   1758.02172 a.u.^3 (   260.51194 Ang^3 )
     density =      2.84019 g/cm^3

CELL_PARAMETERS (angstrom)
   7.769377251   0.003753397   0.041240766
  -5.192327147   5.713206028  -0.077558066
  -2.286343929   0.969963539   5.845759269

ATOMIC_POSITIONS (angstrom)
Mg              -4.1858989102        5.3061440679        5.3283012727
Mg              -3.1016228274        4.7229411472        2.4252157613
Mg               3.4030226604        1.9670719527        3.4149525053
Mg               4.5034239402        1.3314380553        0.4643864686
Mg               0.7844105956        6.3286193966        4.3523815023
Mg              -0.5348123487        0.3199346351        1.4363769611
Mg              -0.5018076499        3.4823048939        4.3764185321
Mg               0.7681874860        3.2478645041        1.4354067152
Co              -1.6696524800        5.9019594473        5.2715636466
Ni              -1.8981173142        2.4152149150        2.3991465212
Ni               2.2023476607        4.2740801861        3.4023158169
Ni               1.9594318920        0.7288608362        0.4947740668
H               -0.4027201497        5.0725216879        5.6301358763
H               -0.3796151986        2.1404923642        2.6382510327
H                0.6838251694        4.5504029810        3.1772646796
H                0.7226206141        1.6466957986        0.2608715057
H                5.1461517428        1.0369439139        2.5027261408
H                4.0841184059        1.6417934405        5.4144744229
H               -3.7821725082        4.9775746603        0.3875536464
H               -4.8628534064        5.6652721294        3.2904492253
H               -2.5836468246        5.9091200313        3.9944062784
H               -2.4036060745        3.1467600305        1.1000303444
H                2.6786871989        3.5498905842        4.7229935308
H                2.8327666788        0.8430693913        1.8026527188
H                0.6026196621        1.8942409784        5.0927523148
H                2.7204627829        3.4544766552        2.1762934015
H               -2.4158511065        3.2169398688        3.6481507884
H               -0.2998132527        4.8442929562        0.6919418845



     Writing config-only to output data dir ./outdir/mg2nih4_co_nisite.save/ :
     XML data file
     NEW-OLD atomic charge density approx. for the potential
     New effective cutoffs (rho, wfc):  507.01   63.39

     Check: negative core charge=   -0.000002

     total cpu time spent up to now is     3307.3 secs

     Self-consistent Calculation

     iteration #  1     ecut=    60.00 Ry     beta= 0.30
     Davidson diagonalization with overlap
     ethr =  1.00E-06,  avg # of iterations =  4.1

     total cpu time spent up to now is     3349.8 secs

     total energy              =   -1616.71686154 Ry
     estimated scf accuracy    <       0.00041007 Ry

     iteration #  2     ecut=    60.00 Ry     beta= 0.30
     Davidson diagonalization with overlap
     ethr =  3.98E-07,  avg # of iterations =  2.4

     total cpu time spent up to now is     3377.7 secs

     total energy              =   -1616.71681893 Ry
     estimated scf accuracy    <       0.00106633 Ry

     iteration #  3     ecut=    60.00 Ry     beta= 0.30
     Davidson diagonalization with overlap
     ethr =  3.98E-07,  avg # of iterations =  2.1

     total cpu time spent up to now is     3402.7 secs

     total energy              =   -1616.71688751 Ry
     estimated scf accuracy    <       0.00037061 Ry

     iteration #  4     ecut=    60.00 Ry     beta= 0.30
     Davidson diagonalization with overlap
     ethr =  3.60E-07,  avg # of iterations =  2.0

     total cpu time spent up to now is     3425.6 secs

     total energy              =   -1616.71690535 Ry
     estimated scf accuracy    <       0.00020480 Ry

     iteration #  5     ecut=    60.00 Ry     beta= 0.30
     Davidson diagonalization with overlap
     ethr =  1.99E-07,  avg # of iterations =  1.3

     total cpu time spent up to now is     3446.7 secs

     total energy              =   -1616.71691646 Ry
     estimated scf accuracy    <       0.00001424 Ry

     iteration #  6     ecut=    60.00 Ry     beta= 0.30
     Davidson diagonalization with overlap
     ethr =  1.38E-08,  avg # of iterations =  3.0

     total cpu time spent up to now is     3475.0 secs

     total energy              =   -1616.71691797 Ry
     estimated scf accuracy    <       0.00002790 Ry

     iteration #  7     ecut=    60.00 Ry     beta= 0.30
     Davidson diagonalization with overlap
     ethr =  1.38E-08,  avg # of iterations =  2.0

     total cpu time spent up to now is     3498.0 secs

     total energy              =   -1616.71691968 Ry
     estimated scf accuracy    <       0.00000171 Ry

     iteration #  8     ecut=    60.00 Ry     beta= 0.30
     Davidson diagonalization with overlap
     ethr =  1.66E-09,  avg # of iterations =  2.8

     total cpu time spent up to now is     3529.6 secs

     total energy              =   -1616.71691998 Ry
     estimated scf accuracy    <       0.00000068 Ry

     iteration #  9     ecut=    60.00 Ry     beta= 0.30
     Davidson diagonalization with overlap
     ethr =  6.61E-10,  avg # of iterations =  4.9

     total cpu time spent up to now is     3566.8 secs

     total energy              =   -1616.71692010 Ry
     estimated scf accuracy    <       0.00000034 Ry

     iteration # 10     ecut=    60.00 Ry     beta= 0.30
     Davidson diagonalization with overlap
     ethr =  3.30E-10,  avg # of iterations =  2.3

     total cpu time spent up to now is     3591.9 secs

     total energy              =   -1616.71692014 Ry
     estimated scf accuracy    <       0.00000003 Ry

     iteration # 11     ecut=    60.00 Ry     beta= 0.30
     Davidson diagonalization with overlap
     ethr =  2.89E-11,  avg # of iterations =  4.2

     total cpu time spent up to now is     3633.5 secs

     total energy              =   -1616.71692016 Ry
     estimated scf accuracy    <          1.8E-09 Ry

     iteration # 12     ecut=    60.00 Ry     beta= 0.30
     Davidson diagonalization with overlap
     ethr =  1.74E-12,  avg # of iterations =  1.7

     total cpu time spent up to now is     3657.1 secs

     End of self-consistent calculation

     Number of k-points >= 100: set verbosity='high' to print the bands.

     the Fermi energy is     5.5998 ev

!    total energy              =   -1616.71692016 Ry
     estimated scf accuracy    <          2.2E-10 Ry
     smearing contrib. (-TS)   =      -0.00009724 Ry
     internal energy E=F+TS    =   -1616.71682291 Ry

     The total energy is F=E-TS. E is the sum of the following terms:
     one-electron contribution =   -1371.75277968 Ry
     hartree contribution      =     714.09099259 Ry
     xc contribution           =    -164.35547464 Ry
     ewald contribution        =    -544.02271294 Ry
     DFT-D3 Dispersion         =      -0.35251625 Ry
     one-center paw contrib.   =    -250.32433200 Ry

     convergence has been achieved in  12 iterations

     Forces acting on atoms (cartesian axes, Ry/au):

     atom    1 type  1   force =    -0.00100940   -0.00068334    0.00166449
     atom    2 type  1   force =    -0.00021249   -0.00027619    0.00025630
     atom    3 type  1   force =     0.00248005    0.00114221   -0.00227306
     atom    4 type  1   force =    -0.00085203    0.00003288    0.00015610
     atom    5 type  1   force =     0.00181849    0.00146330   -0.00133050
     atom    6 type  1   force =     0.00124868   -0.00087919    0.00051694
     atom    7 type  1   force =     0.00057254    0.00201010    0.00023184
     atom    8 type  1   force =    -0.00176389   -0.00374627    0.00152413
     atom    9 type  2   force =     0.00008177    0.00109128    0.00055766
     atom   10 type  3   force =    -0.00242850   -0.00169972    0.00184907
     atom   11 type  3   force =     0.00205638    0.00111591   -0.00230912
     atom   12 type  3   force =    -0.00007847   -0.00154159   -0.00207342
     atom   13 type  4   force =    -0.00207633    0.00510568    0.00357804
     atom   14 type  4   force =    -0.00372056    0.00027684    0.00115346
     atom   15 type  4   force =     0.00360837   -0.00029442   -0.00059609
     atom   16 type  4   force =     0.00076228   -0.00380481   -0.00158308
     atom   17 type  4   force =     0.00232849    0.00401255   -0.00142334
     atom   18 type  4   force =     0.00051810   -0.00446891   -0.00252806
     atom   19 type  4   force =     0.00199830    0.00489423    0.00086810
     atom   20 type  4   force =    -0.00242004   -0.00444179    0.00105398
     atom   21 type  4   force =    -0.00004397    0.00311398    0.00669709
     atom   22 type  4   force =     0.00055918   -0.00150287    0.00395957
     atom   23 type  4   force =    -0.00154460    0.00108308   -0.00406373
     atom   24 type  4   force =    -0.00134218   -0.00072514   -0.00462042
     atom   25 type  4   force =    -0.00277826    0.00005915    0.00380291
     atom   26 type  4   force =    -0.00095625    0.00169751    0.00226254
     atom   27 type  4   force =     0.00091084   -0.00334133   -0.00336026
     atom   28 type  4   force =     0.00228348    0.00030686   -0.00397117

     Total force =     0.021674     Total SCF correction =     0.000026


     Computing stress (Cartesian axis) and pressure

          total   stress  (Ry/bohr**3)                   (kbar)     P=       -5.73
  -0.00004531   0.00001514  -0.00002441           -6.67        2.23       -3.59
   0.00001514  -0.00002715   0.00000753            2.23       -3.99        1.11
  -0.00002441   0.00000753  -0.00004436           -3.59        1.11       -6.53

     Energy error            =      8.5E-04 Ry
     Gradient error          =      6.7E-03 Ry/Bohr
     Cell gradient error     =      6.7E+00 kbar

     number of scf cycles    =   9
     number of bfgs steps    =   8

     enthalpy           old  =   -1616.7160669736 Ry
     enthalpy           new  =   -1616.7169201559 Ry

     CASE: enthalpy          _new < enthalpy          _old

     new trust radius        =       0.0758452043 bohr
     new conv_thr            =       0.0000000007 Ry

     new unit-cell volume =   1759.68241 a.u.^3 (   260.75803 Ang^3 )
     density =      2.83751 g/cm^3

CELL_PARAMETERS (angstrom)
   7.775021983   0.018978857   0.030374403
  -5.184752672   5.705169464  -0.074448488
  -2.294180114   0.961564037   5.847372448

ATOMIC_POSITIONS (angstrom)
Mg              -4.1888340385        5.2881611789        5.3351626935
Mg              -3.0934218788        4.7214884698        2.4311693727
Mg               3.4062686126        1.9722535566        3.3993982744
Mg               4.5070119775        1.3383180422        0.4537763626
Mg               0.7955898203        6.3393551688        4.3426628550
Mg              -0.5373110302        0.3044966585        1.4357900698
Mg              -0.5026718933        3.4892432260        4.3749660530
Mg               0.7656356969        3.2380470859        1.4369566523
Co              -1.6645100042        5.8860545813        5.2616603197
Ni              -1.8971801084        2.4080635560        2.3987878266
Ni               2.2102115079        4.2791269580        3.3927229620
Ni               1.9602096861        0.7329311582        0.4897333323
H               -0.3878455358        5.0863918825        5.6601544318
H               -0.3795188997        2.1364928408        2.6474655879
H                0.6919395550        4.5549084449        3.1633922699
H                0.7176483373        1.6409543976        0.2460958541
H                5.1497145431        1.0473028400        2.4889053144
H                4.0853368730        1.6289888444        5.3975263657
H               -3.7717993693        4.9733206076        0.3941024886
H               -4.8633745154        5.6552046798        3.2940950616
H               -2.5957391006        5.9208740494        3.9960673862
H               -2.4053622766        3.1445830058        1.1035194530
H                2.6807356784        3.5521674988        4.7161543140
H                2.8384743406        0.8475137122        1.7943998562
H                0.5936668094        1.8960707019        5.0881506339
H                2.7307863032        3.4578302560        2.1701826741
H               -2.4180880613        3.2056709970        3.6500509339
H               -0.2823242766        4.8541586234        0.6831276896



     Writing config-only to output data dir ./outdir/mg2nih4_co_nisite.save/ :
     XML data file
     NEW-OLD atomic charge density approx. for the potential
     New effective cutoffs (rho, wfc):  507.84   63.49

     Check: negative core charge=   -0.000002

     total cpu time spent up to now is     3670.3 secs

     Self-consistent Calculation

     iteration #  1     ecut=    60.00 Ry     beta= 0.30
     Davidson diagonalization with overlap
     ethr =  1.00E-06,  avg # of iterations =  4.5

     total cpu time spent up to now is     3718.9 secs

     total energy              =   -1616.71813165 Ry
     estimated scf accuracy    <       0.00068137 Ry

     iteration #  2     ecut=    60.00 Ry     beta= 0.30
     Davidson diagonalization with overlap
     ethr =  6.62E-07,  avg # of iterations =  1.8

     total cpu time spent up to now is     3744.7 secs

     total energy              =   -1616.71808034 Ry
     estimated scf accuracy    <       0.00057208 Ry

     iteration #  3     ecut=    60.00 Ry     beta= 0.30
     Davidson diagonalization with overlap
     ethr =  5.55E-07,  avg # of iterations =  2.0

     total cpu time spent up to now is     3768.3 secs

     total energy              =   -1616.71808521 Ry
     estimated scf accuracy    <       0.00108165 Ry

     iteration #  4     ecut=    60.00 Ry     beta= 0.30
     Davidson diagonalization with overlap
     ethr =  5.55E-07,  avg # of iterations =  2.2

     total cpu time spent up to now is     3793.3 secs

     total energy              =   -1616.71813275 Ry
     estimated scf accuracy    <       0.00036073 Ry

     iteration #  5     ecut=    60.00 Ry     beta= 0.30
     Davidson diagonalization with overlap
     ethr =  3.50E-07,  avg # of iterations =  1.5

     total cpu time spent up to now is     3815.8 secs

     total energy              =   -1616.71815661 Ry
     estimated scf accuracy    <       0.00003240 Ry

     iteration #  6     ecut=    60.00 Ry     beta= 0.30
     Davidson diagonalization with overlap
     ethr =  3.15E-08,  avg # of iterations =  2.7

     total cpu time spent up to now is     3844.7 secs

     total energy              =   -1616.71815941 Ry
     estimated scf accuracy    <       0.00005457 Ry

     iteration #  7     ecut=    60.00 Ry     beta= 0.30
     Davidson diagonalization with overlap
     ethr =  3.15E-08,  avg # of iterations =  2.0

     total cpu time spent up to now is     3867.7 secs

     total energy              =   -1616.71816299 Ry
     estimated scf accuracy    <       0.00000286 Ry

     iteration #  8     ecut=    60.00 Ry     beta= 0.30
     Davidson diagonalization with overlap
     ethr =  2.78E-09,  avg # of iterations =  4.8

     total cpu time spent up to now is     3908.7 secs

     total energy              =   -1616.71816367 Ry
     estimated scf accuracy    <       0.00000131 Ry

     iteration #  9     ecut=    60.00 Ry     beta= 0.30
     Davidson diagonalization with overlap
     ethr =  1.28E-09,  avg # of iterations =  2.9

     total cpu time spent up to now is     3939.2 secs

     total energy              =   -1616.71816377 Ry
     estimated scf accuracy    <       0.00000081 Ry

     iteration # 10     ecut=    60.00 Ry     beta= 0.30
     Davidson diagonalization with overlap
     ethr =  7.88E-10,  avg # of iterations =  2.0

     total cpu time spent up to now is     3962.1 secs

     total energy              =   -1616.71816385 Ry
     estimated scf accuracy    <       0.00000004 Ry

     iteration # 11     ecut=    60.00 Ry     beta= 0.30
     Davidson diagonalization with overlap
     ethr =  4.28E-11,  avg # of iterations =  4.0

     total cpu time spent up to now is     4001.5 secs

     total energy              =   -1616.71816388 Ry
     estimated scf accuracy    <          5.3E-09 Ry

     iteration # 12     ecut=    60.00 Ry     beta= 0.30
     Davidson diagonalization with overlap
     ethr =  5.12E-12,  avg # of iterations =  2.2

     total cpu time spent up to now is     4025.0 secs

     total energy              =   -1616.71816388 Ry
     estimated scf accuracy    <          7.7E-10 Ry

     iteration # 13     ecut=    60.00 Ry     beta= 0.30
     Davidson diagonalization with overlap
     ethr =  7.50E-13,  avg # of iterations =  2.3

     total cpu time spent up to now is     4049.6 secs

     End of self-consistent calculation

     Number of k-points >= 100: set verbosity='high' to print the bands.

     the Fermi energy is     5.6056 ev

!    total energy              =   -1616.71816388 Ry
     estimated scf accuracy    <          8.8E-11 Ry
     smearing contrib. (-TS)   =      -0.00005043 Ry
     internal energy E=F+TS    =   -1616.71811346 Ry

     The total energy is F=E-TS. E is the sum of the following terms:
     one-electron contribution =   -1372.15992204 Ry
     hartree contribution      =     714.26355869 Ry
     xc contribution           =    -164.34306209 Ry
     ewald contribution        =    -543.80482346 Ry
     DFT-D3 Dispersion         =      -0.35220687 Ry
     one-center paw contrib.   =    -250.32165769 Ry

     convergence has been achieved in  13 iterations

     Forces acting on atoms (cartesian axes, Ry/au):

     atom    1 type  1   force =     0.00026135   -0.00034301    0.00179620
     atom    2 type  1   force =    -0.00016817   -0.00051898    0.00062888
     atom    3 type  1   force =     0.00278727    0.00068762   -0.00116762
     atom    4 type  1   force =    -0.00052439   -0.00012728   -0.00044117
     atom    5 type  1   force =     0.00106394    0.00017773   -0.00105243
     atom    6 type  1   force =     0.00117504   -0.00014088   -0.00010556
     atom    7 type  1   force =     0.00112763    0.00271218    0.00053307
     atom    8 type  1   force =    -0.00144242   -0.00306137    0.00048521
     atom    9 type  2   force =     0.00017355    0.00129173    0.00042444
     atom   10 type  3   force =    -0.00233328   -0.00099261    0.00123329
     atom   11 type  3   force =     0.00159963    0.00034085   -0.00131950
     atom   12 type  3   force =     0.00004838   -0.00080322   -0.00134035
     atom   13 type  4   force =    -0.00353627    0.00458733    0.00167918
     atom   14 type  4   force =    -0.00380568    0.00019717    0.00082330
     atom   15 type  4   force =     0.00322643   -0.00062609   -0.00002438
     atom   16 type  4   force =     0.00084373   -0.00369095   -0.00104744
     atom   17 type  4   force =     0.00230957    0.00377357   -0.00132178
     atom   18 type  4   force =     0.00112087   -0.00258863   -0.00261213
     atom   19 type  4   force =     0.00182129    0.00491148    0.00056968
     atom   20 type  4   force =    -0.00208175   -0.00439258    0.00115658
     atom   21 type  4   force =     0.00035564    0.00279997    0.00741113
     atom   22 type  4   force =     0.00077710   -0.00163532    0.00392335
     atom   23 type  4   force =    -0.00174622    0.00084979   -0.00441095
     atom   24 type  4   force =    -0.00152701   -0.00092265   -0.00470940
     atom   25 type  4   force =    -0.00253853   -0.00014666    0.00404534
     atom   26 type  4   force =    -0.00134596    0.00206052    0.00165310
     atom   27 type  4   force =     0.00094630   -0.00350870   -0.00340477
     atom   28 type  4   force =     0.00141199   -0.00089102   -0.00340527

     Total force =     0.020561     Total SCF correction =     0.000037


     Computing stress (Cartesian axis) and pressure

          total   stress  (Ry/bohr**3)                   (kbar)     P=       -7.35
  -0.00005877   0.00001157  -0.00002313           -8.65        1.70       -3.40
   0.00001157  -0.00003807   0.00000696            1.70       -5.60        1.02
  -0.00002313   0.00000696  -0.00005305           -3.40        1.02       -7.80

     Energy error            =      1.2E-03 Ry
     Gradient error          =      7.4E-03 Ry/Bohr
     Cell gradient error     =      8.6E+00 kbar

     number of scf cycles    =  10
     number of bfgs steps    =   9

     enthalpy           old  =   -1616.7169201559 Ry
     enthalpy           new  =   -1616.7181638831 Ry

     CASE: enthalpy          _new < enthalpy          _old

     new trust radius        =       0.1136868386 bohr
     new conv_thr            =       0.0000000007 Ry

     new unit-cell volume =   1757.82850 a.u.^3 (   260.48331 Ang^3 )
     density =      2.84050 g/cm^3

CELL_PARAMETERS (angstrom)
   7.775266769   0.043415054   0.010196508
  -5.166706653   5.688977829  -0.066223475
  -2.306200435   0.948921385   5.846111671

ATOMIC_POSITIONS (angstrom)
Mg              -4.1900674883        5.2582277898        5.3448001595
Mg              -3.0781627304        4.7162054262        2.4406689203
Mg               3.4077570764        1.9805542853        3.3714407306
Mg               4.5074319510        1.3490292920        0.4351504401
Mg               0.8112371187        6.3526689438        4.3245228099
Mg              -0.5405642428        0.2816642501        1.4339410985
Mg              -0.5040185152        3.4996728162        4.3701136667
Mg               0.7602277424        3.2204887417        1.4382864118
Co              -1.6562311724        5.8605391063        5.2446140811
Ni              -1.8954572545        2.3958287675        2.3979501583
Ni               2.2194695128        4.2852938069        3.3746725741
Ni               1.9592694086        0.7390235243        0.4805408116
H               -0.3690950674        5.1070715323        5.7010889852
H               -0.3815858986        2.1296707757        2.6598266122
H                0.7040213269        4.5595867764        3.1404295130
H                0.7098904793        1.6300895853        0.2234409917
H                5.1496514598        1.0652036936        2.4630669206
H                4.0812656436        1.6103872797        5.3645639727
H               -3.7507435891        4.9657017162        0.4063307559
H               -4.8602810572        5.6346899230        3.3007631860
H               -2.6115260076        5.9362534883        4.0009417503
H               -2.4049504355        3.1385371904        1.1111600073
H                2.6785244604        3.5551971618        4.6991124664
H                2.8426657111        0.8542003849        1.7771838675
H                0.5765855182        1.8984557855        5.0788008518
H                2.7422794725        3.4629865612        2.1587144016
H               -2.4197319997        3.1855275664        3.6501202481
H               -0.2548258856        4.8656435829        0.6689394705



     Writing config-only to output data dir ./outdir/mg2nih4_co_nisite.save/ :
     XML data file
     NEW-OLD atomic charge density approx. for the potential
     New effective cutoffs (rho, wfc):  509.56   63.71

     Check: negative core charge=   -0.000002

     total cpu time spent up to now is     4062.8 secs

     Self-consistent Calculation

     iteration #  1     ecut=    60.00 Ry     beta= 0.30
     Davidson diagonalization with overlap
     c_bands:  1 eigenvalues not converged
     c_bands:  1 eigenvalues not converged
     c_bands:  1 eigenvalues not converged
     c_bands:  1 eigenvalues not converged
     ethr =  1.00E-06,  avg # of iterations =  6.1

     total cpu time spent up to now is     4128.3 secs

     total energy              =   -1616.71961018 Ry
     estimated scf accuracy    <       0.00148499 Ry

     iteration #  2     ecut=    60.00 Ry     beta= 0.30
     Davidson diagonalization with overlap
     ethr =  1.44E-06,  avg # of iterations =  1.5

     total cpu time spent up to now is     4152.1 secs

     total energy              =   -1616.71955626 Ry
     estimated scf accuracy    <       0.00064142 Ry

     iteration #  3     ecut=    60.00 Ry     beta= 0.30
     Davidson diagonalization with overlap
     ethr =  6.23E-07,  avg # of iterations =  2.2

     total cpu time spent up to now is     4177.7 secs

     total energy              =   -1616.71952495 Ry
     estimated scf accuracy    <       0.00146028 Ry

     iteration #  4     ecut=    60.00 Ry     beta= 0.30
     Davidson diagonalization with overlap
     ethr =  6.23E-07,  avg # of iterations =  2.2

     total cpu time spent up to now is     4202.9 secs

     total energy              =   -1616.71962291 Ry
     estimated scf accuracy    <       0.00021752 Ry

     iteration #  5     ecut=    60.00 Ry     beta= 0.30
     Davidson diagonalization with overlap
     ethr =  2.11E-07,  avg # of iterations =  2.0

     total cpu time spent up to now is     4225.8 secs

     total energy              =   -1616.71963418 Ry
     estimated scf accuracy    <       0.00015206 Ry

     iteration #  6     ecut=    60.00 Ry     beta= 0.30
     Davidson diagonalization with overlap
     ethr =  1.48E-07,  avg # of iterations =  2.0

     total cpu time spent up to now is     4248.6 secs

     total energy              =   -1616.71964003 Ry
     estimated scf accuracy    <       0.00014525 Ry

     iteration #  7     ecut=    60.00 Ry     beta= 0.30
     Davidson diagonalization with overlap
     ethr =  1.41E-07,  avg # of iterations =  1.0

     total cpu time spent up to now is     4266.9 secs

     total energy              =   -1616.71964947 Ry
     estimated scf accuracy    <       0.00000283 Ry

     iteration #  8     ecut=    60.00 Ry     beta= 0.30
     Davidson diagonalization with overlap
     ethr =  2.74E-09,  avg # of iterations =  4.0

     total cpu time spent up to now is     4307.0 secs

     total energy              =   -1616.71965088 Ry
     estimated scf accuracy    <       0.00000225 Ry

     iteration #  9     ecut=    60.00 Ry     beta= 0.30
     Davidson diagonalization with overlap
     ethr =  2.19E-09,  avg # of iterations =  1.5

     total cpu time spent up to now is     4330.6 secs

     total energy              =   -1616.71965101 Ry
     estimated scf accuracy    <       0.00000051 Ry

     iteration # 10     ecut=    60.00 Ry     beta= 0.30
     Davidson diagonalization with overlap
     ethr =  4.91E-10,  avg # of iterations =  2.0

     total cpu time spent up to now is     4353.7 secs

     total energy              =   -1616.71965107 Ry
     estimated scf accuracy    <       0.00000017 Ry

     iteration # 11     ecut=    60.00 Ry     beta= 0.30
     Davidson diagonalization with overlap
     ethr =  1.69E-10,  avg # of iterations =  1.3

     total cpu time spent up to now is     4375.5 secs

     total energy              =   -1616.71965108 Ry
     estimated scf accuracy    <          5.8E-09 Ry

     iteration # 12     ecut=    60.00 Ry     beta= 0.30
     Davidson diagonalization with overlap
     ethr =  5.62E-12,  avg # of iterations =  3.0

     total cpu time spent up to now is     4404.5 secs

     total energy              =   -1616.71965109 Ry
     estimated scf accuracy    <          1.6E-09 Ry

     iteration # 13     ecut=    60.00 Ry     beta= 0.30
     Davidson diagonalization with overlap
     ethr =  1.53E-12,  avg # of iterations =  2.0

     total cpu time spent up to now is     4428.2 secs

     End of self-consistent calculation

     Number of k-points >= 100: set verbosity='high' to print the bands.

     the Fermi energy is     5.6343 ev

!    total energy              =   -1616.71965109 Ry
     estimated scf accuracy    <          2.0E-10 Ry
     smearing contrib. (-TS)   =       0.00003732 Ry
     internal energy E=F+TS    =   -1616.71968840 Ry

     The total energy is F=E-TS. E is the sum of the following terms:
     one-electron contribution =   -1372.30604892 Ry
     hartree contribution      =     714.35522305 Ry
     xc contribution           =    -164.34755072 Ry
     ewald contribution        =    -543.74856662 Ry
     DFT-D3 Dispersion         =      -0.35257385 Ry
     one-center paw contrib.   =    -250.32017134 Ry

     convergence has been achieved in  13 iterations

     Forces acting on atoms (cartesian axes, Ry/au):

     atom    1 type  1   force =     0.00217056   -0.00004821    0.00192489
     atom    2 type  1   force =     0.00012125   -0.00059486    0.00145810
     atom    3 type  1   force =     0.00280901   -0.00018099    0.00043443
     atom    4 type  1   force =    -0.00002184   -0.00019636   -0.00153170
     atom    5 type  1   force =     0.00004781   -0.00174469   -0.00054997
     atom    6 type  1   force =     0.00089923    0.00092905   -0.00105071
     atom    7 type  1   force =     0.00193826    0.00324638    0.00083010
     atom    8 type  1   force =    -0.00081950   -0.00190172   -0.00116777
     atom    9 type  2   force =     0.00049142    0.00168867    0.00042058
     atom   10 type  3   force =    -0.00150527    0.00035824   -0.00008913
     atom   11 type  3   force =     0.00051700   -0.00109221    0.00044863
     atom   12 type  3   force =     0.00011145    0.00066804    0.00014601
     atom   13 type  4   force =    -0.00532113    0.00329684   -0.00098801
     atom   14 type  4   force =    -0.00291770   -0.00014583    0.00059531
     atom   15 type  4   force =     0.00174362   -0.00086175    0.00045949
     atom   16 type  4   force =     0.00025028   -0.00295122   -0.00046230
     atom   17 type  4   force =     0.00178201    0.00238583   -0.00113178
     atom   18 type  4   force =     0.00216098    0.00075701   -0.00275298
     atom   19 type  4   force =     0.00120918    0.00384547    0.00010541
     atom   20 type  4   force =    -0.00110066   -0.00328966    0.00124296
     atom   21 type  4   force =     0.00027392    0.00225510    0.00726182
     atom   22 type  4   force =     0.00066487   -0.00126359    0.00278286
     atom   23 type  4   force =    -0.00166598   -0.00004427   -0.00380950
     atom   24 type  4   force =    -0.00107656   -0.00109260   -0.00363490
     atom   25 type  4   force =    -0.00169650   -0.00040536    0.00342524
     atom   26 type  4   force =    -0.00158248    0.00226686    0.00005366
     atom   27 type  4   force =     0.00065291   -0.00332162   -0.00255760
     atom   28 type  4   force =    -0.00013614   -0.00256258   -0.00186314

     Total force =     0.017940     Total SCF correction =     0.000019


     Computing stress (Cartesian axis) and pressure

          total   stress  (Ry/bohr**3)                   (kbar)     P=       -6.89
  -0.00005819   0.00000330  -0.00001684           -8.56        0.49       -2.48
   0.00000330  -0.00003663   0.00000461            0.49       -5.39        0.68
  -0.00001684   0.00000461  -0.00004571           -2.48        0.68       -6.72

     Energy error            =      1.5E-03 Ry
     Gradient error          =      7.3E-03 Ry/Bohr
     Cell gradient error     =      8.6E+00 kbar

     number of scf cycles    =  11
     number of bfgs steps    =  10

     enthalpy           old  =   -1616.7181638831 Ry
     enthalpy           new  =   -1616.7196510872 Ry

     CASE: enthalpy          _new < enthalpy          _old

     new trust radius        =       0.0703058409 bohr
     new conv_thr            =       0.0000000007 Ry

     new unit-cell volume =   1752.59449 a.u.^3 (   259.70771 Ang^3 )
     density =      2.84899 g/cm^3

CELL_PARAMETERS (angstrom)
   7.766341794   0.060291430  -0.007752110
  -5.148165466   5.675834652  -0.056065153
  -2.314836781   0.941660877   5.842511798

ATOMIC_POSITIONS (angstrom)
Mg              -4.1877584914        5.2380046912        5.3522542059
Mg              -3.0657788111        4.7107941779        2.4487552531
Mg               3.4049943610        1.9869652986        3.3489839645
Mg               4.5020477848        1.3566457329        0.4196954731
Mg               0.8192387366        6.3593057126        4.3101057886
Mg              -0.5419021837        0.2684287128        1.4318766753
Mg              -0.5050644261        3.5077399489        4.3651464879
Mg               0.7547760991        3.2067696620        1.4380883797
Co              -1.6510078194        5.8455269749        5.2334997034
Ni              -1.8945162604        2.3874999123        2.3978007327
Ni               2.2218471513        4.2884598265        3.3599643315
Ni               1.9562418382        0.7432375262        0.4729769481
H               -0.3636514346        5.1219571641        5.7228525434
H               -0.3859971459        2.1251000131        2.6667311605
H                0.7108788980        4.5614265690        3.1243832399
H                0.7044159058        1.6208024346        0.2086481262
H                5.1435061944        1.0794224059        2.4407685117
H                4.0721251244        1.6007287731        5.3352793924
H               -3.7315725290        4.9614545630        0.4175092922
H               -4.8547047549        5.6172251859        3.3081312055
H               -2.6195776001        5.9455139693        4.0092937470
H               -2.4015515344        3.1325584590        1.1194470864
H                2.6703456885        3.5575225485        4.6811099942
H                2.8402402464        0.8584357780        1.7607211558
H                0.5609981173        1.9001966932        5.0715403710
H                2.7443755905        3.4677688640        2.1488690660
H               -2.4194266585        3.1698333073        3.6479277883
H               -0.2367684229        4.8696925269        0.6593628723



     Writing config-only to output data dir ./outdir/mg2nih4_co_nisite.save/ :
     XML data file
     NEW-OLD atomic charge density approx. for the potential
     New effective cutoffs (rho, wfc):  510.85   63.88

     Check: negative core charge=   -0.000002

     total cpu time spent up to now is     4441.4 secs

     Self-consistent Calculation

     iteration #  1     ecut=    60.00 Ry     beta= 0.30
     Davidson diagonalization with overlap
     c_bands:  1 eigenvalues not converged
     c_bands:  1 eigenvalues not converged
     ethr =  1.00E-06,  avg # of iterations =  4.6

     total cpu time spent up to now is     4491.8 secs

     total energy              =   -1616.72032392 Ry
     estimated scf accuracy    <       0.00090766 Ry

     iteration #  2     ecut=    60.00 Ry     beta= 0.30
     Davidson diagonalization with overlap
     ethr =  8.81E-07,  avg # of iterations =  2.8

     total cpu time spent up to now is     4522.4 secs

     total energy              =   -1616.72025134 Ry
     estimated scf accuracy    <       0.00203543 Ry

     iteration #  3     ecut=    60.00 Ry     beta= 0.30
     Davidson diagonalization with overlap
     ethr =  8.81E-07,  avg # of iterations =  2.1

     total cpu time spent up to now is     4547.7 secs

     total energy              =   -1616.72038523 Ry
     estimated scf accuracy    <       0.00064551 Ry

     iteration #  4     ecut=    60.00 Ry     beta= 0.30
     Davidson diagonalization with overlap
     ethr =  6.27E-07,  avg # of iterations =  2.3

     total cpu time spent up to now is     4572.8 secs

     total energy              =   -1616.72041189 Ry
     estimated scf accuracy    <       0.00053027 Ry

     iteration #  5     ecut=    60.00 Ry     beta= 0.30
     Davidson diagonalization with overlap
     ethr =  5.15E-07,  avg # of iterations =  1.4

     total cpu time spent up to now is     4595.5 secs

     total energy              =   -1616.72044085 Ry
     estimated scf accuracy    <       0.00002688 Ry

     iteration #  6     ecut=    60.00 Ry     beta= 0.30
     Davidson diagonalization with overlap
     ethr =  2.61E-08,  avg # of iterations =  3.0

     total cpu time spent up to now is     4623.9 secs

     total energy              =   -1616.72044482 Ry
     estimated scf accuracy    <       0.00004824 Ry

     iteration #  7     ecut=    60.00 Ry     beta= 0.30
     Davidson diagonalization with overlap
     ethr =  2.61E-08,  avg # of iterations =  1.9

     total cpu time spent up to now is     4648.0 secs

     total energy              =   -1616.72044760 Ry
     estimated scf accuracy    <       0.00000382 Ry

     iteration #  8     ecut=    60.00 Ry     beta= 0.30
     Davidson diagonalization with overlap
     ethr =  3.71E-09,  avg # of iterations =  2.2

     total cpu time spent up to now is     4673.9 secs

     total energy              =   -1616.72044822 Ry
     estimated scf accuracy    <       0.00000116 Ry

     iteration #  9     ecut=    60.00 Ry     beta= 0.30
     Davidson diagonalization with overlap
     ethr =  1.12E-09,  avg # of iterations =  4.8

     total cpu time spent up to now is     4712.8 secs

     total energy              =   -1616.72044845 Ry
     estimated scf accuracy    <       0.00000077 Ry

     iteration # 10     ecut=    60.00 Ry     beta= 0.30
     Davidson diagonalization with overlap
     ethr =  7.47E-10,  avg # of iterations =  1.3

     total cpu time spent up to now is     4734.8 secs

     total energy              =   -1616.72044853 Ry
     estimated scf accuracy    <       0.00000004 Ry

     iteration # 11     ecut=    60.00 Ry     beta= 0.30
     Davidson diagonalization with overlap
     ethr =  4.30E-11,  avg # of iterations =  3.6

     total cpu time spent up to now is     4771.1 secs

     total energy              =   -1616.72044855 Ry
     estimated scf accuracy    <       0.00000001 Ry

     iteration # 12     ecut=    60.00 Ry     beta= 0.30
     Davidson diagonalization with overlap
     ethr =  1.03E-11,  avg # of iterations =  1.1

     total cpu time spent up to now is     4790.5 secs

     total energy              =   -1616.72044855 Ry
     estimated scf accuracy    <          8.5E-10 Ry

     iteration # 13     ecut=    60.00 Ry     beta= 0.30
     Davidson diagonalization with overlap
     ethr =  8.21E-13,  avg # of iterations =  2.5

     total cpu time spent up to now is     4818.4 secs

     End of self-consistent calculation

     Number of k-points >= 100: set verbosity='high' to print the bands.

     the Fermi energy is     5.6698 ev

!    total energy              =   -1616.72044855 Ry
     estimated scf accuracy    <          8.6E-11 Ry
     smearing contrib. (-TS)   =       0.00010292 Ry
     internal energy E=F+TS    =   -1616.72055148 Ry

     The total energy is F=E-TS. E is the sum of the following terms:
     one-electron contribution =   -1372.09258492 Ry
     hartree contribution      =     714.31709559 Ry
     xc contribution           =    -164.37396908 Ry
     ewald contribution        =    -543.89603912 Ry
     DFT-D3 Dispersion         =      -0.35358458 Ry
     one-center paw contrib.   =    -250.32146938 Ry

     convergence has been achieved in  13 iterations

     Forces acting on atoms (cartesian axes, Ry/au):

     atom    1 type  1   force =     0.00324448   -0.00012373    0.00191302
     atom    2 type  1   force =     0.00054677   -0.00027159    0.00226713
     atom    3 type  1   force =     0.00223381   -0.00093253    0.00132544
     atom    4 type  1   force =     0.00041550   -0.00009608   -0.00239371
     atom    5 type  1   force =    -0.00052647   -0.00289659   -0.00012662
     atom    6 type  1   force =     0.00050812    0.00153044   -0.00161267
     atom    7 type  1   force =     0.00230225    0.00321580    0.00090653
     atom    8 type  1   force =    -0.00028261   -0.00092942   -0.00224624
     atom    9 type  2   force =     0.00021952    0.00193882    0.00020096
     atom   10 type  3   force =    -0.00014968    0.00136038   -0.00135658
     atom   11 type  3   force =    -0.00054979   -0.00210554    0.00169329
     atom   12 type  3   force =     0.00000539    0.00194794    0.00142637
     atom   13 type  4   force =    -0.00473808    0.00148229   -0.00194401
     atom   14 type  4   force =    -0.00108939   -0.00061864    0.00075657
     atom   15 type  4   force =    -0.00027665   -0.00073525    0.00037738
     atom   16 type  4   force =    -0.00100390   -0.00177988   -0.00037334
     atom   17 type  4   force =     0.00087158    0.00037381   -0.00094744
     atom   18 type  4   force =     0.00297498    0.00330502   -0.00276744
     atom   19 type  4   force =     0.00038758    0.00189280   -0.00019802
     atom   20 type  4   force =     0.00003644   -0.00146459    0.00121792
     atom   21 type  4   force =    -0.00093915    0.00202682    0.00538639
     atom   22 type  4   force =     0.00004102   -0.00028076    0.00072119
     atom   23 type  4   force =    -0.00112011   -0.00125481   -0.00202225
     atom   24 type  4   force =     0.00015238   -0.00102195   -0.00139252
     atom   25 type  4   force =    -0.00064217   -0.00047203    0.00187136
     atom   26 type  4   force =    -0.00138160    0.00201216   -0.00162560
     atom   27 type  4   force =     0.00009326   -0.00268127   -0.00095806
     atom   28 type  4   force =    -0.00133346   -0.00342162   -0.00009904

     Total force =     0.015547     Total SCF correction =     0.000040


     Computing stress (Cartesian axis) and pressure

          total   stress  (Ry/bohr**3)                   (kbar)     P=       -3.70
  -0.00003421  -0.00000529  -0.00000559           -5.03       -0.78       -0.82
  -0.00000529  -0.00002032   0.00000021           -0.78       -2.99        0.03
  -0.00000559   0.00000021  -0.00002084           -0.82        0.03       -3.07

     Energy error            =      8.0E-04 Ry
     Gradient error          =      5.4E-03 Ry/Bohr
     Cell gradient error     =      5.0E+00 kbar

     number of scf cycles    =  12
     number of bfgs steps    =  11

     enthalpy           old  =   -1616.7196510872 Ry
     enthalpy           new  =   -1616.7204485546 Ry

     CASE: enthalpy          _new < enthalpy          _old

     new trust radius        =       0.0210929250 bohr
     new conv_thr            =       0.0000000005 Ry

     new unit-cell volume =   1746.81435 a.u.^3 (   258.85118 Ang^3 )
     density =      2.85841 g/cm^3

CELL_PARAMETERS (angstrom)
   7.754841214   0.064419039  -0.015447871
  -5.137399934   5.669228939  -0.051065411
  -2.316689644   0.939579486   5.838137325

ATOMIC_POSITIONS (angstrom)
Mg              -4.1825052193        5.2297004622        5.3538108782
Mg              -3.0596263294        4.7066605652        2.4521967339
Mg               3.4008644981        1.9871451278        3.3396993195
Mg               4.4951965056        1.3577916500        0.4119860732
Mg               0.8185731030        6.3558976191        4.3027732468
Mg              -0.5415504387        0.2657519398        1.4294932967
Mg              -0.5047857107        3.5105868188        4.3615312338
Mg               0.7511703582        3.1998276740        1.4356789852
Co              -1.6496636641        5.8400495950        5.2279079808
Ni              -1.8934361073        2.3847547946        2.3961505520
Ni               2.2183084128        4.2855596414        3.3537156679
Ni               1.9528889764        0.7449828327        0.4705492479
H               -0.3677153660        5.1251086119        5.7242689020
H               -0.3890701879        2.1223127701        2.6677222179
H                0.7107399481        4.5589063865        3.1177969937
H                0.7011486630        1.6155243168        0.2037501019
H                5.1358008291        1.0832607932        2.4301709690
H                4.0651106246        1.5989552614        5.3195676007
H               -3.7218644080        4.9595858923        0.4218513083
H               -4.8493790324        5.6080327659        3.3108717787
H               -2.6213327405        5.9467116292        4.0145608739
H               -2.3983832898        3.1289536918        1.1228857659
H                2.6620906586        3.5553852472        4.6701538000
H                2.8356036159        0.8582534545        1.7524701878
H                0.5533007180        1.8994274070        5.0675287065
H                2.7397096644        3.4686437959        2.1428797481
H               -2.4179395975        3.1617023056        3.6447079774
H               -0.2327315838        4.8657114487        0.6560564603



     Writing config-only to output data dir ./outdir/mg2nih4_co_nisite.save/ :
     XML data file
     NEW-OLD atomic charge density approx. for the potential
     New effective cutoffs (rho, wfc):  511.71   63.98

     Check: negative core charge=   -0.000002

     total cpu time spent up to now is     4831.6 secs

     Self-consistent Calculation

     iteration #  1     ecut=    60.00 Ry     beta= 0.30
     Davidson diagonalization with overlap
     ethr =  1.00E-06,  avg # of iterations =  3.1

     total cpu time spent up to now is     4869.4 secs

     total energy              =   -1616.72072791 Ry
     estimated scf accuracy    <       0.00043604 Ry

     iteration #  2     ecut=    60.00 Ry     beta= 0.30
     Davidson diagonalization with overlap
     ethr =  4.23E-07,  avg # of iterations =  3.0

     total cpu time spent up to now is     4898.6 secs

     total energy              =   -1616.72069212 Ry
     estimated scf accuracy    <       0.00221167 Ry

     iteration #  3     ecut=    60.00 Ry     beta= 0.30
     Davidson diagonalization with overlap
     ethr =  4.23E-07,  avg # of iterations =  3.0

     total cpu time spent up to now is     4927.5 secs

     total energy              =   -1616.72085143 Ry
     estimated scf accuracy    <       0.00026214 Ry

     iteration #  4     ecut=    60.00 Ry     beta= 0.30
     Davidson diagonalization with overlap
     ethr =  2.55E-07,  avg # of iterations =  1.9

     total cpu time spent up to now is     4951.6 secs

     total energy              =   -1616.72086871 Ry
     estimated scf accuracy    <       0.00002013 Ry

     iteration #  5     ecut=    60.00 Ry     beta= 0.30
     Davidson diagonalization with overlap
     ethr =  1.95E-08,  avg # of iterations =  2.4

     total cpu time spent up to now is     4978.0 secs

     total energy              =   -1616.72086989 Ry
     estimated scf accuracy    <       0.00000514 Ry

     iteration #  6     ecut=    60.00 Ry     beta= 0.30
     Davidson diagonalization with overlap
     ethr =  4.99E-09,  avg # of iterations =  2.0

     total cpu time spent up to now is     5000.9 secs

     total energy              =   -1616.72087009 Ry
     estimated scf accuracy    <       0.00000580 Ry

     iteration #  7     ecut=    60.00 Ry     beta= 0.30
     Davidson diagonalization with overlap
     ethr =  4.99E-09,  avg # of iterations =  1.1

     total cpu time spent up to now is     5020.2 secs

     total energy              =   -1616.72087050 Ry
     estimated scf accuracy    <       0.00000038 Ry

     iteration #  8     ecut=    60.00 Ry     beta= 0.30
     Davidson diagonalization with overlap
     ethr =  3.69E-10,  avg # of iterations =  3.7

     total cpu time spent up to now is     5055.4 secs

     total energy              =   -1616.72087058 Ry
     estimated scf accuracy    <       0.00000010 Ry

     iteration #  9     ecut=    60.00 Ry     beta= 0.30
     Davidson diagonalization with overlap
     ethr =  9.61E-11,  avg # of iterations =  3.9

     total cpu time spent up to now is     5090.3 secs

     total energy              =   -1616.72087060 Ry
     estimated scf accuracy    <       0.00000006 Ry

     iteration # 10     ecut=    60.00 Ry     beta= 0.30
     Davidson diagonalization with overlap
     ethr =  6.04E-11,  avg # of iterations =  1.2

     total cpu time spent up to now is     5110.7 secs

     total energy              =   -1616.72087061 Ry
     estimated scf accuracy    <          9.3E-09 Ry

     iteration # 11     ecut=    60.00 Ry     beta= 0.30
     Davidson diagonalization with overlap
     ethr =  9.01E-12,  avg # of iterations =  2.7

     total cpu time spent up to now is     5138.5 secs

     total energy              =   -1616.72087061 Ry
     estimated scf accuracy    <          1.2E-09 Ry

     iteration # 12     ecut=    60.00 Ry     beta= 0.30
     Davidson diagonalization with overlap
     ethr =  1.16E-12,  avg # of iterations =  1.9

     total cpu time spent up to now is     5162.8 secs

     End of self-consistent calculation

     Number of k-points >= 100: set verbosity='high' to print the bands.

     the Fermi energy is     5.6988 ev

!    total energy              =   -1616.72087061 Ry
     estimated scf accuracy    <          1.3E-10 Ry
     smearing contrib. (-TS)   =       0.00013242 Ry
     internal energy E=F+TS    =   -1616.72100303 Ry

     The total energy is F=E-TS. E is the sum of the following terms:
     one-electron contribution =   -1371.41379557 Ry
     hartree contribution      =     714.06471932 Ry
     xc contribution           =    -164.40265547 Ry
     ewald contribution        =    -544.29056417 Ry
     DFT-D3 Dispersion         =      -0.35470216 Ry
     one-center paw contrib.   =    -250.32400498 Ry

     convergence has been achieved in  12 iterations

     Forces acting on atoms (cartesian axes, Ry/au):

     atom    1 type  1   force =     0.00291928   -0.00040243    0.00180856
     atom    2 type  1   force =     0.00074352    0.00011125    0.00251411
     atom    3 type  1   force =     0.00160515   -0.00100640    0.00106641
     atom    4 type  1   force =     0.00059265    0.00018132   -0.00252346
     atom    5 type  1   force =    -0.00037958   -0.00282661   -0.00005872
     atom    6 type  1   force =     0.00037235    0.00154589   -0.00141089
     atom    7 type  1   force =     0.00217742    0.00272530    0.00077950
     atom    8 type  1   force =    -0.00012494   -0.00065891   -0.00227033
     atom    9 type  2   force =    -0.00031532    0.00227212    0.00016283
     atom   10 type  3   force =     0.00081007    0.00137464   -0.00176099
     atom   11 type  3   force =    -0.00103819   -0.00203279    0.00164325
     atom   12 type  3   force =    -0.00021505    0.00227019    0.00176517
     atom   13 type  4   force =    -0.00271208    0.00015445   -0.00137165
     atom   14 type  4   force =     0.00031742   -0.00090287    0.00099601
     atom   15 type  4   force =    -0.00146732   -0.00048743    0.00005102
     atom   16 type  4   force =    -0.00193109   -0.00095957   -0.00060844
     atom   17 type  4   force =     0.00027474   -0.00086470   -0.00087336
     atom   18 type  4   force =     0.00317942    0.00389923   -0.00263993
     atom   19 type  4   force =    -0.00015714    0.00048705   -0.00025342
     atom   20 type  4   force =     0.00060770   -0.00032073    0.00116869
     atom   21 type  4   force =    -0.00236160    0.00210199    0.00334351
     atom   22 type  4   force =    -0.00055282    0.00056295   -0.00083404
     atom   23 type  4   force =    -0.00054619   -0.00208692   -0.00041202
     atom   24 type  4   force =     0.00122655   -0.00087103    0.00044156
     atom   25 type  4   force =    -0.00000955   -0.00040547    0.00059545
     atom   26 type  4   force =    -0.00108469    0.00164470   -0.00235248
     atom   27 type  4   force =    -0.00030027   -0.00209778    0.00025627
     atom   28 type  4   force =    -0.00163046   -0.00340744    0.00077739

     Total force =     0.014222     Total SCF correction =     0.000014


     Computing stress (Cartesian axis) and pressure

          total   stress  (Ry/bohr**3)                   (kbar)     P=       -0.27
  -0.00000605  -0.00000866   0.00000250           -0.89       -1.27        0.37
  -0.00000866  -0.00000220  -0.00000281           -1.27       -0.32       -0.41
   0.00000250  -0.00000281   0.00000279            0.37       -0.41        0.41

     Energy error            =      4.2E-04 Ry
     Gradient error          =      3.9E-03 Ry/Bohr
     Cell gradient error     =      1.3E+00 kbar

     number of scf cycles    =  13
     number of bfgs steps    =  12

     enthalpy           old  =   -1616.7204485546 Ry
     enthalpy           new  =   -1616.7208706118 Ry

     CASE: enthalpy          _new < enthalpy          _old

     new trust radius        =       0.0245407607 bohr
     new conv_thr            =       0.0000000004 Ry

     new unit-cell volume =   1739.92420 a.u.^3 (   257.83017 Ang^3 )
     density =      2.86973 g/cm^3

CELL_PARAMETERS (angstrom)
   7.741213545   0.064557152  -0.020137580
  -5.128184614   5.663079324  -0.049157242
  -2.316191367   0.937185437   5.832749917

ATOMIC_POSITIONS (angstrom)
Mg              -4.1742341684        5.2205712600        5.3536032238
Mg              -3.0536798639        4.7018198557        2.4552652777
Mg               3.3966818556        1.9831052390        3.3330541934
Mg               4.4874173662        1.3560707762        0.4038868613
Mg               0.8150716676        6.3461181276        4.2950081329
Mg              -0.5407049700        0.2645112831        1.4255982724
Mg              -0.5030163977        3.5129624368        4.3576157111
Mg               0.7467671968        3.1918547326        1.4307273249
Co              -1.6494071530        5.8337121036        5.2204408122
Ni              -1.8911354199        2.3829479212        2.3916554368
Ni               2.2119922743        4.2775698275        3.3493136087
Ni               1.9487081773        0.7472139375        0.4704152478
H               -0.3739873447        5.1241318539        5.7222237534
H               -0.3912957669        2.1177658523        2.6684095815
H                0.7075697374        4.5531634150        3.1111144232
H                0.6957679151        1.6093103980        0.1990502639
H                5.1269041221        1.0824272669        2.4211911278
H                4.0603608410        1.5974293886        5.3038928879
H               -3.7140433066        4.9571716524        0.4233243353
H               -4.8434697036        5.5989320381        3.3112664037
H               -2.6252283579        5.9468036054        4.0189780549
H               -2.3961333057        3.1257513264        1.1234888995
H                2.6529184305        3.5479738620        4.6600207060
H                2.8314177882        0.8554248263        1.7463910848
H                0.5469017333        1.8963148174        5.0633248775
H                2.7325539375        3.4673840004        2.1353235010
H               -2.4163176388        3.1520441274        3.6406574101
H               -0.2326537477        4.8570208484        0.6531299284



     Writing config-only to output data dir ./outdir/mg2nih4_co_nisite.save/ :
     XML data file
     NEW-OLD atomic charge density approx. for the potential
     New effective cutoffs (rho, wfc):  512.91   64.13

     Check: negative core charge=   -0.000001

     total cpu time spent up to now is     5175.9 secs

     Self-consistent Calculation

     iteration #  1     ecut=    60.00 Ry     beta= 0.30
     Davidson diagonalization with overlap
     ethr =  1.00E-06,  avg # of iterations =  3.3

     total cpu time spent up to now is     5216.3 secs

     total energy              =   -1616.72108039 Ry
     estimated scf accuracy    <       0.00068652 Ry

     iteration #  2     ecut=    60.00 Ry     beta= 0.30
     Davidson diagonalization with overlap
     ethr =  6.67E-07,  avg # of iterations =  3.0

     total cpu time spent up to now is     5245.5 secs

     total energy              =   -1616.72104219 Ry
     estimated scf accuracy    <       0.00296463 Ry

     iteration #  3     ecut=    60.00 Ry     beta= 0.30
     Davidson diagonalization with overlap
     ethr =  6.67E-07,  avg # of iterations =  2.9

     total cpu time spent up to now is     5274.6 secs

     total energy              =   -1616.72126234 Ry
     estimated scf accuracy    <       0.00038164 Ry

     iteration #  4     ecut=    60.00 Ry     beta= 0.30
     Davidson diagonalization with overlap
     ethr =  3.71E-07,  avg # of iterations =  2.0

     total cpu time spent up to now is     5297.3 secs

     total energy              =   -1616.72129109 Ry
     estimated scf accuracy    <       0.00005792 Ry

     iteration #  5     ecut=    60.00 Ry     beta= 0.30
     Davidson diagonalization with overlap
     ethr =  5.62E-08,  avg # of iterations =  1.9

     total cpu time spent up to now is     5321.0 secs

     total energy              =   -1616.72129401 Ry
     estimated scf accuracy    <       0.00000480 Ry

     iteration #  6     ecut=    60.00 Ry     beta= 0.30
     Davidson diagonalization with overlap
     ethr =  4.66E-09,  avg # of iterations =  2.2

     total cpu time spent up to now is     5346.9 secs

     total energy              =   -1616.72129402 Ry
     estimated scf accuracy    <       0.00000848 Ry

     iteration #  7     ecut=    60.00 Ry     beta= 0.30
     Davidson diagonalization with overlap
     ethr =  4.66E-09,  avg # of iterations =  2.0

     total cpu time spent up to now is     5369.3 secs

     total energy              =   -1616.72129464 Ry
     estimated scf accuracy    <       0.00000064 Ry

     iteration #  8     ecut=    60.00 Ry     beta= 0.30
     Davidson diagonalization with overlap
     ethr =  6.20E-10,  avg # of iterations =  2.6

     total cpu time spent up to now is     5398.9 secs

     total energy              =   -1616.72129474 Ry
     estimated scf accuracy    <       0.00000012 Ry

     iteration #  9     ecut=    60.00 Ry     beta= 0.30
     Davidson diagonalization with overlap
     ethr =  1.14E-10,  avg # of iterations =  4.5

     total cpu time spent up to now is     5447.2 secs

     total energy              =   -1616.72129482 Ry
     estimated scf accuracy    <       0.00000015 Ry

     iteration # 10     ecut=    60.00 Ry     beta= 0.30
     Davidson diagonalization with overlap
     ethr =  1.14E-10,  avg # of iterations =  1.1

     total cpu time spent up to now is     5466.7 secs

     total energy              =   -1616.72129483 Ry
     estimated scf accuracy    <          7.7E-09 Ry

     iteration # 11     ecut=    60.00 Ry     beta= 0.30
     Davidson diagonalization with overlap
     ethr =  7.50E-12,  avg # of iterations =  3.0

     total cpu time spent up to now is     5495.7 secs

     total energy              =   -1616.72129483 Ry
     estimated scf accuracy    <          2.3E-09 Ry

     iteration # 12     ecut=    60.00 Ry     beta= 0.30
     Davidson diagonalization with overlap
     ethr =  2.19E-12,  avg # of iterations =  1.8

     total cpu time spent up to now is     5520.5 secs

     End of self-consistent calculation

     Number of k-points >= 100: set verbosity='high' to print the bands.

     the Fermi energy is     5.7323 ev

!    total energy              =   -1616.72129483 Ry
     estimated scf accuracy    <          1.8E-10 Ry
     smearing contrib. (-TS)   =       0.00016882 Ry
     internal energy E=F+TS    =   -1616.72146365 Ry

     The total energy is F=E-TS. E is the sum of the following terms:
     one-electron contribution =   -1370.20329283 Ry
     hartree contribution      =     713.57236876 Ry
     xc contribution           =    -164.43232986 Ry
     ewald contribution        =    -544.97507343 Ry
     DFT-D3 Dispersion         =      -0.35604659 Ry
     one-center paw contrib.   =    -250.32708970 Ry

     convergence has been achieved in  12 iterations

     Forces acting on atoms (cartesian axes, Ry/au):

     atom    1 type  1   force =     0.00156790   -0.00074905    0.00154253
     atom    2 type  1   force =     0.00072127    0.00054306    0.00240795
     atom    3 type  1   force =     0.00088602   -0.00056329    0.00007431
     atom    4 type  1   force =     0.00065114    0.00065484   -0.00216386
     atom    5 type  1   force =     0.00029742   -0.00204650   -0.00018503
     atom    6 type  1   force =     0.00041252    0.00135171   -0.00059412
     atom    7 type  1   force =     0.00177691    0.00148343    0.00045776
     atom    8 type  1   force =    -0.00004641   -0.00061372   -0.00172420
     atom    9 type  2   force =    -0.00062369    0.00296305    0.00064993
     atom   10 type  3   force =     0.00160173    0.00078847   -0.00160046
     atom   11 type  3   force =    -0.00126521   -0.00124801    0.00076848
     atom   12 type  3   force =    -0.00053830    0.00201963    0.00154109
     atom   13 type  4   force =    -0.00058600   -0.00096812   -0.00063558
     atom   14 type  4   force =     0.00143820   -0.00105459    0.00116544
     atom   15 type  4   force =    -0.00209072   -0.00023082   -0.00035170
     atom   16 type  4   force =    -0.00245011   -0.00032828   -0.00088527
     atom   17 type  4   force =    -0.00008260   -0.00162102   -0.00085204
     atom   18 type  4   force =     0.00299363    0.00348940   -0.00240022
     atom   19 type  4   force =    -0.00056001   -0.00060856   -0.00020634
     atom   20 type  4   force =     0.00086950    0.00037361    0.00113794
     atom   21 type  4   force =    -0.00372724    0.00219422    0.00134978
     atom   22 type  4   force =    -0.00110795    0.00126897   -0.00207098
     atom   23 type  4   force =     0.00005777   -0.00273912    0.00105551
     atom   24 type  4   force =     0.00218586   -0.00074554    0.00208372
     atom   25 type  4   force =     0.00039696   -0.00029230   -0.00049193
     atom   26 type  4   force =    -0.00081464    0.00127524   -0.00247493
     atom   27 type  4   force =    -0.00052906   -0.00152750    0.00123546
     atom   28 type  4   force =    -0.00143490   -0.00306924    0.00116676

     Total force =     0.013518     Total SCF correction =     0.000029


     Computing stress (Cartesian axis) and pressure

          total   stress  (Ry/bohr**3)                   (kbar)     P=        3.12
   0.00002290  -0.00000897   0.00000790            3.37       -1.32        1.16
  -0.00000897   0.00001652  -0.00000403           -1.32        2.43       -0.59
   0.00000790  -0.00000403   0.00002416            1.16       -0.59        3.55

     Energy error            =      4.2E-04 Ry
     Gradient error          =      3.7E-03 Ry/Bohr
     Cell gradient error     =      3.6E+00 kbar

     number of scf cycles    =  14
     number of bfgs steps    =  13

     enthalpy           old  =   -1616.7208706118 Ry
     enthalpy           new  =   -1616.7212948302 Ry

     CASE: enthalpy          _new < enthalpy          _old

     new trust radius        =       0.0341036972 bohr
     new conv_thr            =       0.0000000004 Ry

     new unit-cell volume =   1735.00552 a.u.^3 (   257.10129 Ang^3 )
     density =      2.87787 g/cm^3

CELL_PARAMETERS (angstrom)
   7.730769039   0.062991876  -0.023699898
  -5.122370904   5.659442139  -0.049078263
  -2.316035616   0.934443595   5.829601060

ATOMIC_POSITIONS (angstrom)
Mg              -4.1667297752        5.2115579112        5.3560888150
Mg              -3.0488374928        4.6989656819        2.4605969261
Mg               3.3949907733        1.9776641812        3.3278223937
Mg               4.4817639362        1.3539249323        0.3942357594
Mg               0.8114296164        6.3356600175        4.2879033015
Mg              -0.5396270356        0.2634788077        1.4215001667
Mg              -0.5000783537        3.5176490828        4.3555361154
Mg               0.7416133034        3.1830424611        1.4247092979
Co              -1.6506666673        5.8298491842        5.2140595320
Ni              -1.8886008129        2.3822708491        2.3861438256
Ni               2.2052378936        4.2684611922        3.3466386770
Ni               1.9447497558        0.7507900651        0.4718093673
H               -0.3811050646        5.1240425949        5.7233159132
H               -0.3929990414        2.1123377945        2.6715457201
H                0.7028483025        4.5476958676        3.1044251800
H                0.6879735514        1.6022354007        0.1928018683
H                5.1204327973        1.0794085617        2.4128131102
H                4.0604890160        1.5962400963        5.2881977280
H               -3.7088795248        4.9567124508        0.4236730070
H               -4.8400033226        5.5915580286        3.3125767445
H               -2.6348913124        5.9511524300        4.0258415000
H               -2.3964966422        3.1246173078        1.1225228623
H                2.6445115952        3.5377585363        4.6523067227
H                2.8303226839        0.8511258080        1.7424457634
H                0.5407441031        1.8925696982        5.0611311490
H                2.7255328575        3.4671244356        2.1266129418
H               -2.4163522089        3.1411374687        3.6382160427
H               -0.2342976682        4.8472556990        0.6500501563



     Writing config-only to output data dir ./outdir/mg2nih4_co_nisite.save/ :
     XML data file
     NEW-OLD atomic charge density approx. for the potential
     New effective cutoffs (rho, wfc):  513.89   64.25

     Check: negative core charge=   -0.000001

     total cpu time spent up to now is     5533.8 secs

     Self-consistent Calculation

     iteration #  1     ecut=    60.00 Ry     beta= 0.30
     Davidson diagonalization with overlap
     ethr =  1.00E-06,  avg # of iterations =  4.0

     total cpu time spent up to now is     5576.5 secs

     total energy              =   -1616.72162651 Ry
     estimated scf accuracy    <       0.00061920 Ry

     iteration #  2     ecut=    60.00 Ry     beta= 0.30
     Davidson diagonalization with overlap
     ethr =  6.01E-07,  avg # of iterations =  3.0

     total cpu time spent up to now is     5605.1 secs

     total energy              =   -1616.72159609 Ry
     estimated scf accuracy    <       0.00162593 Ry

     iteration #  3     ecut=    60.00 Ry     beta= 0.30
     Davidson diagonalization with overlap
     ethr =  6.01E-07,  avg # of iterations =  2.1

     total cpu time spent up to now is     5630.1 secs

     total energy              =   -1616.72171806 Ry
     estimated scf accuracy    <       0.00036161 Ry

     iteration #  4     ecut=    60.00 Ry     beta= 0.30
     Davidson diagonalization with overlap
     ethr =  3.51E-07,  avg # of iterations =  2.2

     total cpu time spent up to now is     5654.7 secs

     total energy              =   -1616.72173996 Ry
     estimated scf accuracy    <       0.00024691 Ry

     iteration #  5     ecut=    60.00 Ry     beta= 0.30
     Davidson diagonalization with overlap
     ethr =  2.40E-07,  avg # of iterations =  1.3

     total cpu time spent up to now is     5676.7 secs

     total energy              =   -1616.72175367 Ry
     estimated scf accuracy    <       0.00000849 Ry

     iteration #  6     ecut=    60.00 Ry     beta= 0.30
     Davidson diagonalization with overlap
     ethr =  8.24E-09,  avg # of iterations =  3.0

     total cpu time spent up to now is     5705.6 secs

     total energy              =   -1616.72175523 Ry
     estimated scf accuracy    <       0.00000990 Ry

     iteration #  7     ecut=    60.00 Ry     beta= 0.30
     Davidson diagonalization with overlap
     ethr =  8.24E-09,  avg # of iterations =  1.0

     total cpu time spent up to now is     5724.3 secs

     total energy              =   -1616.72175540 Ry
     estimated scf accuracy    <       0.00000298 Ry

     iteration #  8     ecut=    60.00 Ry     beta= 0.30
     Davidson diagonalization with overlap
     ethr =  2.89E-09,  avg # of iterations =  2.0

     total cpu time spent up to now is     5746.9 secs

     total energy              =   -1616.72175572 Ry
     estimated scf accuracy    <       0.00000021 Ry

     iteration #  9     ecut=    60.00 Ry     beta= 0.30
     Davidson diagonalization with overlap
     ethr =  2.03E-10,  avg # of iterations =  4.5

     total cpu time spent up to now is     5794.9 secs

     total energy              =   -1616.72175586 Ry
     estimated scf accuracy    <       0.00000026 Ry

     iteration # 10     ecut=    60.00 Ry     beta= 0.30
     Davidson diagonalization with overlap
     ethr =  2.03E-10,  avg # of iterations =  1.1

     total cpu time spent up to now is     5814.8 secs

     total energy              =   -1616.72175588 Ry
     estimated scf accuracy    <       0.00000002 Ry

     iteration # 11     ecut=    60.00 Ry     beta= 0.30
     Davidson diagonalization with overlap
     ethr =  2.36E-11,  avg # of iterations =  2.0

     total cpu time spent up to now is     5839.0 secs

     total energy              =   -1616.72175588 Ry
     estimated scf accuracy    <          6.2E-09 Ry

     iteration # 12     ecut=    60.00 Ry     beta= 0.30
     Davidson diagonalization with overlap
     ethr =  6.05E-12,  avg # of iterations =  1.3

     total cpu time spent up to now is     5859.7 secs

     total energy              =   -1616.72175588 Ry
     estimated scf accuracy    <          4.6E-10 Ry

     iteration # 13     ecut=    60.00 Ry     beta= 0.30
     Davidson diagonalization with overlap
     ethr =  4.50E-13,  avg # of iterations =  2.0

     total cpu time spent up to now is     5883.5 secs

     End of self-consistent calculation

     Number of k-points >= 100: set verbosity='high' to print the bands.

     the Fermi energy is     5.7565 ev

!    total energy              =   -1616.72175588 Ry
     estimated scf accuracy    <          4.7E-11 Ry
     smearing contrib. (-TS)   =       0.00021836 Ry
     internal energy E=F+TS    =   -1616.72197424 Ry

     The total energy is F=E-TS. E is the sum of the following terms:
     one-electron contribution =   -1369.09419158 Ry
     hartree contribution      =     713.10257225 Ry
     xc contribution           =    -164.44943538 Ry
     ewald contribution        =    -545.59496913 Ry
     DFT-D3 Dispersion         =      -0.35701932 Ry
     one-center paw contrib.   =    -250.32893107 Ry

     convergence has been achieved in  13 iterations

     Forces acting on atoms (cartesian axes, Ry/au):

     atom    1 type  1   force =    -0.00043149   -0.00100546    0.00103626
     atom    2 type  1   force =     0.00049860    0.00094652    0.00203147
     atom    3 type  1   force =     0.00011611    0.00019007   -0.00122187
     atom    4 type  1   force =     0.00067065    0.00107662   -0.00142546
     atom    5 type  1   force =     0.00117316   -0.00079920   -0.00034826
     atom    6 type  1   force =     0.00045884    0.00097107    0.00051984
     atom    7 type  1   force =     0.00106884   -0.00036015    0.00003489
     atom    8 type  1   force =     0.00012425   -0.00042101   -0.00089803
     atom    9 type  2   force =    -0.00067990    0.00349510    0.00123531
     atom   10 type  3   force =     0.00205899    0.00003019   -0.00108285
     atom   11 type  3   force =    -0.00125309   -0.00014671   -0.00030562
     atom   12 type  3   force =    -0.00075126    0.00135931    0.00107744
     atom   13 type  4   force =     0.00089937   -0.00170285   -0.00021460
     atom   14 type  4   force =     0.00203789   -0.00101848    0.00113567
     atom   15 type  4   force =    -0.00198689   -0.00007500   -0.00068815
     atom   16 type  4   force =    -0.00225430    0.00003448   -0.00100905
     atom   17 type  4   force =    -0.00013446   -0.00175570   -0.00084554
     atom   18 type  4   force =     0.00249236    0.00236147   -0.00203893
     atom   19 type  4   force =    -0.00074048   -0.00123489   -0.00009976
     atom   20 type  4   force =     0.00085298    0.00060260    0.00110744
     atom   21 type  4   force =    -0.00451384    0.00226360   -0.00007913
     atom   22 type  4   force =    -0.00146083    0.00158866   -0.00259211
     atom   23 type  4   force =     0.00053769   -0.00293999    0.00186939
     atom   24 type  4   force =     0.00271307   -0.00071246    0.00308037
     atom   25 type  4   force =     0.00048264   -0.00013814   -0.00116598
     atom   26 type  4   force =    -0.00065041    0.00097702   -0.00198247
     atom   27 type  4   force =    -0.00046945   -0.00104431    0.00171739
     atom   28 type  4   force =    -0.00085906   -0.00254235    0.00115234

     Total force =     0.013219     Total SCF correction =     0.000022


     Computing stress (Cartesian axis) and pressure

          total   stress  (Ry/bohr**3)                   (kbar)     P=        4.97
   0.00004116  -0.00000654   0.00000959            6.05       -0.96        1.41
  -0.00000654   0.00002672  -0.00000330           -0.96        3.93       -0.49
   0.00000959  -0.00000330   0.00003345            1.41       -0.49        4.92

     Energy error            =      4.6E-04 Ry
     Gradient error          =      4.5E-03 Ry/Bohr
     Cell gradient error     =      6.1E+00 kbar

     number of scf cycles    =  15
     number of bfgs steps    =  14

     enthalpy           old  =   -1616.7212948302 Ry
     enthalpy           new  =   -1616.7217558807 Ry

     CASE: enthalpy          _new < enthalpy          _old

     new trust radius        =       0.0511160374 bohr
     new conv_thr            =       0.0000000005 Ry

     new unit-cell volume =   1733.32311 a.u.^3 (   256.85198 Ang^3 )
     density =      2.88066 g/cm^3

CELL_PARAMETERS (angstrom)
   7.725882285   0.061491793  -0.028166906
  -5.120233931   5.658908781  -0.049310809
  -2.318228233   0.931304270   5.830040823

ATOMIC_POSITIONS (angstrom)
Mg              -4.1623587076        5.2024693718        5.3642056041
Mg              -3.0452421383        4.6994962503        2.4704805810
Mg               3.3970547942        1.9728068861        3.3218887147
Mg               4.4796911475        1.3531230358        0.3813979159
Mg               0.8094353117        6.3277098304        4.2813109761
Mg              -0.5383798340        0.2619003715        1.4179054746
Mg              -0.4961542430        3.5263854856        4.3561210470
Mg               0.7354940279        3.1728937237        1.4181960905
Co              -1.6537716676        5.8307187313        5.2102439597
Ni              -1.8862724613        2.3826638679        2.3805000056
Ni               2.1989995686        4.2604516500        3.3449069806
Ni               1.9413428732        0.7564950818        0.4741490921
H               -0.3892064704        5.1281913722        5.7311180692
H               -0.3947044879        2.1062614373        2.6789163748
H                0.6974198834        4.5443427729        3.0970863922
H                0.6772776802        1.5936746913        0.1834627874
H                5.1181356656        1.0761672969        2.4030425644
H                4.0668514574        1.5956973662        5.2702704342
H               -3.7060711842        4.9596357657        0.4245515292
H               -4.8405234281        5.5859064609        3.3174011391
H               -2.6533075412        5.9635788832        4.0381886270
H               -2.4004326195        3.1262820320        1.1211273535
H                2.6370641822        3.5258415795        4.6466374193
H                2.8337574596        0.8458748041        1.7398543346
H                0.5332768972        1.8892490088        5.0618043347
H                2.7195841466        3.4701928068        2.1162673114
H               -2.4190639129        3.1281470308        3.6385168916
H               -0.2360147097        4.8377102139        0.6463315150



     Writing config-only to output data dir ./outdir/mg2nih4_co_nisite.save/ :
     XML data file
     NEW-OLD atomic charge density approx. for the potential
     New effective cutoffs (rho, wfc):  514.39   64.31

     Check: negative core charge=   -0.000001

     total cpu time spent up to now is     5896.8 secs

     Self-consistent Calculation

     iteration #  1     ecut=    60.00 Ry     beta= 0.30
     Davidson diagonalization with overlap
     ethr =  1.00E-06,  avg # of iterations =  4.1

     total cpu time spent up to now is     5941.2 secs

     total energy              =   -1616.72226248 Ry
     estimated scf accuracy    <       0.00064516 Ry

     iteration #  2     ecut=    60.00 Ry     beta= 0.30
     Davidson diagonalization with overlap
     ethr =  6.26E-07,  avg # of iterations =  2.0

     total cpu time spent up to now is     5963.9 secs

     total energy              =   -1616.72225164 Ry
     estimated scf accuracy    <       0.00033573 Ry

     iteration #  3     ecut=    60.00 Ry     beta= 0.30
     Davidson diagonalization with overlap
     ethr =  3.26E-07,  avg # of iterations =  2.3

     total cpu time spent up to now is     5990.4 secs

     total energy              =   -1616.72225310 Ry
     estimated scf accuracy    <       0.00060483 Ry

     iteration #  4     ecut=    60.00 Ry     beta= 0.30
     Davidson diagonalization with overlap
     ethr =  3.26E-07,  avg # of iterations =  2.2

     total cpu time spent up to now is     6014.9 secs

     total energy              =   -1616.72228142 Ry
     estimated scf accuracy    <       0.00031030 Ry

     iteration #  5     ecut=    60.00 Ry     beta= 0.30
     Davidson diagonalization with overlap
     ethr =  3.01E-07,  avg # of iterations =  1.7

     total cpu time spent up to now is     6038.9 secs

     total energy              =   -1616.72230295 Ry
     estimated scf accuracy    <       0.00001650 Ry

     iteration #  6     ecut=    60.00 Ry     beta= 0.30
     Davidson diagonalization with overlap
     ethr =  1.60E-08,  avg # of iterations =  3.0

     total cpu time spent up to now is     6068.4 secs

     total energy              =   -1616.72230428 Ry
     estimated scf accuracy    <       0.00001181 Ry

     iteration #  7     ecut=    60.00 Ry     beta= 0.30
     Davidson diagonalization with overlap
     ethr =  1.15E-08,  avg # of iterations =  1.0

     total cpu time spent up to now is     6087.6 secs

     total energy              =   -1616.72230476 Ry
     estimated scf accuracy    <       0.00000318 Ry

     iteration #  8     ecut=    60.00 Ry     beta= 0.30
     Davidson diagonalization with overlap
     ethr =  3.09E-09,  avg # of iterations =  2.0

     total cpu time spent up to now is     6111.4 secs

     total energy              =   -1616.72230520 Ry
     estimated scf accuracy    <       0.00000079 Ry

     iteration #  9     ecut=    60.00 Ry     beta= 0.30
     Davidson diagonalization with overlap
     ethr =  7.64E-10,  avg # of iterations =  4.8

     total cpu time spent up to now is     6153.3 secs

     total energy              =   -1616.72230549 Ry
     estimated scf accuracy    <       0.00000017 Ry

     iteration # 10     ecut=    60.00 Ry     beta= 0.30
     Davidson diagonalization with overlap
     ethr =  1.69E-10,  avg # of iterations =  1.4

     total cpu time spent up to now is     6175.8 secs

     total energy              =   -1616.72230551 Ry
     estimated scf accuracy    <       0.00000004 Ry

     iteration # 11     ecut=    60.00 Ry     beta= 0.30
     Davidson diagonalization with overlap
     ethr =  3.73E-11,  avg # of iterations =  2.0

     total cpu time spent up to now is     6198.7 secs

     total energy              =   -1616.72230551 Ry
     estimated scf accuracy    <          4.3E-09 Ry

     iteration # 12     ecut=    60.00 Ry     beta= 0.30
     Davidson diagonalization with overlap
     ethr =  4.20E-12,  avg # of iterations =  2.0

     total cpu time spent up to now is     6221.6 secs

     total energy              =   -1616.72230551 Ry
     estimated scf accuracy    <          4.5E-10 Ry

     iteration # 13     ecut=    60.00 Ry     beta= 0.30
     Davidson diagonalization with overlap
     ethr =  4.41E-13,  avg # of iterations =  2.0

     total cpu time spent up to now is     6244.5 secs

     End of self-consistent calculation

     Number of k-points >= 100: set verbosity='high' to print the bands.

     the Fermi energy is     5.7663 ev

!    total energy              =   -1616.72230551 Ry
     estimated scf accuracy    <          5.0E-11 Ry
     smearing contrib. (-TS)   =       0.00028898 Ry
     internal energy E=F+TS    =   -1616.72259449 Ry

     The total energy is F=E-TS. E is the sum of the following terms:
     one-electron contribution =   -1368.40529062 Ry
     hartree contribution      =     712.79003045 Ry
     xc contribution           =    -164.44859099 Ry
     ewald contribution        =    -545.97265343 Ry
     DFT-D3 Dispersion         =      -0.35736592 Ry
     one-center paw contrib.   =    -250.32872399 Ry

     convergence has been achieved in  13 iterations

     Forces acting on atoms (cartesian axes, Ry/au):

     atom    1 type  1   force =    -0.00275265   -0.00105708    0.00025030
     atom    2 type  1   force =     0.00013174    0.00129134    0.00148940
     atom    3 type  1   force =    -0.00075365    0.00105651   -0.00251302
     atom    4 type  1   force =     0.00067319    0.00127124   -0.00039783
     atom    5 type  1   force =     0.00196286    0.00075428   -0.00040974
     atom    6 type  1   force =     0.00037750    0.00042766    0.00169925
     atom    7 type  1   force =     0.00002751   -0.00263440   -0.00042658
     atom    8 type  1   force =     0.00050184    0.00017080    0.00003733
     atom    9 type  2   force =    -0.00066173    0.00342257    0.00145856
     atom   10 type  3   force =     0.00212364   -0.00063168   -0.00035316
     atom   11 type  3   force =    -0.00099518    0.00101546   -0.00115621
     atom   12 type  3   force =    -0.00067220    0.00040074    0.00058174
     atom   13 type  4   force =     0.00154374   -0.00206186   -0.00032589
     atom   14 type  4   force =     0.00209760   -0.00077470    0.00082623
     atom   15 type  4   force =    -0.00122001   -0.00005146   -0.00088401
     atom   16 type  4   force =    -0.00122339    0.00018872   -0.00084966
     atom   17 type  4   force =     0.00008877   -0.00131830   -0.00081195
     atom   18 type  4   force =     0.00173236    0.00072815   -0.00152761
     atom   19 type  4   force =    -0.00071252   -0.00144805    0.00004445
     atom   20 type  4   force =     0.00064693    0.00052785    0.00105591
     atom   21 type  4   force =    -0.00442606    0.00231574   -0.00077125
     atom   22 type  4   force =    -0.00156291    0.00143719   -0.00226879
     atom   23 type  4   force =     0.00084040   -0.00255806    0.00182609
     atom   24 type  4   force =     0.00267293   -0.00079220    0.00326773
     atom   25 type  4   force =     0.00026211    0.00006396   -0.00140238
     atom   26 type  4   force =    -0.00058639    0.00073850   -0.00097469
     atom   27 type  4   force =    -0.00009661   -0.00060529    0.00164958
     atom   28 type  4   force =    -0.00001981   -0.00187765    0.00088619

     Total force =     0.012918     Total SCF correction =     0.000017


     Computing stress (Cartesian axis) and pressure

          total   stress  (Ry/bohr**3)                   (kbar)     P=        4.66
   0.00004362  -0.00000203   0.00000767            6.42       -0.30        1.13
  -0.00000203   0.00002453  -0.00000089           -0.30        3.61       -0.13
   0.00000767  -0.00000089   0.00002684            1.13       -0.13        3.95

     Energy error            =      5.5E-04 Ry
     Gradient error          =      4.4E-03 Ry/Bohr
     Cell gradient error     =      6.4E+00 kbar

     number of scf cycles    =  16
     number of bfgs steps    =  15

     enthalpy           old  =   -1616.7217558807 Ry
     enthalpy           new  =   -1616.7223055135 Ry

     CASE: enthalpy          _new < enthalpy          _old

     new trust radius        =       0.0618161827 bohr
     new conv_thr            =       0.0000000004 Ry

     new unit-cell volume =   1736.15846 a.u.^3 (   257.27214 Ang^3 )
     density =      2.87596 g/cm^3

CELL_PARAMETERS (angstrom)
   7.730113811   0.061518959  -0.033616847
  -5.123071259   5.661939610  -0.048720317
  -2.323668986   0.928702417   5.834450091

ATOMIC_POSITIONS (angstrom)
Mg              -4.1648039732        5.1954520407        5.3775531465
Mg              -3.0442354178        4.7044523646        2.4842311477
Mg               3.4034131126        1.9713502200        3.3147572918
Mg               4.4833159807        1.3551843754        0.3675518253
Mg               0.8112289800        6.3264772695        4.2766736407
Mg              -0.5372995932        0.2599221752        1.4164558997
Mg              -0.4924024240        3.5374203274        4.3595017501
Mg               0.7301557193        3.1639041621        1.4131175450
Co              -1.6584938321        5.8383246094        5.2108830824
Ni              -1.8848454553        2.3840450328        2.3765375550
Ni               2.1955291232        4.2571452967        3.3439426237
Ni               1.9397668145        0.7634458917        0.4767284776
H               -0.3966275489        5.1373803544        5.7451036519
H               -0.3960946944        2.1011473318        2.6897457019
H                0.6932071962        4.5450207751        3.0903902699
H                0.6661917016        1.5852866447        0.1724292740
H                5.1224586320        1.0747256493        2.3927928321
H                4.0797136203        1.5965161106        5.2525495931
H               -3.7066563562        4.9659650979        0.4268624976
H               -4.8462798840        5.5833999031        3.3263988435
H               -2.6786907532        5.9840215313        4.0551392315
H               -2.4080849648        3.1309172919        1.1202080162
H                2.6329575709        3.5155699986        4.6440004495
H                2.8424930649        0.8410397571        1.7391281155
H                0.5254350770        1.8879816873        5.0654006868
H                2.7168127431        3.4776244504        2.1064606558
H               -2.4245281475        3.1156124825        3.6421621121
H               -0.2364063680        4.8309209714        0.6428750658



     Writing config-only to output data dir ./outdir/mg2nih4_co_nisite.save/ :
     XML data file
     NEW-OLD atomic charge density approx. for the potential
     New effective cutoffs (rho, wfc):  514.11   64.28

     Check: negative core charge=   -0.000001

     total cpu time spent up to now is     6258.0 secs

     Self-consistent Calculation

     iteration #  1     ecut=    60.00 Ry     beta= 0.30
     Davidson diagonalization with overlap
     ethr =  1.00E-06,  avg # of iterations =  4.2

     total cpu time spent up to now is     6304.9 secs

     total energy              =   -1616.72272860 Ry
     estimated scf accuracy    <       0.00078564 Ry

     iteration #  2     ecut=    60.00 Ry     beta= 0.30
     Davidson diagonalization with overlap
     ethr =  7.63E-07,  avg # of iterations =  2.1

     total cpu time spent up to now is     6329.1 secs

     total energy              =   -1616.72268436 Ry
     estimated scf accuracy    <       0.00066877 Ry

     iteration #  3     ecut=    60.00 Ry     beta= 0.30
     Davidson diagonalization with overlap
     ethr =  6.49E-07,  avg # of iterations =  2.1

     total cpu time spent up to now is     6353.8 secs

     total energy              =   -1616.72270588 Ry
     estimated scf accuracy    <       0.00108423 Ry

     iteration #  4     ecut=    60.00 Ry     beta= 0.30
     Davidson diagonalization with overlap
     ethr =  6.49E-07,  avg # of iterations =  2.1

     total cpu time spent up to now is     6377.8 secs

     total energy              =   -1616.72275958 Ry
     estimated scf accuracy    <       0.00029260 Ry

     iteration #  5     ecut=    60.00 Ry     beta= 0.30
     Davidson diagonalization with overlap
     ethr =  2.84E-07,  avg # of iterations =  1.9

     total cpu time spent up to now is     6402.4 secs

     total energy              =   -1616.72278131 Ry
     estimated scf accuracy    <       0.00002049 Ry

     iteration #  6     ecut=    60.00 Ry     beta= 0.30
     Davidson diagonalization with overlap
     ethr =  1.99E-08,  avg # of iterations =  2.5

     total cpu time spent up to now is     6430.6 secs

     total energy              =   -1616.72278323 Ry
     estimated scf accuracy    <       0.00000796 Ry

     iteration #  7     ecut=    60.00 Ry     beta= 0.30
     Davidson diagonalization with overlap
     ethr =  7.73E-09,  avg # of iterations =  1.7

     total cpu time spent up to now is     6454.3 secs

     total energy              =   -1616.72278360 Ry
     estimated scf accuracy    <       0.00000353 Ry

     iteration #  8     ecut=    60.00 Ry     beta= 0.30
     Davidson diagonalization with overlap
     ethr =  3.43E-09,  avg # of iterations =  2.0

     total cpu time spent up to now is     6476.8 secs

     total energy              =   -1616.72278402 Ry
     estimated scf accuracy    <       0.00000039 Ry

     iteration #  9     ecut=    60.00 Ry     beta= 0.30
     Davidson diagonalization with overlap
     ethr =  3.76E-10,  avg # of iterations =  4.0

     total cpu time spent up to now is     6519.0 secs

     total energy              =   -1616.72278434 Ry
     estimated scf accuracy    <       0.00000027 Ry

     iteration # 10     ecut=    60.00 Ry     beta= 0.30
     Davidson diagonalization with overlap
     ethr =  2.67E-10,  avg # of iterations =  1.3

     total cpu time spent up to now is     6541.1 secs

     total energy              =   -1616.72278436 Ry
     estimated scf accuracy    <       0.00000003 Ry

     iteration # 11     ecut=    60.00 Ry     beta= 0.30
     Davidson diagonalization with overlap
     ethr =  3.06E-11,  avg # of iterations =  2.0

     total cpu time spent up to now is     6564.9 secs

     total energy              =   -1616.72278437 Ry
     estimated scf accuracy    <          7.7E-09 Ry

     iteration # 12     ecut=    60.00 Ry     beta= 0.30
     Davidson diagonalization with overlap
     ethr =  7.49E-12,  avg # of iterations =  2.0

     total cpu time spent up to now is     6588.9 secs

     total energy              =   -1616.72278437 Ry
     estimated scf accuracy    <          5.8E-10 Ry

     iteration # 13     ecut=    60.00 Ry     beta= 0.30
     Davidson diagonalization with overlap
     ethr =  5.67E-13,  avg # of iterations =  2.5

     total cpu time spent up to now is     6615.6 secs

     End of self-consistent calculation

     Number of k-points >= 100: set verbosity='high' to print the bands.

     the Fermi energy is     5.7560 ev

!    total energy              =   -1616.72278437 Ry
     estimated scf accuracy    <          7.8E-11 Ry
     smearing contrib. (-TS)   =       0.00036650 Ry
     internal energy E=F+TS    =   -1616.72315087 Ry

     The total energy is F=E-TS. E is the sum of the following terms:
     one-electron contribution =   -1368.49916514 Ry
     hartree contribution      =     712.79200044 Ry
     xc contribution           =    -164.42606253 Ry
     ewald contribution        =    -545.90711375 Ry
     DFT-D3 Dispersion         =      -0.35682811 Ry
     one-center paw contrib.   =    -250.32598178 Ry

     convergence has been achieved in  13 iterations

     Forces acting on atoms (cartesian axes, Ry/au):

     atom    1 type  1   force =    -0.00436207   -0.00072527   -0.00057773
     atom    2 type  1   force =    -0.00021567    0.00142607    0.00099157
     atom    3 type  1   force =    -0.00148843    0.00163576   -0.00316305
     atom    4 type  1   force =     0.00061484    0.00100085    0.00057689
     atom    5 type  1   force =     0.00213880    0.00206647   -0.00023784
     atom    6 type  1   force =     0.00011043   -0.00012125    0.00238937
     atom    7 type  1   force =    -0.00105679   -0.00442479   -0.00076228
     atom    8 type  1   force =     0.00103196    0.00111182    0.00072294
     atom    9 type  2   force =    -0.00070942    0.00229247    0.00088668
     atom   10 type  3   force =     0.00161964   -0.00079279    0.00027839
     atom   11 type  3   force =    -0.00054405    0.00167491   -0.00115731
     atom   12 type  3   force =    -0.00016996   -0.00055790    0.00036292
     atom   13 type  4   force =     0.00099189   -0.00189169   -0.00112081
     atom   14 type  4   force =     0.00153440   -0.00034975    0.00021747
     atom   15 type  4   force =    -0.00003757   -0.00017881   -0.00079108
     atom   16 type  4   force =     0.00049935    0.00014763   -0.00030914
     atom   17 type  4   force =     0.00053231   -0.00040860   -0.00072012
     atom   18 type  4   force =     0.00092544   -0.00090389   -0.00100385
     atom   19 type  4   force =    -0.00047071   -0.00116753    0.00018854
     atom   20 type  4   force =     0.00034564    0.00028717    0.00097271
     atom   21 type  4   force =    -0.00315259    0.00233124   -0.00038613
     atom   22 type  4   force =    -0.00131223    0.00073939   -0.00099890
     atom   23 type  4   force =     0.00082466   -0.00152153    0.00070459
     atom   24 type  4   force =     0.00188994   -0.00097669    0.00234336
     atom   25 type  4   force =    -0.00019125    0.00025452   -0.00105708
     atom   26 type  4   force =    -0.00059411    0.00058599    0.00019534
     atom   27 type  4   force =     0.00050230   -0.00027449    0.00097162
     atom   28 type  4   force =     0.00074325   -0.00125931    0.00048292

     Total force =     0.012115     Total SCF correction =     0.000031


     Computing stress (Cartesian axis) and pressure

          total   stress  (Ry/bohr**3)                   (kbar)     P=        1.82
   0.00002513   0.00000282   0.00000227            3.70        0.41        0.33
   0.00000282   0.00000819   0.00000243            0.41        1.21        0.36
   0.00000227   0.00000243   0.00000381            0.33        0.36        0.56

     Energy error            =      4.8E-04 Ry
     Gradient error          =      4.4E-03 Ry/Bohr
     Cell gradient error     =      3.7E+00 kbar

     number of scf cycles    =  17
     number of bfgs steps    =  16

     enthalpy           old  =   -1616.7223055135 Ry
     enthalpy           new  =   -1616.7227843665 Ry

     CASE: enthalpy          _new < enthalpy          _old

     new trust radius        =       0.0313384810 bohr
     new conv_thr            =       0.0000000004 Ry

     new unit-cell volume =   1740.00729 a.u.^3 (   257.84248 Ang^3 )
     density =      2.86960 g/cm^3

CELL_PARAMETERS (angstrom)
   7.738467714   0.062856720  -0.036560899
  -5.127691605   5.665017552  -0.047224360
  -2.328210517   0.928533124   5.837847110

ATOMIC_POSITIONS (angstrom)
Mg              -4.1719823611        5.1944175520        5.3853633496
Mg              -3.0459515516        4.7094955012        2.4922346540
Mg               3.4084757434        1.9740433440        3.3099126229
Mg               4.4890816086        1.3583136519        0.3619590723
Mg               0.8151952982        6.3312340139        4.2760404872
Mg              -0.5370341963        0.2592851788        1.4179247909
Mg              -0.4915481076        3.5416606270        4.3619552607
Mg               0.7293882163        3.1620095681        1.4123432843
Co              -1.6617300834        5.8466527967        5.2140447555
Ni              -1.8847894657        2.3851740957        2.3762364536
Ni               2.1962410086        4.2597412949        3.3436445870
Ni               1.9407173512        0.7666651329        0.4779560353
H               -0.3993705641        5.1437542774        5.7525072839
H               -0.3961976214        2.1000675063        2.6955362967
H                0.6927487854        4.5479193390        3.0881819224
H                0.6625642964        1.5823419525        0.1675646414
H                5.1292190329        1.0758768721        2.3879956316
H                4.0893718375        1.5983085840        5.2449707314
H               -3.7094405999        4.9701416583        0.4291881227
H               -4.8521355256        5.5844101595        3.3329653142
H               -2.6932180366        5.9974636706        4.0647592836
H               -2.4137634609        3.1344817593        1.1203934065
H                2.6340336589        3.5130252166        4.6441834448
H                2.8497765047        0.8393698105        1.7401731691
H                0.5221656311        1.8893152747        5.0678901654
H                2.7178415345        3.4837886500        2.1032107616
H               -2.4282870993        3.1112980828        3.6454680799
H               -0.2354535537        4.8294479829        0.6422622966



     Writing config-only to output data dir ./outdir/mg2nih4_co_nisite.save/ :
     XML data file
     NEW-OLD atomic charge density approx. for the potential
     New effective cutoffs (rho, wfc):  513.47   64.20

     Check: negative core charge=   -0.000001

     total cpu time spent up to now is     6628.8 secs

     Self-consistent Calculation

     iteration #  1     ecut=    60.00 Ry     beta= 0.30
     Davidson diagonalization with overlap
     ethr =  1.00E-06,  avg # of iterations =  4.1

     total cpu time spent up to now is     6673.5 secs

     total energy              =   -1616.72294983 Ry
     estimated scf accuracy    <       0.00033565 Ry

     iteration #  2     ecut=    60.00 Ry     beta= 0.30
     Davidson diagonalization with overlap
     ethr =  3.26E-07,  avg # of iterations =  3.0

     total cpu time spent up to now is     6702.2 secs

     total energy              =   -1616.72292238 Ry
     estimated scf accuracy    <       0.00106924 Ry

     iteration #  3     ecut=    60.00 Ry     beta= 0.30
     Davidson diagonalization with overlap
     ethr =  3.26E-07,  avg # of iterations =  2.2

     total cpu time spent up to now is     6728.2 secs

     total energy              =   -1616.72300141 Ry
     estimated scf accuracy    <       0.00020590 Ry

     iteration #  4     ecut=    60.00 Ry     beta= 0.30
     Davidson diagonalization with overlap
     ethr =  2.00E-07,  avg # of iterations =  2.1

     total cpu time spent up to now is     6752.3 secs

     total energy              =   -1616.72301427 Ry
     estimated scf accuracy    <       0.00010825 Ry

     iteration #  5     ecut=    60.00 Ry     beta= 0.30
     Davidson diagonalization with overlap
     ethr =  1.05E-07,  avg # of iterations =  1.3

     total cpu time spent up to now is     6774.7 secs

     total energy              =   -1616.72302041 Ry
     estimated scf accuracy    <       0.00000532 Ry

     iteration #  6     ecut=    60.00 Ry     beta= 0.30
     Davidson diagonalization with overlap
     ethr =  5.16E-09,  avg # of iterations =  3.0

     total cpu time spent up to now is     6804.0 secs

     total energy              =   -1616.72302121 Ry
     estimated scf accuracy    <       0.00000325 Ry

     iteration #  7     ecut=    60.00 Ry     beta= 0.30
     Davidson diagonalization with overlap
     ethr =  3.15E-09,  avg # of iterations =  1.0

     total cpu time spent up to now is     6822.7 secs

     total energy              =   -1616.72302127 Ry
     estimated scf accuracy    <       0.00000109 Ry

     iteration #  8     ecut=    60.00 Ry     beta= 0.30
     Davidson diagonalization with overlap
     ethr =  1.06E-09,  avg # of iterations =  2.0

     total cpu time spent up to now is     6845.7 secs

     total energy              =   -1616.72302141 Ry
     estimated scf accuracy    <       0.00000015 Ry

     iteration #  9     ecut=    60.00 Ry     beta= 0.30
     Davidson diagonalization with overlap
     ethr =  1.43E-10,  avg # of iterations =  4.8

     total cpu time spent up to now is     6891.0 secs

     total energy              =   -1616.72302149 Ry
     estimated scf accuracy    <       0.00000005 Ry

     iteration # 10     ecut=    60.00 Ry     beta= 0.30
     Davidson diagonalization with overlap
     ethr =  4.99E-11,  avg # of iterations =  1.4

     total cpu time spent up to now is     6913.7 secs

     total energy              =   -1616.72302150 Ry
     estimated scf accuracy    <       0.00000002 Ry

     iteration # 11     ecut=    60.00 Ry     beta= 0.30
     Davidson diagonalization with overlap
     ethr =  1.80E-11,  avg # of iterations =  2.0

     total cpu time spent up to now is     6936.4 secs

     total energy              =   -1616.72302150 Ry
     estimated scf accuracy    <          1.1E-09 Ry

     iteration # 12     ecut=    60.00 Ry     beta= 0.30
     Davidson diagonalization with overlap
     ethr =  1.09E-12,  avg # of iterations =  2.0

     total cpu time spent up to now is     6959.8 secs

     End of self-consistent calculation

     Number of k-points >= 100: set verbosity='high' to print the bands.

     the Fermi energy is     5.7407 ev

!    total energy              =   -1616.72302150 Ry
     estimated scf accuracy    <          2.3E-10 Ry
     smearing contrib. (-TS)   =       0.00039581 Ry
     internal energy E=F+TS    =   -1616.72341731 Ry

     The total energy is F=E-TS. E is the sum of the following terms:
     one-electron contribution =   -1369.04832378 Ry
     hartree contribution      =     713.00206441 Ry
     xc contribution           =    -164.40493053 Ry
     ewald contribution        =    -545.59276581 Ry
     DFT-D3 Dispersion         =      -0.35608262 Ry
     one-center paw contrib.   =    -250.32337898 Ry

     convergence has been achieved in  12 iterations

     Forces acting on atoms (cartesian axes, Ry/au):

     atom    1 type  1   force =    -0.00405797   -0.00025653   -0.00073876
     atom    2 type  1   force =    -0.00024009    0.00128433    0.00087012
     atom    3 type  1   force =    -0.00156050    0.00152376   -0.00275924
     atom    4 type  1   force =     0.00053495    0.00048385    0.00078338
     atom    5 type  1   force =     0.00149933    0.00223389    0.00003876
     atom    6 type  1   force =    -0.00014029   -0.00032498    0.00206182
     atom    7 type  1   force =    -0.00140853   -0.00432325   -0.00077370
     atom    8 type  1   force =     0.00124852    0.00159563    0.00069864
     atom    9 type  2   force =    -0.00073171    0.00080218    0.00003448
     atom   10 type  3   force =     0.00095365   -0.00043338    0.00035884
     atom   11 type  3   force =    -0.00024656    0.00142977   -0.00042329
     atom   12 type  3   force =     0.00041552   -0.00088829    0.00052428
     atom   13 type  4   force =     0.00008988   -0.00145209   -0.00178375
     atom   14 type  4   force =     0.00095935   -0.00008100   -0.00021800
     atom   15 type  4   force =     0.00052471   -0.00028049   -0.00051024
     atom   16 type  4   force =     0.00144028    0.00009535    0.00015364
     atom   17 type  4   force =     0.00081208    0.00020141   -0.00060320
     atom   18 type  4   force =     0.00068362   -0.00133720   -0.00084616
     atom   19 type  4   force =    -0.00024828   -0.00073016    0.00026232
     atom   20 type  4   force =     0.00018616    0.00019727    0.00090065
     atom   21 type  4   force =    -0.00201164    0.00233718    0.00033960
     atom   22 type  4   force =    -0.00097972    0.00014169    0.00007110
     atom   23 type  4   force =     0.00060202   -0.00069046   -0.00038102
     atom   24 type  4   force =     0.00109084   -0.00110596    0.00120021
     atom   25 type  4   force =    -0.00045527    0.00026906   -0.00051142
     atom   26 type  4   force =    -0.00055825    0.00054560    0.00057422
     atom   27 type  4   force =     0.00080250   -0.00018050    0.00039868
     atom   28 type  4   force =     0.00079538   -0.00105671    0.00027804

     Total force =     0.010518     Total SCF correction =     0.000035


     Computing stress (Cartesian axis) and pressure

          total   stress  (Ry/bohr**3)                   (kbar)     P=       -0.69
   0.00000487   0.00000406  -0.00000165            0.72        0.60       -0.24
   0.00000406  -0.00000583   0.00000354            0.60       -0.86        0.52
  -0.00000165   0.00000354  -0.00001312           -0.24        0.52       -1.93

     Energy error            =      2.4E-04 Ry
     Gradient error          =      4.3E-03 Ry/Bohr
     Cell gradient error     =      1.9E+00 kbar

     number of scf cycles    =  18
     number of bfgs steps    =  17

     enthalpy           old  =   -1616.7227843665 Ry
     enthalpy           new  =   -1616.7230214996 Ry

     CASE: enthalpy          _new < enthalpy          _old

     new trust radius        =       0.0275959453 bohr
     new conv_thr            =       0.0000000002 Ry

     new unit-cell volume =   1742.94772 a.u.^3 (   258.27820 Ang^3 )
     density =      2.86475 g/cm^3

CELL_PARAMETERS (angstrom)
   7.747776194   0.065187849  -0.039277824
  -5.132224751   5.666255642  -0.044905969
  -2.332701038   0.928868212   5.838760177

ATOMIC_POSITIONS (angstrom)
Mg              -4.1819901414        5.1933583011        5.3898693220
Mg              -3.0480185529        4.7140028646        2.4988945053
Mg               3.4124395950        1.9784627323        3.3028253644
Mg               4.4957546638        1.3619078930        0.3583011206
Mg               0.8206595062        6.3373509050        4.2749767373
Mg              -0.5371741272        0.2586582289        1.4204574868
Mg              -0.4920453107        3.5416076089        4.3623042458
Mg               0.7306044087        3.1620840547        1.4123741555
Co              -1.6647580625        5.8539251357        5.2157941738
Ni              -1.8844494744        2.3855793917        2.3760925064
Ni               2.1980060321        4.2636875692        3.3423114436
Ni               1.9426374157        0.7686283718        0.4790803465
H               -0.4008079649        5.1478863688        5.7554353553
H               -0.3953687374        2.0995099910        2.6990754380
H                0.6936498494        4.5503602768        3.0857052684
H                0.6615652428        1.5804245369        0.1642023475
H                5.1369896844        1.0780865351        2.3829473321
H                4.0986847634        1.6000061319        5.2369309975
H               -3.7124527004        4.9718624117        0.4320060326
H               -4.8575227048        5.5848773744        3.3386548119
H               -2.7060183474        6.0092552427        4.0717168675
H               -2.4193216502        3.1369324418        1.1207908910
H                2.6367339210        3.5116373476        4.6428935826
H                2.8572881643        0.8379640045        1.7413883667
H                0.5196510039        1.8913284706        5.0678353302
H                2.7197131586        3.4894598001        2.1008896993
H               -2.4311019738        3.1080558399        3.6477389884
H               -0.2334419883        4.8274640123        0.6425766477



     Writing config-only to output data dir ./outdir/mg2nih4_co_nisite.save/ :
     XML data file
     NEW-OLD atomic charge density approx. for the potential
     New effective cutoffs (rho, wfc):  513.01   64.15

     Check: negative core charge=   -0.000001

     total cpu time spent up to now is     6973.2 secs

     Self-consistent Calculation

     iteration #  1     ecut=    60.00 Ry     beta= 0.30
     Davidson diagonalization with overlap
     ethr =  1.00E-06,  avg # of iterations =  3.5

     total cpu time spent up to now is     7016.8 secs

     total energy              =   -1616.72318947 Ry
     estimated scf accuracy    <       0.00025600 Ry

     iteration #  2     ecut=    60.00 Ry     beta= 0.30
     Davidson diagonalization with overlap
     ethr =  2.49E-07,  avg # of iterations =  2.9

     total cpu time spent up to now is     7047.1 secs

     total energy              =   -1616.72316102 Ry
     estimated scf accuracy    <       0.00090365 Ry

     iteration #  3     ecut=    60.00 Ry     beta= 0.30
     Davidson diagonalization with overlap
     ethr =  2.49E-07,  avg # of iterations =  2.8

     total cpu time spent up to now is     7078.1 secs

     total energy              =   -1616.72322713 Ry
     estimated scf accuracy    <       0.00015698 Ry

     iteration #  4     ecut=    60.00 Ry     beta= 0.30
     Davidson diagonalization with overlap
     ethr =  1.52E-07,  avg # of iterations =  2.1

     total cpu time spent up to now is     7102.5 secs

     total energy              =   -1616.72323632 Ry
     estimated scf accuracy    <       0.00007749 Ry

     iteration #  5     ecut=    60.00 Ry     beta= 0.30
     Davidson diagonalization with overlap
     ethr =  7.52E-08,  avg # of iterations =  1.6

     total cpu time spent up to now is     7127.3 secs

     total energy              =   -1616.72324112 Ry
     estimated scf accuracy    <       0.00000404 Ry

     iteration #  6     ecut=    60.00 Ry     beta= 0.30
     Davidson diagonalization with overlap
     ethr =  3.92E-09,  avg # of iterations =  3.0

     total cpu time spent up to now is     7156.5 secs

     total energy              =   -1616.72324163 Ry
     estimated scf accuracy    <       0.00000227 Ry

     iteration #  7     ecut=    60.00 Ry     beta= 0.30
     Davidson diagonalization with overlap
     ethr =  2.20E-09,  avg # of iterations =  1.9

     total cpu time spent up to now is     7180.1 secs

     total energy              =   -1616.72324184 Ry
     estimated scf accuracy    <       0.00000024 Ry

     iteration #  8     ecut=    60.00 Ry     beta= 0.30
     Davidson diagonalization with overlap
     ethr =  2.37E-10,  avg # of iterations =  4.1

     total cpu time spent up to now is     7219.5 secs

     total energy              =   -1616.72324194 Ry
     estimated scf accuracy    <       0.00000028 Ry

     iteration #  9     ecut=    60.00 Ry     beta= 0.30
     Davidson diagonalization with overlap
     ethr =  2.37E-10,  avg # of iterations =  1.1

     total cpu time spent up to now is     7238.8 secs

     total energy              =   -1616.72324196 Ry
     estimated scf accuracy    <          7.2E-09 Ry

     iteration # 10     ecut=    60.00 Ry     beta= 0.30
     Davidson diagonalization with overlap
     ethr =  6.98E-12,  avg # of iterations =  3.0

     total cpu time spent up to now is     7269.4 secs

     total energy              =   -1616.72324196 Ry
     estimated scf accuracy    <       0.00000002 Ry

     iteration # 11     ecut=    60.00 Ry     beta= 0.30
     Davidson diagonalization with overlap
     ethr =  6.98E-12,  avg # of iterations =  2.0

     total cpu time spent up to now is     7293.4 secs

     total energy              =   -1616.72324197 Ry
     estimated scf accuracy    <          1.3E-09 Ry

     iteration # 12     ecut=    60.00 Ry     beta= 0.30
     Davidson diagonalization with overlap
     ethr =  1.24E-12,  avg # of iterations =  1.3

     total cpu time spent up to now is     7315.6 secs

     End of self-consistent calculation

     Number of k-points >= 100: set verbosity='high' to print the bands.

     the Fermi energy is     5.7316 ev

!    total energy              =   -1616.72324197 Ry
     estimated scf accuracy    <          1.7E-10 Ry
     smearing contrib. (-TS)   =       0.00041176 Ry
     internal energy E=F+TS    =   -1616.72365373 Ry

     The total energy is F=E-TS. E is the sum of the following terms:
     one-electron contribution =   -1369.48089257 Ry
     hartree contribution      =     713.16870197 Ry
     xc contribution           =    -164.38904848 Ry
     ewald contribution        =    -545.34547023 Ry
     DFT-D3 Dispersion         =      -0.35551252 Ry
     one-center paw contrib.   =    -250.32143190 Ry

     convergence has been achieved in  12 iterations

     Forces acting on atoms (cartesian axes, Ry/au):

     atom    1 type  1   force =    -0.00277484    0.00031637   -0.00049439
     atom    2 type  1   force =    -0.00006654    0.00097601    0.00090285
     atom    3 type  1   force =    -0.00129476    0.00106563   -0.00184898
     atom    4 type  1   force =     0.00039884   -0.00017971    0.00064028
     atom    5 type  1   force =     0.00034688    0.00186707    0.00038131
     atom    6 type  1   force =    -0.00036849   -0.00034252    0.00121056
     atom    7 type  1   force =    -0.00139134   -0.00322376   -0.00066938
     atom    8 type  1   force =     0.00125544    0.00175260    0.00039190
     atom    9 type  2   force =    -0.00066522   -0.00094976   -0.00096349
     atom   10 type  3   force =     0.00013852    0.00014818    0.00025850
     atom   11 type  3   force =     0.00002792    0.00082787    0.00055431
     atom   12 type  3   force =     0.00101032   -0.00098892    0.00078339
     atom   13 type  4   force =    -0.00089994   -0.00093552   -0.00241286
     atom   14 type  4   force =     0.00038426    0.00013990   -0.00063808
     atom   15 type  4   force =     0.00073668   -0.00031083   -0.00011835
     atom   16 type  4   force =     0.00203564    0.00011055    0.00062162
     atom   17 type  4   force =     0.00100742    0.00064410   -0.00043219
     atom   18 type  4   force =     0.00063748   -0.00132398   -0.00081870
     atom   19 type  4   force =    -0.00005038   -0.00023087    0.00034254
     atom   20 type  4   force =     0.00006709    0.00024408    0.00081319
     atom   21 type  4   force =    -0.00096120    0.00235236    0.00112318
     atom   22 type  4   force =    -0.00064410   -0.00038353    0.00102239
     atom   23 type  4   force =     0.00033742    0.00003539   -0.00133350
     atom   24 type  4   force =     0.00032058   -0.00122545   -0.00005440
     atom   25 type  4   force =    -0.00058018    0.00014926    0.00013056
     atom   26 type  4   force =    -0.00042051    0.00053600    0.00055692
     atom   27 type  4   force =     0.00092809   -0.00012465   -0.00006904
     atom   28 type  4   force =     0.00048493   -0.00094586    0.00011982

     Total force =     0.008961     Total SCF correction =     0.000025


     Computing stress (Cartesian axis) and pressure

          total   stress  (Ry/bohr**3)                   (kbar)     P=       -2.71
  -0.00001460   0.00000337  -0.00000492           -2.15        0.50       -0.72
   0.00000337  -0.00001617   0.00000335            0.50       -2.38        0.49
  -0.00000492   0.00000335  -0.00002441           -0.72        0.49       -3.59

     Energy error            =      2.2E-04 Ry
     Gradient error          =      3.2E-03 Ry/Bohr
     Cell gradient error     =      3.6E+00 kbar

     number of scf cycles    =  19
     number of bfgs steps    =  18

     enthalpy           old  =   -1616.7230214996 Ry
     enthalpy           new  =   -1616.7232419661 Ry

     CASE: enthalpy          _new < enthalpy          _old

     new trust radius        =       0.0312366332 bohr
     new conv_thr            =       0.0000000002 Ry

     new unit-cell volume =   1742.86898 a.u.^3 (   258.26654 Ang^3 )
     density =      2.86488 g/cm^3

CELL_PARAMETERS (angstrom)
   7.754034098   0.067854784  -0.042417082
  -5.134481067   5.663990414  -0.041990691
  -2.336542450   0.928850204   5.835396429

ATOMIC_POSITIONS (angstrom)
Mg              -4.1923514589        5.1895952342        5.3903468091
Mg              -3.0487719222        4.7165849677        2.5048278914
Mg               3.4138309544        1.9827426886        3.2919105441
Mg               4.5011427225        1.3647772089        0.3545018305
Mg               0.8259452037        6.3413082388        4.2712613680
Mg              -0.5375947626        0.2576750930        1.4227584569
Mg              -0.4935170595        3.5372599537        4.3590917243
Mg               0.7326996899        3.1620894074        1.4114612804
Co              -1.6677329651        5.8572424421        5.2130837490
Ni              -1.8829911524        2.3848843188        2.3743108065
Ni               2.1987173429        4.2659917097        3.3390858095
Ni               1.9445110223        0.7697198421        0.4805719791
H               -0.4025735686        5.1482730282        5.7523121225
H               -0.3937601333        2.0979217443        2.7001715441
H                0.6945189122        4.5501762690        3.0809645019
H                0.6617493104        1.5779912878        0.1612471867
H                5.1432712710        1.0802082478        2.3755551214
H                4.1067362215        1.6006375984        5.2241843539
H               -3.7140109765        4.9699788508        0.4351645109
H               -4.8606766264        5.5826014076        3.3428947926
H               -2.7187266946        6.0194032589        4.0763321369
H               -2.4244958111        3.1374109448        1.1209928474
H                2.6387153198        3.5084243047        4.6374837186
H                2.8641041562        0.8353978489        1.7415993992
H                0.5164898592        1.8926531690        5.0637378324
H                2.7203005962        3.4936768568        2.0971322160
H               -2.4324009414        3.1032014452        3.6477919551
H               -0.2309803670        4.8219082588        0.6430646993



     Writing config-only to output data dir ./outdir/mg2nih4_co_nisite.save/ :
     XML data file
     NEW-OLD atomic charge density approx. for the potential
     New effective cutoffs (rho, wfc):  513.14   64.17

     Check: negative core charge=   -0.000001

     total cpu time spent up to now is     7329.2 secs

     Self-consistent Calculation

     iteration #  1     ecut=    60.00 Ry     beta= 0.30
     Davidson diagonalization with overlap
     ethr =  1.00E-06,  avg # of iterations =  3.5

     total cpu time spent up to now is     7372.6 secs

     total energy              =   -1616.72345823 Ry
     estimated scf accuracy    <       0.00017307 Ry

     iteration #  2     ecut=    60.00 Ry     beta= 0.30
     Davidson diagonalization with overlap
     ethr =  1.68E-07,  avg # of iterations =  2.3

     total cpu time spent up to now is     7398.9 secs

     total energy              =   -1616.72343709 Ry
     estimated scf accuracy    <       0.00034577 Ry

     iteration #  3     ecut=    60.00 Ry     beta= 0.30
     Davidson diagonalization with overlap
     ethr =  1.68E-07,  avg # of iterations =  3.0

     total cpu time spent up to now is     7426.6 secs

     total energy              =   -1616.72346428 Ry
     estimated scf accuracy    <       0.00015821 Ry

     iteration #  4     ecut=    60.00 Ry     beta= 0.30
     Davidson diagonalization with overlap
     ethr =  1.54E-07,  avg # of iterations =  1.0

     total cpu time spent up to now is     7445.9 secs

     total energy              =   -1616.72347116 Ry
     estimated scf accuracy    <       0.00000968 Ry

     iteration #  5     ecut=    60.00 Ry     beta= 0.30
     Davidson diagonalization with overlap
     ethr =  9.40E-09,  avg # of iterations =  3.0

     total cpu time spent up to now is     7476.3 secs

     total energy              =   -1616.72347212 Ry
     estimated scf accuracy    <       0.00001099 Ry

     iteration #  6     ecut=    60.00 Ry     beta= 0.30
     Davidson diagonalization with overlap
     ethr =  9.40E-09,  avg # of iterations =  2.0

     total cpu time spent up to now is     7501.9 secs

     total energy              =   -1616.72347292 Ry
     estimated scf accuracy    <       0.00000127 Ry

     iteration #  7     ecut=    60.00 Ry     beta= 0.30
     Davidson diagonalization with overlap
     ethr =  1.24E-09,  avg # of iterations =  2.2

     total cpu time spent up to now is     7528.8 secs

     total energy              =   -1616.72347308 Ry
     estimated scf accuracy    <       0.00000075 Ry

     iteration #  8     ecut=    60.00 Ry     beta= 0.30
     Davidson diagonalization with overlap
     ethr =  7.27E-10,  avg # of iterations =  2.1

     total cpu time spent up to now is     7554.1 secs

     total energy              =   -1616.72347316 Ry
     estimated scf accuracy    <       0.00000014 Ry

     iteration #  9     ecut=    60.00 Ry     beta= 0.30
     Davidson diagonalization with overlap
     ethr =  1.34E-10,  avg # of iterations =  4.1

     total cpu time spent up to now is     7593.8 secs

     total energy              =   -1616.72347324 Ry
     estimated scf accuracy    <       0.00000001 Ry

     iteration # 10     ecut=    60.00 Ry     beta= 0.30
     Davidson diagonalization with overlap
     ethr =  1.09E-11,  avg # of iterations =  1.4

     total cpu time spent up to now is     7617.1 secs

     total energy              =   -1616.72347324 Ry
     estimated scf accuracy    <          8.1E-10 Ry

     iteration # 11     ecut=    60.00 Ry     beta= 0.30
     Davidson diagonalization with overlap
     ethr =  7.84E-13,  avg # of iterations =  3.0

     total cpu time spent up to now is     7646.5 secs

     total energy              =   -1616.72347324 Ry
     estimated scf accuracy    <          2.0E-09 Ry

     iteration # 12     ecut=    60.00 Ry     beta= 0.30
     Davidson diagonalization with overlap
     ethr =  7.84E-13,  avg # of iterations =  2.0

     total cpu time spent up to now is     7669.7 secs

     total energy              =   -1616.72347324 Ry
     estimated scf accuracy    <          2.2E-10 Ry

     iteration # 13     ecut=    60.00 Ry     beta= 0.30
     Davidson diagonalization with overlap
     ethr =  2.17E-13,  avg # of iterations =  2.0

     total cpu time spent up to now is     7692.7 secs

     End of self-consistent calculation

     Number of k-points >= 100: set verbosity='high' to print the bands.

     the Fermi energy is     5.7395 ev

!    total energy              =   -1616.72347324 Ry
     estimated scf accuracy    <          1.9E-11 Ry
     smearing contrib. (-TS)   =       0.00042491 Ry
     internal energy E=F+TS    =   -1616.72389815 Ry

     The total energy is F=E-TS. E is the sum of the following terms:
     one-electron contribution =   -1369.33163989 Ry
     hartree contribution      =     713.09728973 Ry
     xc contribution           =    -164.38649414 Ry
     ewald contribution        =    -545.42636218 Ry
     DFT-D3 Dispersion         =      -0.35552893 Ry
     one-center paw contrib.   =    -250.32116274 Ry

     convergence has been achieved in  13 iterations

     Forces acting on atoms (cartesian axes, Ry/au):

     atom    1 type  1   force =    -0.00105259    0.00084759    0.00005767
     atom    2 type  1   force =     0.00025472    0.00057717    0.00102827
     atom    3 type  1   force =    -0.00085151    0.00044054   -0.00078972
     atom    4 type  1   force =     0.00018992   -0.00081616    0.00030570
     atom    5 type  1   force =    -0.00101192    0.00120474    0.00069633
     atom    6 type  1   force =    -0.00050215   -0.00019975    0.00016142
     atom    7 type  1   force =    -0.00107835   -0.00154512   -0.00052719
     atom    8 type  1   force =     0.00103663    0.00149877    0.00004270
     atom    9 type  2   force =    -0.00053922   -0.00240469   -0.00180543
     atom   10 type  3   force =    -0.00059846    0.00069830    0.00012448
     atom   11 type  3   force =     0.00026597    0.00016898    0.00126538
     atom   12 type  3   force =     0.00138772   -0.00094733    0.00093535
     atom   13 type  4   force =    -0.00153153   -0.00058656   -0.00284993
     atom   14 type  4   force =    -0.00006905    0.00031194   -0.00103110
     atom   15 type  4   force =     0.00058891   -0.00020839    0.00028136
     atom   16 type  4   force =     0.00228954    0.00025293    0.00103785
     atom   17 type  4   force =     0.00107286    0.00081281   -0.00021628
     atom   18 type  4   force =     0.00058913   -0.00125469   -0.00081305
     atom   19 type  4   force =     0.00005349    0.00017301    0.00045268
     atom   20 type  4   force =    -0.00003547    0.00043882    0.00070344
     atom   21 type  4   force =    -0.00021339    0.00239135    0.00164276
     atom   22 type  4   force =    -0.00043921   -0.00070330    0.00164218
     atom   23 type  4   force =     0.00017608    0.00050849   -0.00183366
     atom   24 type  4   force =    -0.00018780   -0.00132187   -0.00107980
     atom   25 type  4   force =    -0.00052240   -0.00009169    0.00067906
     atom   26 type  4   force =    -0.00016297    0.00055153    0.00027797
     atom   27 type  4   force =     0.00085493   -0.00002631   -0.00030840
     atom   28 type  4   force =     0.00003613   -0.00077109   -0.00008004

     Total force =     0.008767     Total SCF correction =     0.000008


     Computing stress (Cartesian axis) and pressure

          total   stress  (Ry/bohr**3)                   (kbar)     P=       -3.12
  -0.00002421   0.00000126  -0.00000679           -3.56        0.19       -1.00
   0.00000126  -0.00001602   0.00000197            0.19       -2.36        0.29
  -0.00000679   0.00000197  -0.00002344           -1.00        0.29       -3.45

     Energy error            =      2.3E-04 Ry
     Gradient error          =      2.8E-03 Ry/Bohr
     Cell gradient error     =      3.6E+00 kbar

     number of scf cycles    =  20
     number of bfgs steps    =  19

     enthalpy           old  =   -1616.7232419661 Ry
     enthalpy           new  =   -1616.7234732427 Ry

     CASE: enthalpy          _new < enthalpy          _old

     new trust radius        =       0.0343662947 bohr
     new conv_thr            =       0.0000000002 Ry

     new unit-cell volume =   1740.13827 a.u.^3 (   257.86189 Ang^3 )
     density =      2.86938 g/cm^3

CELL_PARAMETERS (angstrom)
   7.755828290   0.069655125  -0.046208725
  -5.134401471   5.660014140  -0.038404555
  -2.339671867   0.928925264   5.829085642

ATOMIC_POSITIONS (angstrom)
Mg              -4.2017998322        5.1850601674        5.3885462829
Mg              -3.0483686560        4.7180472200        2.5107867284
Mg               3.4122388251        1.9861969617        3.2787106759
Mg               4.5041157178        1.3662968984        0.3500867127
Mg               0.8289299663        6.3428889779        4.2659123364
Mg              -0.5381114238        0.2572693749        1.4244215335
Mg              -0.4958754025        3.5304739547        4.3533692257
Mg               0.7349083310        3.1621719567        1.4093211694
Co              -1.6714118151        5.8580520473        5.2071094127
Ni              -1.8809700833        2.3841648939        2.3713062239
Ni               2.1972058926        4.2663861555        3.3349694366
Ni               1.9459453772        0.7700210929        0.4825940287
H               -0.4067493437        5.1456477010        5.7430462133
H               -0.3921213147        2.0957393798        2.6990359624
H                0.6941157260        4.5478909705        3.0750794283
H                0.6627937903        1.5752455549        0.1591578938
H                5.1469694811        1.0816380916        2.3663237399
H                4.1126451181        1.6007331510        5.2076090419
H               -3.7142343137        4.9664313242        0.4386898679
H               -4.8617024965        5.5790837091        3.3465611775
H               -2.7312948918        6.0290159936        4.0803610838
H               -2.4291476423        3.1366387458        1.1214896221
H                2.6385770824        3.5035095898        4.6284917466
H                2.8692329384        0.8312134039        1.7405451568
H                0.5122721248        1.8930925968        5.0572951378
H                2.7183260641        3.4969749836        2.0918555202
H               -2.4324183810        3.0973922869        3.6461865780
H               -0.2295015207        4.8130462155        0.6437511291



     Writing config-only to output data dir ./outdir/mg2nih4_co_nisite.save/ :
     XML data file
     NEW-OLD atomic charge density approx. for the potential
     New effective cutoffs (rho, wfc):  513.63   64.24

     Check: negative core charge=   -0.000001

     total cpu time spent up to now is     7706.2 secs

     Self-consistent Calculation

     iteration #  1     ecut=    60.00 Ry     beta= 0.30
     Davidson diagonalization with overlap
     ethr =  1.00E-06,  avg # of iterations =  4.0

     total cpu time spent up to now is     7753.5 secs

     total energy              =   -1616.72366755 Ry
     estimated scf accuracy    <       0.00024275 Ry

     iteration #  2     ecut=    60.00 Ry     beta= 0.30
     Davidson diagonalization with overlap
     ethr =  2.36E-07,  avg # of iterations =  2.6

     total cpu time spent up to now is     7783.7 secs

     total energy              =   -1616.72366161 Ry
     estimated scf accuracy    <       0.00041069 Ry

     iteration #  3     ecut=    60.00 Ry     beta= 0.30
     Davidson diagonalization with overlap
     ethr =  2.36E-07,  avg # of iterations =  2.4

     total cpu time spent up to now is     7811.2 secs

     total energy              =   -1616.72369188 Ry
     estimated scf accuracy    <       0.00009145 Ry

     iteration #  4     ecut=    60.00 Ry     beta= 0.30
     Davidson diagonalization with overlap
     ethr =  8.88E-08,  avg # of iterations =  2.7

     total cpu time spent up to now is     7840.7 secs

     total energy              =   -1616.72369030 Ry
     estimated scf accuracy    <       0.00020087 Ry

     iteration #  5     ecut=    60.00 Ry     beta= 0.30
     Davidson diagonalization with overlap
     ethr =  8.88E-08,  avg # of iterations =  2.0

     total cpu time spent up to now is     7864.6 secs

     total energy              =   -1616.72370212 Ry
     estimated scf accuracy    <       0.00000383 Ry

     iteration #  6     ecut=    60.00 Ry     beta= 0.30
     Davidson diagonalization with overlap
     ethr =  3.72E-09,  avg # of iterations =  3.0

     total cpu time spent up to now is     7894.6 secs

     total energy              =   -1616.72370278 Ry
     estimated scf accuracy    <       0.00000413 Ry

     iteration #  7     ecut=    60.00 Ry     beta= 0.30
     Davidson diagonalization with overlap
     ethr =  3.72E-09,  avg # of iterations =  1.3

     total cpu time spent up to now is     7916.6 secs

     total energy              =   -1616.72370292 Ry
     estimated scf accuracy    <       0.00000111 Ry

     iteration #  8     ecut=    60.00 Ry     beta= 0.30
     Davidson diagonalization with overlap
     ethr =  1.08E-09,  avg # of iterations =  2.0

     total cpu time spent up to now is     7940.0 secs

     total energy              =   -1616.72370306 Ry
     estimated scf accuracy    <       0.00000017 Ry

     iteration #  9     ecut=    60.00 Ry     beta= 0.30
     Davidson diagonalization with overlap
     ethr =  1.64E-10,  avg # of iterations =  4.0

     total cpu time spent up to now is     7978.6 secs

     total energy              =   -1616.72370314 Ry
     estimated scf accuracy    <       0.00000002 Ry

     iteration # 10     ecut=    60.00 Ry     beta= 0.30
     Davidson diagonalization with overlap
     ethr =  1.82E-11,  avg # of iterations =  2.0

     total cpu time spent up to now is     8002.2 secs

     total energy              =   -1616.72370314 Ry
     estimated scf accuracy    <       0.00000002 Ry

     iteration # 11     ecut=    60.00 Ry     beta= 0.30
     Davidson diagonalization with overlap
     ethr =  1.82E-11,  avg # of iterations =  1.3

     total cpu time spent up to now is     8023.9 secs

     total energy              =   -1616.72370314 Ry
     estimated scf accuracy    <          9.5E-10 Ry

     iteration # 12     ecut=    60.00 Ry     beta= 0.30
     Davidson diagonalization with overlap
     ethr =  9.22E-13,  avg # of iterations =  3.0

     total cpu time spent up to now is     8052.7 secs

     total energy              =   -1616.72370314 Ry
     estimated scf accuracy    <          4.0E-10 Ry

     iteration # 13     ecut=    60.00 Ry     beta= 0.30
     Davidson diagonalization with overlap
     ethr =  3.86E-13,  avg # of iterations =  1.1

     total cpu time spent up to now is     8072.5 secs

     End of self-consistent calculation

     Number of k-points >= 100: set verbosity='high' to print the bands.

     the Fermi energy is     5.7606 ev

!    total energy              =   -1616.72370315 Ry
     estimated scf accuracy    <          2.7E-11 Ry
     smearing contrib. (-TS)   =       0.00043732 Ry
     internal energy E=F+TS    =   -1616.72414047 Ry

     The total energy is F=E-TS. E is the sum of the following terms:
     one-electron contribution =   -1368.69090153 Ry
     hartree contribution      =     712.82451324 Ry
     xc contribution           =    -164.39611598 Ry
     ewald contribution        =    -545.78318724 Ry
     DFT-D3 Dispersion         =      -0.35605977 Ry
     one-center paw contrib.   =    -250.32238919 Ry

     convergence has been achieved in  13 iterations

     Forces acting on atoms (cartesian axes, Ry/au):

     atom    1 type  1   force =     0.00057658    0.00119006    0.00074386
     atom    2 type  1   force =     0.00063748    0.00018915    0.00119711
     atom    3 type  1   force =    -0.00041426   -0.00019126    0.00012782
     atom    4 type  1   force =    -0.00002936   -0.00129811   -0.00008934
     atom    5 type  1   force =    -0.00226552    0.00046393    0.00090434
     atom    6 type  1   force =    -0.00053137   -0.00002897   -0.00081524
     atom    7 type  1   force =    -0.00059985    0.00029709   -0.00036605
     atom    8 type  1   force =     0.00064019    0.00090912   -0.00020117
     atom    9 type  2   force =    -0.00044042   -0.00319805   -0.00229723
     atom   10 type  3   force =    -0.00109473    0.00100361    0.00005367
     atom   11 type  3   force =     0.00047297   -0.00027195    0.00141475
     atom   12 type  3   force =     0.00139338   -0.00084612    0.00082280
     atom   13 type  4   force =    -0.00134669   -0.00056408   -0.00281651
     atom   14 type  4   force =    -0.00030173    0.00044184   -0.00135255
     atom   15 type  4   force =     0.00017276    0.00003065    0.00060370
     atom   16 type  4   force =     0.00220647    0.00054339    0.00133314
     atom   17 type  4   force =     0.00098186    0.00069283    0.00002808
     atom   18 type  4   force =     0.00039081   -0.00146182   -0.00074230
     atom   19 type  4   force =     0.00003563    0.00038606    0.00058798
     atom   20 type  4   force =    -0.00015183    0.00070964    0.00055256
     atom   21 type  4   force =    -0.00001805    0.00249734    0.00157445
     atom   22 type  4   force =    -0.00044581   -0.00072119    0.00178322
     atom   23 type  4   force =     0.00020888    0.00065596   -0.00171132
     atom   24 type  4   force =    -0.00026224   -0.00135434   -0.00156664
     atom   25 type  4   force =    -0.00031292   -0.00037687    0.00098302
     atom   26 type  4   force =     0.00017610    0.00059601   -0.00005816
     atom   27 type  4   force =     0.00060707    0.00014448   -0.00027846
     atom   28 type  4   force =    -0.00028541   -0.00043843   -0.00041554

     Total force =     0.009307     Total SCF correction =     0.000012


     Computing stress (Cartesian axis) and pressure

          total   stress  (Ry/bohr**3)                   (kbar)     P=       -2.20
  -0.00002321  -0.00000165  -0.00000613           -3.41       -0.24       -0.90
  -0.00000165  -0.00000848  -0.00000066           -0.24       -1.25       -0.10
  -0.00000613  -0.00000066  -0.00001314           -0.90       -0.10       -1.93

     Energy error            =      2.3E-04 Ry
     Gradient error          =      3.2E-03 Ry/Bohr
     Cell gradient error     =      3.4E+00 kbar

     number of scf cycles    =  21
     number of bfgs steps    =  20

     enthalpy           old  =   -1616.7234732427 Ry
     enthalpy           new  =   -1616.7237031450 Ry

     CASE: enthalpy          _new < enthalpy          _old

     new trust radius        =       0.0439085384 bohr
     new conv_thr            =       0.0000000002 Ry

     new unit-cell volume =   1734.70834 a.u.^3 (   257.05726 Ang^3 )
     density =      2.87836 g/cm^3

CELL_PARAMETERS (angstrom)
   7.752206135   0.070565206  -0.051240867
  -5.131358687   5.654488596  -0.034702655
  -2.342272039   0.928154443   5.820242731

ATOMIC_POSITIONS (angstrom)
Mg              -4.2094132399        5.1785689198        5.3854646082
Mg              -3.0458530069        4.7184729696        2.5176831341
Mg               3.4073636904        1.9879035076        3.2626224591
Mg               4.5040674801        1.3658831295        0.3435958246
Mg               0.8285021405        6.3416622179        4.2581087381
Mg              -0.5389086013        0.2564213177        1.4247568583
Mg              -0.4990476855        3.5225160622        4.3450684538
Mg               0.7363925919        3.1611809306        1.4053413028
Co              -1.6759955041        5.8544510150        5.1962508307
Ni              -1.8783412177        2.3833608220        2.3665443027
Ni               2.1930257733        4.2640995397        3.3295632230
Ni               1.9466589227        0.7697925204        0.4851837998
H               -0.4131409847        5.1402721954        5.7292171056
H               -0.3905895519        2.0923427207        2.6961960626
H                0.6918861857        4.5434211942        3.0669373112
H                0.6639651642        1.5716804269        0.1568730621
H                5.1475615137        1.0819736710        2.3543318005
H                4.1162604839        1.5982428975        5.1856168625
H               -3.7124850176        4.9615105639        0.4425981212
H               -4.8605186893        5.5741327639        3.3497207234
H               -2.7457597211        6.0400806573        4.0842107870
H               -2.4338004847        3.1347600603        1.1223025353
H                2.6356529290        3.4957623066        4.6153499670
H                2.8729218285        0.8246417726        1.7376066732
H                0.5060571948        1.8918971435        5.0486578626
H                2.7136175685        3.4994365806        2.0838942370
H               -2.4313442655        3.0894315841        3.6431071241
H               -0.2286797713        4.8010159346        0.6433851517



     Writing config-only to output data dir ./outdir/mg2nih4_co_nisite.save/ :
     XML data file
     NEW-OLD atomic charge density approx. for the potential
     New effective cutoffs (rho, wfc):  514.58   64.37

     Check: negative core charge=   -0.000001

     total cpu time spent up to now is     8085.7 secs

     Self-consistent Calculation

     iteration #  1     ecut=    60.00 Ry     beta= 0.30
     Davidson diagonalization with overlap
     ethr =  1.00E-06,  avg # of iterations =  4.0

     total cpu time spent up to now is     8128.0 secs

     total energy              =   -1616.72380127 Ry
     estimated scf accuracy    <       0.00053121 Ry

     iteration #  2     ecut=    60.00 Ry     beta= 0.30
     Davidson diagonalization with overlap
     ethr =  5.16E-07,  avg # of iterations =  3.0

     total cpu time spent up to now is     8157.4 secs

     total energy              =   -1616.72380756 Ry
     estimated scf accuracy    <       0.00120165 Ry

     iteration #  3     ecut=    60.00 Ry     beta= 0.30
     Davidson diagonalization with overlap
     ethr =  5.16E-07,  avg # of iterations =  2.4

     total cpu time spent up to now is     8185.1 secs

     total energy              =   -1616.72391655 Ry
     estimated scf accuracy    <       0.00005513 Ry

     iteration #  4     ecut=    60.00 Ry     beta= 0.30
     Davidson diagonalization with overlap
     ethr =  5.35E-08,  avg # of iterations =  2.0

     total cpu time spent up to now is     8207.4 secs

     total energy              =   -1616.72391565 Ry
     estimated scf accuracy    <       0.00003596 Ry

     iteration #  5     ecut=    60.00 Ry     beta= 0.30
     Davidson diagonalization with overlap
     ethr =  3.49E-08,  avg # of iterations =  2.1

     total cpu time spent up to now is     8230.8 secs

     total energy              =   -1616.72391856 Ry
     estimated scf accuracy    <       0.00002878 Ry

     iteration #  6     ecut=    60.00 Ry     beta= 0.30
     Davidson diagonalization with overlap
     ethr =  2.79E-08,  avg # of iterations =  1.2

     total cpu time spent up to now is     8250.7 secs

     total energy              =   -1616.72391991 Ry
     estimated scf accuracy    <       0.00000345 Ry

     iteration #  7     ecut=    60.00 Ry     beta= 0.30
     Davidson diagonalization with overlap
     ethr =  3.35E-09,  avg # of iterations =  2.0

     total cpu time spent up to now is     8273.8 secs

     total energy              =   -1616.72392040 Ry
     estimated scf accuracy    <       0.00000086 Ry

     iteration #  8     ecut=    60.00 Ry     beta= 0.30
     Davidson diagonalization with overlap
     ethr =  8.35E-10,  avg # of iterations =  3.9

     total cpu time spent up to now is     8313.6 secs

     total energy              =   -1616.72392051 Ry
     estimated scf accuracy    <       0.00000008 Ry

     iteration #  9     ecut=    60.00 Ry     beta= 0.30
     Davidson diagonalization with overlap
     ethr =  7.64E-11,  avg # of iterations =  4.2

     total cpu time spent up to now is     8357.6 secs

     total energy              =   -1616.72392061 Ry
     estimated scf accuracy    <       0.00000018 Ry

     iteration # 10     ecut=    60.00 Ry     beta= 0.30
     Davidson diagonalization with overlap
     ethr =  7.64E-11,  avg # of iterations =  2.0

     total cpu time spent up to now is     8380.2 secs

     total energy              =   -1616.72392062 Ry
     estimated scf accuracy    <          7.7E-09 Ry

     iteration # 11     ecut=    60.00 Ry     beta= 0.30
     Davidson diagonalization with overlap
     ethr =  7.44E-12,  avg # of iterations =  2.0

     total cpu time spent up to now is     8402.8 secs

     total energy              =   -1616.72392062 Ry
     estimated scf accuracy    <          1.1E-09 Ry

     iteration # 12     ecut=    60.00 Ry     beta= 0.30
     Davidson diagonalization with overlap
     ethr =  1.07E-12,  avg # of iterations =  1.5

     total cpu time spent up to now is     8424.8 secs

     End of self-consistent calculation

     Number of k-points >= 100: set verbosity='high' to print the bands.

     the Fermi energy is     5.7957 ev

!    total energy              =   -1616.72392062 Ry
     estimated scf accuracy    <          1.1E-10 Ry
     smearing contrib. (-TS)   =       0.00045517 Ry
     internal energy E=F+TS    =   -1616.72437580 Ry

     The total energy is F=E-TS. E is the sum of the following terms:
     one-electron contribution =   -1367.48215948 Ry
     hartree contribution      =     712.31424356 Ry
     xc contribution           =    -164.41683532 Ry
     ewald contribution        =    -546.45750066 Ry
     DFT-D3 Dispersion         =      -0.35712116 Ry
     one-center paw contrib.   =    -250.32500274 Ry

     convergence has been achieved in  12 iterations

     Forces acting on atoms (cartesian axes, Ry/au):

     atom    1 type  1   force =     0.00178013    0.00126608    0.00142351
     atom    2 type  1   force =     0.00097677   -0.00015451    0.00137127
     atom    3 type  1   force =    -0.00005748   -0.00068001    0.00072385
     atom    4 type  1   force =    -0.00024017   -0.00151693   -0.00046190
     atom    5 type  1   force =    -0.00310444   -0.00031057    0.00090517
     atom    6 type  1   force =    -0.00038344    0.00019914   -0.00145886
     atom    7 type  1   force =     0.00007094    0.00191623   -0.00020796
     atom    8 type  1   force =     0.00011148    0.00002178   -0.00025211
     atom    9 type  2   force =    -0.00030812   -0.00296911   -0.00219104
     atom   10 type  3   force =    -0.00124113    0.00093559    0.00012148
     atom   11 type  3   force =     0.00059587   -0.00032642    0.00081672
     atom   12 type  3   force =     0.00087903   -0.00069413    0.00035952
     atom   13 type  4   force =    -0.00059065   -0.00088680   -0.00252008
     atom   14 type  4   force =    -0.00037833    0.00055901   -0.00161653
     atom   15 type  4   force =    -0.00036669    0.00037158    0.00084205
     atom   16 type  4   force =     0.00187550    0.00093323    0.00153050
     atom   17 type  4   force =     0.00074294    0.00029603    0.00027639
     atom   18 type  4   force =    -0.00006710   -0.00202636   -0.00055591
     atom   19 type  4   force =    -0.00011577    0.00040201    0.00072889
     atom   20 type  4   force =    -0.00032176    0.00094023    0.00036141
     atom   21 type  4   force =    -0.00019416    0.00258251    0.00106087
     atom   22 type  4   force =    -0.00068165   -0.00044710    0.00145788
     atom   23 type  4   force =     0.00045288    0.00046731   -0.00098107
     atom   24 type  4   force =     0.00013971   -0.00132957   -0.00143603
     atom   25 type  4   force =     0.00001641   -0.00066183    0.00100237
     atom   26 type  4   force =     0.00055026    0.00069218   -0.00030912
     atom   27 type  4   force =     0.00021613    0.00035595   -0.00003496
     atom   28 type  4   force =    -0.00035716    0.00006448   -0.00095630

     Total force =     0.009652     Total SCF correction =     0.000016


     Computing stress (Cartesian axis) and pressure

          total   stress  (Ry/bohr**3)                   (kbar)     P=       -0.01
  -0.00001131  -0.00000465  -0.00000349           -1.66       -0.68       -0.51
  -0.00000465   0.00000606  -0.00000352           -0.68        0.89       -0.52
  -0.00000349  -0.00000352   0.00000501           -0.51       -0.52        0.74

     Energy error            =      2.2E-04 Ry
     Gradient error          =      3.1E-03 Ry/Bohr
     Cell gradient error     =      1.7E+00 kbar

     number of scf cycles    =  22
     number of bfgs steps    =  21

     enthalpy           old  =   -1616.7237031450 Ry
     enthalpy           new  =   -1616.7239206228 Ry

     CASE: enthalpy          _new < enthalpy          _old

     new trust radius        =       0.0331592138 bohr
     new conv_thr            =       0.0000000002 Ry

     new unit-cell volume =   1730.81046 a.u.^3 (   256.47965 Ang^3 )
     density =      2.88484 g/cm^3

CELL_PARAMETERS (angstrom)
   7.746635080   0.069551166  -0.055272915
  -5.128411445   5.652674018  -0.032389240
  -2.343833645   0.927638174   5.815059459

ATOMIC_POSITIONS (angstrom)
Mg              -4.2131286477        5.1761333592        5.3848311392
Mg              -3.0435162116        4.7197007487        2.5235144337
Mg               3.4020214218        1.9877964077        3.2522435984
Mg               4.5018507390        1.3638913353        0.3382932023
Mg               0.8240316049        6.3405292016        4.2532752791
Mg              -0.5395905447        0.2563392448        1.4241854681
Mg              -0.5018441523        3.5185107644        4.3395147366
Mg               0.7365172492        3.1608112353        1.4020127906
Co              -1.6804289557        5.8512831230        5.1878387548
Ni              -1.8772496702        2.3839964020        2.3634903135
Ni               2.1883763619        4.2620491890        3.3262871886
Ni               1.9466793972        0.7689801868        0.4871303963
H               -0.4197460390        5.1360163897        5.7177093762
H               -0.3902988765        2.0904912476        2.6932501778
H                0.6884963514        4.5407000382        3.0619635639
H                0.6654418801        1.5699489635        0.1562530895
H                5.1460339887        1.0811658193        2.3461214496
H                4.1164421943        1.5944804542        5.1703674774
H               -3.7110318512        4.9599601096        0.4454749383
H               -4.8593914289        5.5727798232        3.3524290583
H               -2.7563069624        6.0503780858        4.0879236665
H               -2.4372611048        3.1340501697        1.1237388125
H                2.6317648894        3.4900676942        4.6057440067
H                2.8741577937        0.8185123695        1.7347216069
H                0.5008093991        1.8901654335        5.0439773389
H                2.7085969499        3.5015467822        2.0778077783
H               -2.4304436006        3.0846876601        3.6412951837
H               -0.2295223028        4.7931147780        0.6421674282



     Writing config-only to output data dir ./outdir/mg2nih4_co_nisite.save/ :
     XML data file
     NEW-OLD atomic charge density approx. for the potential
     New effective cutoffs (rho, wfc):  515.12   64.45

     Check: negative core charge=   -0.000001

     total cpu time spent up to now is     8438.0 secs

     Self-consistent Calculation

     iteration #  1     ecut=    60.00 Ry     beta= 0.30
     Davidson diagonalization with overlap
     ethr =  1.00E-06,  avg # of iterations =  3.8

     total cpu time spent up to now is     8482.5 secs

     total energy              =   -1616.72401924 Ry
     estimated scf accuracy    <       0.00031152 Ry

     iteration #  2     ecut=    60.00 Ry     beta= 0.30
     Davidson diagonalization with overlap
     ethr =  3.02E-07,  avg # of iterations =  3.0

     total cpu time spent up to now is     8510.9 secs

     total energy              =   -1616.72402177 Ry
     estimated scf accuracy    <       0.00064273 Ry

     iteration #  3     ecut=    60.00 Ry     beta= 0.30
     Davidson diagonalization with overlap
     ethr =  3.02E-07,  avg # of iterations =  2.4

     total cpu time spent up to now is     8538.4 secs

     total energy              =   -1616.72407847 Ry
     estimated scf accuracy    <       0.00006498 Ry

     iteration #  4     ecut=    60.00 Ry     beta= 0.30
     Davidson diagonalization with overlap
     ethr =  6.31E-08,  avg # of iterations =  3.0

     total cpu time spent up to now is     8565.7 secs

     total energy              =   -1616.72407506 Ry
     estimated scf accuracy    <       0.00018778 Ry

     iteration #  5     ecut=    60.00 Ry     beta= 0.30
     Davidson diagonalization with overlap
     ethr =  6.31E-08,  avg # of iterations =  2.8

     total cpu time spent up to now is     8594.8 secs

     total energy              =   -1616.72408639 Ry
     estimated scf accuracy    <       0.00000536 Ry

     iteration #  6     ecut=    60.00 Ry     beta= 0.30
     Davidson diagonalization with overlap
     ethr =  5.21E-09,  avg # of iterations =  2.0

     total cpu time spent up to now is     8617.3 secs

     total energy              =   -1616.72408640 Ry
     estimated scf accuracy    <       0.00000391 Ry

     iteration #  7     ecut=    60.00 Ry     beta= 0.30
     Davidson diagonalization with overlap
     ethr =  3.79E-09,  avg # of iterations =  1.5

     total cpu time spent up to now is     8640.4 secs

     total energy              =   -1616.72408680 Ry
     estimated scf accuracy    <       0.00000043 Ry

     iteration #  8     ecut=    60.00 Ry     beta= 0.30
     Davidson diagonalization with overlap
     ethr =  4.21E-10,  avg # of iterations =  5.1

     total cpu time spent up to now is     8682.5 secs

     total energy              =   -1616.72408690 Ry
     estimated scf accuracy    <       0.00000008 Ry

     iteration #  9     ecut=    60.00 Ry     beta= 0.30
     Davidson diagonalization with overlap
     ethr =  7.67E-11,  avg # of iterations =  3.9

     total cpu time spent up to now is     8719.7 secs

     total energy              =   -1616.72408692 Ry
     estimated scf accuracy    <       0.00000010 Ry

     iteration # 10     ecut=    60.00 Ry     beta= 0.30
     Davidson diagonalization with overlap
     ethr =  7.67E-11,  avg # of iterations =  1.5

     total cpu time spent up to now is     8742.9 secs

     total energy              =   -1616.72408693 Ry
     estimated scf accuracy    <       0.00000001 Ry

     iteration # 11     ecut=    60.00 Ry     beta= 0.30
     Davidson diagonalization with overlap
     ethr =  9.88E-12,  avg # of iterations =  2.4

     total cpu time spent up to now is     8770.0 secs

     total energy              =   -1616.72408693 Ry
     estimated scf accuracy    <          1.7E-09 Ry

     iteration # 12     ecut=    60.00 Ry     beta= 0.30
     Davidson diagonalization with overlap
     ethr =  1.65E-12,  avg # of iterations =  1.9

     total cpu time spent up to now is     8795.8 secs

     End of self-consistent calculation

     Number of k-points >= 100: set verbosity='high' to print the bands.

     the Fermi energy is     5.8190 ev

!    total energy              =   -1616.72408693 Ry
     estimated scf accuracy    <          1.3E-10 Ry
     smearing contrib. (-TS)   =       0.00046938 Ry
     internal energy E=F+TS    =   -1616.72455631 Ry

     The total energy is F=E-TS. E is the sum of the following terms:
     one-electron contribution =   -1366.63561169 Ry
     hartree contribution      =     711.95725513 Ry
     xc contribution           =    -164.43251256 Ry
     ewald contribution        =    -546.92892843 Ry
     DFT-D3 Dispersion         =      -0.35788535 Ry
     one-center paw contrib.   =    -250.32687342 Ry

     convergence has been achieved in  12 iterations

     Forces acting on atoms (cartesian axes, Ry/au):

     atom    1 type  1   force =     0.00190421    0.00101064    0.00168772
     atom    2 type  1   force =     0.00106545   -0.00027273    0.00143591
     atom    3 type  1   force =     0.00003408   -0.00078151    0.00074335
     atom    4 type  1   force =    -0.00026712   -0.00139175   -0.00062314
     atom    5 type  1   force =    -0.00308255   -0.00075677    0.00067820
     atom    6 type  1   force =    -0.00016763    0.00028123   -0.00146650
     atom    7 type  1   force =     0.00058223    0.00245651   -0.00008411
     atom    8 type  1   force =    -0.00026723   -0.00059973   -0.00013741
     atom    9 type  2   force =    -0.00023352   -0.00207916   -0.00160567
     atom   10 type  3   force =    -0.00098049    0.00053716    0.00024058
     atom   11 type  3   force =     0.00054389   -0.00001248   -0.00008074
     atom   12 type  3   force =     0.00019671   -0.00054581   -0.00015144
     atom   13 type  4   force =     0.00035355   -0.00132217   -0.00202277
     atom   14 type  4   force =    -0.00030823    0.00063605   -0.00168739
     atom   15 type  4   force =    -0.00064616    0.00061322    0.00090691
     atom   16 type  4   force =     0.00143750    0.00123126    0.00153153
     atom   17 type  4   force =     0.00047322   -0.00012125    0.00041855
     atom   18 type  4   force =    -0.00049855   -0.00255023   -0.00032783
     atom   19 type  4   force =    -0.00031022    0.00025380    0.00079155
     atom   20 type  4   force =    -0.00047570    0.00098119    0.00020187
     atom   21 type  4   force =    -0.00065598    0.00260335    0.00034781
     atom   22 type  4   force =    -0.00098695   -0.00005615    0.00090680
     atom   23 type  4   force =     0.00073764    0.00014419   -0.00015287
     atom   24 type  4   force =     0.00074130   -0.00123937   -0.00083394
     atom   25 type  4   force =     0.00024377   -0.00075065    0.00074236
     atom   26 type  4   force =     0.00076802    0.00077202   -0.00029635
     atom   27 type  4   force =    -0.00009779    0.00048108    0.00024529
     atom   28 type  4   force =    -0.00010342    0.00047808   -0.00140827

     Total force =     0.009300     Total SCF correction =     0.000015


     Computing stress (Cartesian axis) and pressure

          total   stress  (Ry/bohr**3)                   (kbar)     P=        1.71
   0.00000203  -0.00000567  -0.00000034            0.30       -0.83       -0.05
  -0.00000567   0.00001568  -0.00000516           -0.83        2.31       -0.76
  -0.00000034  -0.00000516   0.00001712           -0.05       -0.76        2.52

     Energy error            =      1.7E-04 Ry
     Gradient error          =      3.1E-03 Ry/Bohr
     Cell gradient error     =      2.5E+00 kbar

     number of scf cycles    =  23
     number of bfgs steps    =  22

     enthalpy           old  =   -1616.7239206228 Ry
     enthalpy           new  =   -1616.7240869346 Ry

     CASE: enthalpy          _new < enthalpy          _old

     new trust radius        =       0.0497222687 bohr
     new conv_thr            =       0.0000000002 Ry

     new unit-cell volume =   1727.18769 a.u.^3 (   255.94281 Ang^3 )
     density =      2.89089 g/cm^3

CELL_PARAMETERS (angstrom)
   7.739064923   0.067159076  -0.061230316
  -5.125141788   5.653567020  -0.030051488
  -2.346490803   0.926560571   5.810850319

ATOMIC_POSITIONS (angstrom)
Mg              -4.2178584110        5.1752253085        5.3872764989
Mg              -3.0402546372        4.7234013870        2.5331533456
Mg               3.3944182661        1.9868918207        3.2395259440
Mg               4.4983924060        1.3600648415        0.3301697384
Mg               0.8146778057        6.3406312205        4.2479441764
Mg              -0.5407535618        0.2559422118        1.4229623516
Mg              -0.5058794041        3.5161790319        4.3334519303
Mg               0.7356716702        3.1605505096        1.3975891619
Co              -1.6876521794        5.8471830293        5.1766652102
Ni              -1.8769640999        2.3860403648        2.3603071767
Ni               2.1817568650        4.2603586775        3.3223492487
Ni               1.9465970915        0.7675407737        0.4895473134
H               -0.4292020824        5.1312984771        5.7036201960
H               -0.3906980073        2.0889280609        2.6893034202
H                0.6827825378        4.5389790470        3.0562195486
H                0.6680097020        1.5688017574        0.1558336834
H                5.1440426823        1.0794227792        2.3357565433
H                4.1157687644        1.5861156379        5.1511995964
H               -3.7098272415        4.9609182203        0.4495872764
H               -4.8593485363        5.5741570230        3.3571370347
H               -2.7726295540        6.0692146501        4.0944201746
H               -2.4433188461        3.1346469386        1.1266063302
H                2.6262102121        3.4828366453        4.5939786210
H                2.8762694081        0.8089688554        1.7305525329
H                0.4930068670        1.8872138373        5.0402937846
H                2.7018895302        3.5058504589        2.0695746252
H               -2.4300183861        3.0794318097        3.6403185306
H               -0.2310362178        4.7852199630        0.6386152190



     Writing config-only to output data dir ./outdir/mg2nih4_co_nisite.save/ :
     XML data file
     NEW-OLD atomic charge density approx. for the potential
     New effective cutoffs (rho, wfc):  515.67   64.55

     Check: negative core charge=   -0.000001

     total cpu time spent up to now is     8809.7 secs

     Self-consistent Calculation

     iteration #  1     ecut=    60.00 Ry     beta= 0.30
     Davidson diagonalization with overlap
     ethr =  1.00E-06,  avg # of iterations =  4.0

     total cpu time spent up to now is     8853.6 secs

     total energy              =   -1616.72425628 Ry
     estimated scf accuracy    <       0.00049184 Ry

     iteration #  2     ecut=    60.00 Ry     beta= 0.30
     Davidson diagonalization with overlap
     ethr =  4.78E-07,  avg # of iterations =  2.1

     total cpu time spent up to now is     8879.2 secs

     total energy              =   -1616.72425452 Ry
     estimated scf accuracy    <       0.00062705 Ry

     iteration #  3     ecut=    60.00 Ry     beta= 0.30
     Davidson diagonalization with overlap
     ethr =  4.78E-07,  avg # of iterations =  2.0

     total cpu time spent up to now is     8903.3 secs

     total energy              =   -1616.72431147 Ry
     estimated scf accuracy    <       0.00017918 Ry

     iteration #  4     ecut=    60.00 Ry     beta= 0.30
     Davidson diagonalization with overlap
     ethr =  1.74E-07,  avg # of iterations =  2.2

     total cpu time spent up to now is     8930.6 secs

     total energy              =   -1616.72431015 Ry
     estimated scf accuracy    <       0.00028410 Ry

     iteration #  5     ecut=    60.00 Ry     beta= 0.30
     Davidson diagonalization with overlap
     ethr =  1.74E-07,  avg # of iterations =  2.1

     total cpu time spent up to now is     8956.8 secs

     total energy              =   -1616.72432861 Ry
     estimated scf accuracy    <       0.00001393 Ry

     iteration #  6     ecut=    60.00 Ry     beta= 0.30
     Davidson diagonalization with overlap
     ethr =  1.35E-08,  avg # of iterations =  2.0

     total cpu time spent up to now is     8982.7 secs

     total energy              =   -1616.72432853 Ry
     estimated scf accuracy    <       0.00001547 Ry

     iteration #  7     ecut=    60.00 Ry     beta= 0.30
     Davidson diagonalization with overlap
     ethr =  1.35E-08,  avg # of iterations =  1.5

     total cpu time spent up to now is     9006.7 secs

     total energy              =   -1616.72432984 Ry
     estimated scf accuracy    <       0.00000078 Ry

     iteration #  8     ecut=    60.00 Ry     beta= 0.30
     Davidson diagonalization with overlap
     ethr =  7.61E-10,  avg # of iterations =  4.8

     total cpu time spent up to now is     9048.5 secs

     total energy              =   -1616.72433012 Ry
     estimated scf accuracy    <       0.00000024 Ry

     iteration #  9     ecut=    60.00 Ry     beta= 0.30
     Davidson diagonalization with overlap
     ethr =  2.37E-10,  avg # of iterations =  2.0

     total cpu time spent up to now is     9073.1 secs

     total energy              =   -1616.72433013 Ry
     estimated scf accuracy    <       0.00000010 Ry

     iteration # 10     ecut=    60.00 Ry     beta= 0.30
     Davidson diagonalization with overlap
     ethr =  9.43E-11,  avg # of iterations =  2.0

     total cpu time spent up to now is     9096.5 secs

     total energy              =   -1616.72433014 Ry
     estimated scf accuracy    <       0.00000003 Ry

     iteration # 11     ecut=    60.00 Ry     beta= 0.30
     Davidson diagonalization with overlap
     ethr =  3.32E-11,  avg # of iterations =  1.6

     total cpu time spent up to now is     9121.8 secs

     total energy              =   -1616.72433015 Ry
     estimated scf accuracy    <          1.6E-09 Ry

     iteration # 12     ecut=    60.00 Ry     beta= 0.30
     Davidson diagonalization with overlap
     ethr =  1.57E-12,  avg # of iterations =  3.0

     total cpu time spent up to now is     9156.0 secs

     total energy              =   -1616.72433015 Ry
     estimated scf accuracy    <          3.7E-10 Ry

     iteration # 13     ecut=    60.00 Ry     beta= 0.30
     Davidson diagonalization with overlap
     ethr =  3.55E-13,  avg # of iterations =  2.1

     total cpu time spent up to now is     9182.9 secs

     End of self-consistent calculation

     Number of k-points >= 100: set verbosity='high' to print the bands.

     the Fermi energy is     5.8409 ev

!    total energy              =   -1616.72433015 Ry
     estimated scf accuracy    <          5.7E-11 Ry
     smearing contrib. (-TS)   =       0.00049104 Ry
     internal energy E=F+TS    =   -1616.72482118 Ry

     The total energy is F=E-TS. E is the sum of the following terms:
     one-electron contribution =   -1365.80678584 Ry
     hartree contribution      =     711.60312701 Ry
     xc contribution           =    -164.44653452 Ry
     ewald contribution        =    -547.38759433 Ry
     DFT-D3 Dispersion         =      -0.35859734 Ry
     one-center paw contrib.   =    -250.32843617 Ry

     convergence has been achieved in  13 iterations

     Forces acting on atoms (cartesian axes, Ry/au):

     atom    1 type  1   force =     0.00137969    0.00043763    0.00170620
     atom    2 type  1   force =     0.00096049   -0.00031284    0.00142880
     atom    3 type  1   force =     0.00003902   -0.00064939    0.00048627
     atom    4 type  1   force =    -0.00016606   -0.00100697   -0.00071402
     atom    5 type  1   force =    -0.00238943   -0.00127904    0.00015990
     atom    6 type  1   force =     0.00020643    0.00033982   -0.00106040
     atom    7 type  1   force =     0.00126240    0.00241683    0.00009226
     atom    8 type  1   force =    -0.00068183   -0.00120437    0.00007256
     atom    9 type  2   force =    -0.00017376   -0.00048882   -0.00060099
     atom   10 type  3   force =    -0.00046101   -0.00017028    0.00038853
     atom   11 type  3   force =     0.00035022    0.00052173   -0.00128699
     atom   12 type  3   force =    -0.00077239   -0.00030515   -0.00077273
     atom   13 type  4   force =     0.00134560   -0.00187340   -0.00143074
     atom   14 type  4   force =    -0.00024507    0.00076415   -0.00169894
     atom   15 type  4   force =    -0.00073296    0.00084401    0.00095100
     atom   16 type  4   force =     0.00078864    0.00155654    0.00146546
     atom   17 type  4   force =     0.00009322   -0.00065240    0.00055642
     atom   18 type  4   force =    -0.00106423   -0.00304414    0.00002852
     atom   19 type  4   force =    -0.00059974    0.00002906    0.00080272
     atom   20 type  4   force =    -0.00070690    0.00085078   -0.00001632
     atom   21 type  4   force =    -0.00104985    0.00245075   -0.00039883
     atom   22 type  4   force =    -0.00138874    0.00045503    0.00017495
     atom   23 type  4   force =     0.00107117   -0.00022977    0.00080990
     atom   24 type  4   force =     0.00155012   -0.00109199    0.00007087
     atom   25 type  4   force =     0.00044947   -0.00072297    0.00026374
     atom   26 type  4   force =     0.00096639    0.00086225   -0.00010303
     atom   27 type  4   force =    -0.00045397    0.00054295    0.00054144
     atom   28 type  4   force =     0.00042308    0.00095997   -0.00191656

     Total force =     0.009339     Total SCF correction =     0.000009


     Computing stress (Cartesian axis) and pressure

          total   stress  (Ry/bohr**3)                   (kbar)     P=        3.27
   0.00001766  -0.00000521   0.00000285            2.60       -0.77        0.42
  -0.00000521   0.00002298  -0.00000573           -0.77        3.38       -0.84
   0.00000285  -0.00000573   0.00002606            0.42       -0.84        3.83

     Energy error            =      2.4E-04 Ry
     Gradient error          =      3.0E-03 Ry/Bohr
     Cell gradient error     =      3.8E+00 kbar

     number of scf cycles    =  24
     number of bfgs steps    =  23

     enthalpy           old  =   -1616.7240869346 Ry
     enthalpy           new  =   -1616.7243301458 Ry

     CASE: enthalpy          _new < enthalpy          _old

     new trust radius        =       0.0745765130 bohr
     new conv_thr            =       0.0000000002 Ry

     new unit-cell volume =   1725.56264 a.u.^3 (   255.70200 Ang^3 )
     density =      2.89362 g/cm^3

CELL_PARAMETERS (angstrom)
   7.732036380   0.062869432  -0.070110710
  -5.123637257   5.660117461  -0.027062807
  -2.351837536   0.925503399   5.809170944

ATOMIC_POSITIONS (angstrom)
Mg              -4.2272790107        5.1787443211        5.3956175263
Mg              -3.0372120319        4.7324629040        2.5494996154
Mg               3.3846521668        1.9864061267        3.2233558661
Mg               4.4952780594        1.3543490698        0.3183930732
Mg               0.7989512132        6.3449297451        4.2430656520
Mg              -0.5425427916        0.2558898713        1.4218350929
Mg              -0.5118260288        3.5164149086        4.3275049005
Mg               0.7340961592        3.1618471016        1.3923679911
Co              -1.6999860647        5.8452766500        5.1635989082
Ni              -1.8785882550        2.3907008374        2.3580440253
Ni               2.1732345230        4.2615800955        3.3176399500
Ni               1.9470283781        0.7650635291        0.4925737028
H               -0.4432055413        5.1266421528        5.6851588807
H               -0.3922277205        2.0890372260        2.6836988015
H                0.6741144854        4.5404361954        3.0507263306
H                0.6732557245        1.5696379479        0.1566590493
H                5.1438706035        1.0768469530        2.3228064113
H                4.1154083398        1.5715541194        5.1274678376
H               -3.7109983322        4.9670091610        0.4561929545
H               -4.8631989222        5.5814763628        3.3661516590
H               -2.7986245825        6.1032135440        4.1063845818
H               -2.4546770816        3.1382814265        1.1321094123
H                2.6198052923        3.4747665254        4.5801221584
H                2.8814933742        0.7943400739        1.7253097172
H                0.4818228829        1.8833693049        5.0391221055
H                2.6938044913        3.5151995991        2.0591688217
H               -2.4312072316        3.0748238824        3.6415528614
H               -0.2333798861        4.7785644433        0.6318360963



     Writing config-only to output data dir ./outdir/mg2nih4_co_nisite.save/ :
     XML data file
     NEW-OLD atomic charge density approx. for the potential
     New effective cutoffs (rho, wfc):  516.53   64.63

     Check: negative core charge=   -0.000001

     total cpu time spent up to now is     9196.6 secs

     Self-consistent Calculation

     iteration #  1     ecut=    60.00 Ry     beta= 0.30
     Davidson diagonalization with overlap
     ethr =  1.00E-06,  avg # of iterations =  4.2

     total cpu time spent up to now is     9243.4 secs

     total energy              =   -1616.72461533 Ry
     estimated scf accuracy    <       0.00077258 Ry

     iteration #  2     ecut=    60.00 Ry     beta= 0.30
     Davidson diagonalization with overlap
     ethr =  7.50E-07,  avg # of iterations =  2.0

     total cpu time spent up to now is     9267.3 secs

     total energy              =   -1616.72462689 Ry
     estimated scf accuracy    <       0.00029258 Ry

     iteration #  3     ecut=    60.00 Ry     beta= 0.30
     Davidson diagonalization with overlap
     ethr =  2.84E-07,  avg # of iterations =  2.5

     total cpu time spent up to now is     9296.4 secs

     total energy              =   -1616.72462294 Ry
     estimated scf accuracy    <       0.00054311 Ry

     iteration #  4     ecut=    60.00 Ry     beta= 0.30
     Davidson diagonalization with overlap
     ethr =  2.84E-07,  avg # of iterations =  2.1

     total cpu time spent up to now is     9321.9 secs

     total energy              =   -1616.72465312 Ry
     estimated scf accuracy    <       0.00013876 Ry

     iteration #  5     ecut=    60.00 Ry     beta= 0.30
     Davidson diagonalization with overlap
     ethr =  1.35E-07,  avg # of iterations =  2.1

     total cpu time spent up to now is     9347.7 secs

     total energy              =   -1616.72466274 Ry
     estimated scf accuracy    <       0.00007726 Ry

     iteration #  6     ecut=    60.00 Ry     beta= 0.30
     Davidson diagonalization with overlap
     ethr =  7.50E-08,  avg # of iterations =  2.0

     total cpu time spent up to now is     9374.9 secs

     total energy              =   -1616.72466615 Ry
     estimated scf accuracy    <       0.00002772 Ry

     iteration #  7     ecut=    60.00 Ry     beta= 0.30
     Davidson diagonalization with overlap
     ethr =  2.69E-08,  avg # of iterations =  1.7

     total cpu time spent up to now is     9400.1 secs

     total energy              =   -1616.72466871 Ry
     estimated scf accuracy    <       0.00000094 Ry

     iteration #  8     ecut=    60.00 Ry     beta= 0.30
     Davidson diagonalization with overlap
     ethr =  9.13E-10,  avg # of iterations =  4.0

     total cpu time spent up to now is     9441.7 secs

     total energy              =   -1616.72466915 Ry
     estimated scf accuracy    <       0.00000047 Ry

     iteration #  9     ecut=    60.00 Ry     beta= 0.30
     Davidson diagonalization with overlap
     ethr =  4.52E-10,  avg # of iterations =  2.0

     total cpu time spent up to now is     9465.0 secs

     total energy              =   -1616.72466918 Ry
     estimated scf accuracy    <       0.00000035 Ry

     iteration # 10     ecut=    60.00 Ry     beta= 0.30
     Davidson diagonalization with overlap
     ethr =  3.41E-10,  avg # of iterations =  1.6

     total cpu time spent up to now is     9489.7 secs

     total energy              =   -1616.72466920 Ry
     estimated scf accuracy    <       0.00000006 Ry

     iteration # 11     ecut=    60.00 Ry     beta= 0.30
     Davidson diagonalization with overlap
     ethr =  5.82E-11,  avg # of iterations =  2.0

     total cpu time spent up to now is     9513.0 secs

     total energy              =   -1616.72466921 Ry
     estimated scf accuracy    <          3.9E-09 Ry

     iteration # 12     ecut=    60.00 Ry     beta= 0.30
     Davidson diagonalization with overlap
     ethr =  3.76E-12,  avg # of iterations =  2.0

     total cpu time spent up to now is     9539.2 secs

     total energy              =   -1616.72466921 Ry
     estimated scf accuracy    <          9.9E-10 Ry

     iteration # 13     ecut=    60.00 Ry     beta= 0.30
     Davidson diagonalization with overlap
     ethr =  9.61E-13,  avg # of iterations =  1.2

     total cpu time spent up to now is     9563.7 secs

     End of self-consistent calculation

     Number of k-points >= 100: set verbosity='high' to print the bands.

     the Fermi energy is     5.8529 ev

!    total energy              =   -1616.72466921 Ry
     estimated scf accuracy    <          4.6E-11 Ry
     smearing contrib. (-TS)   =       0.00051810 Ry
     internal energy E=F+TS    =   -1616.72518731 Ry

     The total energy is F=E-TS. E is the sum of the following terms:
     one-electron contribution =   -1365.36158881 Ry
     hartree contribution      =     711.40278603 Ry
     xc contribution           =    -164.45193235 Ry
     ewald contribution        =    -547.62675515 Ry
     DFT-D3 Dispersion         =      -0.35891257 Ry
     one-center paw contrib.   =    -250.32878446 Ry

     convergence has been achieved in  13 iterations

     Forces acting on atoms (cartesian axes, Ry/au):

     atom    1 type  1   force =     0.00024643   -0.00048224    0.00139576
     atom    2 type  1   force =     0.00059313   -0.00027457    0.00131819
     atom    3 type  1   force =     0.00001695   -0.00030728    0.00007458
     atom    4 type  1   force =     0.00009997   -0.00038948   -0.00075449
     atom    5 type  1   force =    -0.00093607   -0.00197070   -0.00069400
     atom    6 type  1   force =     0.00072576    0.00031869   -0.00032857
     atom    7 type  1   force =     0.00211839    0.00176882    0.00036693
     atom    8 type  1   force =    -0.00111866   -0.00163313    0.00027428
     atom    9 type  2   force =    -0.00023685    0.00143183    0.00049557
     atom   10 type  3   force =     0.00016915   -0.00107668    0.00039503
     atom   11 type  3   force =     0.00002055    0.00102679   -0.00235839
     atom   12 type  3   force =    -0.00176259    0.00009794   -0.00124482
     atom   13 type  4   force =     0.00213745   -0.00235740   -0.00071393
     atom   14 type  4   force =    -0.00024498    0.00097499   -0.00162543
     atom   15 type  4   force =    -0.00051614    0.00101945    0.00101889
     atom   16 type  4   force =    -0.00018589    0.00191023    0.00131725
     atom   17 type  4   force =    -0.00040386   -0.00122928    0.00070735
     atom   18 type  4   force =    -0.00165638   -0.00314404    0.00051982
     atom   19 type  4   force =    -0.00098390   -0.00018849    0.00072521
     atom   20 type  4   force =    -0.00101667    0.00052521   -0.00032933
     atom   21 type  4   force =    -0.00100681    0.00198997   -0.00087374
     atom   22 type  4   force =    -0.00180716    0.00098465   -0.00056323
     atom   23 type  4   force =     0.00132962   -0.00043234    0.00160755
     atom   24 type  4   force =     0.00235777   -0.00088409    0.00098330
     atom   25 type  4   force =     0.00056421   -0.00053273   -0.00038902
     atom   26 type  4   force =     0.00116145    0.00091663    0.00022077
     atom   27 type  4   force =    -0.00082687    0.00047215    0.00076538
     atom   28 type  4   force =     0.00116199    0.00146511   -0.00231093

     Total force =     0.010652     Total SCF correction =     0.000026


     Computing stress (Cartesian axis) and pressure

          total   stress  (Ry/bohr**3)                   (kbar)     P=        3.84
   0.00003017  -0.00000261   0.00000485            4.44       -0.38        0.71
  -0.00000261   0.00002250  -0.00000474           -0.38        3.31       -0.70
   0.00000485  -0.00000474   0.00002571            0.71       -0.70        3.78

     Energy error            =      3.4E-04 Ry
     Gradient error          =      3.1E-03 Ry/Bohr
     Cell gradient error     =      4.4E+00 kbar

     number of scf cycles    =  25
     number of bfgs steps    =  24

     enthalpy           old  =   -1616.7243301458 Ry
     enthalpy           new  =   -1616.7246692113 Ry

     CASE: enthalpy          _new < enthalpy          _old

     new trust radius        =       0.0840362395 bohr
     new conv_thr            =       0.0000000003 Ry

     new unit-cell volume =   1727.66986 a.u.^3 (   256.01426 Ang^3 )
     density =      2.89009 g/cm^3

CELL_PARAMETERS (angstrom)
   7.730624653   0.058272174  -0.080129649
  -5.126112469   5.671679585  -0.023907499
  -2.359772024   0.924790002   5.811224306

ATOMIC_POSITIONS (angstrom)
Mg              -4.2418115417        5.1864257732        5.4090957278
Mg              -3.0361407712        4.7457197954        2.5697441582
Mg               3.3763275469        1.9874838078        3.2071991736
Mg               4.4954322485        1.3486684292        0.3055708105
Mg               0.7813790829        6.3536635725        4.2399224773
Mg              -0.5444696978        0.2561746486        1.4216110980
Mg              -0.5178264699        3.5196652112        4.3236294604
Mg               0.7323927566        3.1647805590        1.3881014358
Co              -1.7152948824        5.8476432754        5.1524666372
Ni              -1.8824608533        2.3967485748        2.3578643076
Ni               2.1660559568        4.2671986776        3.3127746078
Ni               1.9483421236        0.7622142961        0.4951774948
H               -0.4578042260        5.1233579903        5.6668683140
H               -0.3947141821        2.0917540194        2.6773763183
H                0.6652297056        4.5461672424        3.0474736177
H                0.6805546881        1.5734040519        0.1590565771
H                5.1478673545        1.0743766862        2.3105780604
H                4.1166533526        1.5533359379        5.1053510083
H               -3.7160056393        4.9775934027        0.4643413091
H               -4.8724013030        5.5940648753        3.3779980110
H               -2.8294948827        6.1468070972        4.1216994501
H               -2.4704233183        3.1448958969        1.1393409845
H                2.6158717718        3.4687596779        4.5680733132
H                2.8908195616        0.7778551652        1.7205404816
H                0.4700907527        1.8799234916        5.0412027061
H                2.6880431716        3.5288417542        2.0494961387
H               -2.4348368378        3.0725430821        3.6454699522
H               -0.2350132381        4.7763176525        0.6225965729



     Writing config-only to output data dir ./outdir/mg2nih4_co_nisite.save/ :
     XML data file
     NEW-OLD atomic charge density approx. for the potential
     New effective cutoffs (rho, wfc):  516.97   64.67

     Check: negative core charge=   -0.000001

     total cpu time spent up to now is     9581.1 secs

     Self-consistent Calculation

     iteration #  1     ecut=    60.00 Ry     beta= 0.30
     Davidson diagonalization with overlap
     ethr =  1.00E-06,  avg # of iterations =  4.3

     total cpu time spent up to now is     9636.7 secs

     total energy              =   -1616.72496336 Ry
     estimated scf accuracy    <       0.00086960 Ry

     iteration #  2     ecut=    60.00 Ry     beta= 0.30
     Davidson diagonalization with overlap
     ethr =  8.44E-07,  avg # of iterations =  2.1

     total cpu time spent up to now is     9665.4 secs

     total energy              =   -1616.72496228 Ry
     estimated scf accuracy    <       0.00037435 Ry

     iteration #  3     ecut=    60.00 Ry     beta= 0.30
     Davidson diagonalization with overlap
     ethr =  3.63E-07,  avg # of iterations =  2.6

     total cpu time spent up to now is     9701.4 secs

     total energy              =   -1616.72495880 Ry
     estimated scf accuracy    <       0.00065436 Ry

     iteration #  4     ecut=    60.00 Ry     beta= 0.30
     Davidson diagonalization with overlap
     ethr =  3.63E-07,  avg # of iterations =  2.0

     total cpu time spent up to now is     9731.7 secs

     total energy              =   -1616.72499333 Ry
     estimated scf accuracy    <       0.00018673 Ry

     iteration #  5     ecut=    60.00 Ry     beta= 0.30
     Davidson diagonalization with overlap
     ethr =  1.81E-07,  avg # of iterations =  2.1

     total cpu time spent up to now is     9759.4 secs

     total energy              =   -1616.72500750 Ry
     estimated scf accuracy    <       0.00008173 Ry

     iteration #  6     ecut=    60.00 Ry     beta= 0.30
     Davidson diagonalization with overlap
     ethr =  7.94E-08,  avg # of iterations =  2.0

     total cpu time spent up to now is     9787.0 secs

     total energy              =   -1616.72501098 Ry
     estimated scf accuracy    <       0.00003446 Ry

     iteration #  7     ecut=    60.00 Ry     beta= 0.30
     Davidson diagonalization with overlap
     ethr =  3.35E-08,  avg # of iterations =  1.0

     total cpu time spent up to now is     9810.1 secs

     total energy              =   -1616.72501408 Ry
     estimated scf accuracy    <       0.00000108 Ry

     iteration #  8     ecut=    60.00 Ry     beta= 0.30
     Davidson diagonalization with overlap
     ethr =  1.05E-09,  avg # of iterations =  4.0

     total cpu time spent up to now is     9854.9 secs

     total energy              =   -1616.72501463 Ry
     estimated scf accuracy    <       0.00000063 Ry

     iteration #  9     ecut=    60.00 Ry     beta= 0.30
     Davidson diagonalization with overlap
     ethr =  6.14E-10,  avg # of iterations =  2.0

     total cpu time spent up to now is     9881.8 secs

     total energy              =   -1616.72501465 Ry
     estimated scf accuracy    <       0.00000051 Ry

     iteration # 10     ecut=    60.00 Ry     beta= 0.30
     Davidson diagonalization with overlap
     ethr =  4.94E-10,  avg # of iterations =  1.9

     total cpu time spent up to now is     9909.7 secs

     total energy              =   -1616.72501469 Ry
     estimated scf accuracy    <       0.00000011 Ry

     iteration # 11     ecut=    60.00 Ry     beta= 0.30
     Davidson diagonalization with overlap
     ethr =  1.06E-10,  avg # of iterations =  2.0

     total cpu time spent up to now is     9936.3 secs

     total energy              =   -1616.72501470 Ry
     estimated scf accuracy    <          5.3E-09 Ry

     iteration # 12     ecut=    60.00 Ry     beta= 0.30
     Davidson diagonalization with overlap
     ethr =  5.15E-12,  avg # of iterations =  2.0

     total cpu time spent up to now is     9963.6 secs

     total energy              =   -1616.72501470 Ry
     estimated scf accuracy    <          1.9E-09 Ry

     iteration # 13     ecut=    60.00 Ry     beta= 0.30
     Davidson diagonalization with overlap
     ethr =  1.80E-12,  avg # of iterations =  2.0

     total cpu time spent up to now is     9991.4 secs

     End of self-consistent calculation

     Number of k-points >= 100: set verbosity='high' to print the bands.

     the Fermi energy is     5.8457 ev

!    total energy              =   -1616.72501470 Ry
     estimated scf accuracy    <          1.1E-10 Ry
     smearing contrib. (-TS)   =       0.00054057 Ry
     internal energy E=F+TS    =   -1616.72555527 Ry

     The total energy is F=E-TS. E is the sum of the following terms:
     one-electron contribution =   -1365.68189497 Ry
     hartree contribution      =     711.51823561 Ry
     xc contribution           =    -164.44158176 Ry
     ewald contribution        =    -547.43466301 Ry
     DFT-D3 Dispersion         =      -0.35848732 Ry
     one-center paw contrib.   =    -250.32716383 Ry

     convergence has been achieved in  13 iterations

     Forces acting on atoms (cartesian axes, Ry/au):

     atom    1 type  1   force =    -0.00095600   -0.00138065    0.00080711
     atom    2 type  1   force =     0.00002562   -0.00016910    0.00110291
     atom    3 type  1   force =     0.00006662    0.00009055   -0.00024000
     atom    4 type  1   force =     0.00039985    0.00020424   -0.00074281
     atom    5 type  1   force =     0.00083305   -0.00261852   -0.00158000
     atom    6 type  1   force =     0.00120358    0.00022177    0.00037012
     atom    7 type  1   force =     0.00278475    0.00065111    0.00062099
     atom    8 type  1   force =    -0.00136802   -0.00153201    0.00030706
     atom    9 type  2   force =    -0.00032939    0.00256490    0.00105514
     atom   10 type  3   force =     0.00045340   -0.00168377    0.00013028
     atom   11 type  3   force =    -0.00029395    0.00100619   -0.00244253
     atom   12 type  3   force =    -0.00210231    0.00057543   -0.00112048
     atom   13 type  4   force =     0.00190950   -0.00231160   -0.00025641
     atom   14 type  4   force =    -0.00036781    0.00120188   -0.00145284
     atom   15 type  4   force =     0.00001674    0.00101362    0.00110925
     atom   16 type  4   force =    -0.00117653    0.00210087    0.00112766
     atom   17 type  4   force =    -0.00082200   -0.00155539    0.00081501
     atom   18 type  4   force =    -0.00189148   -0.00231816    0.00093884
     atom   19 type  4   force =    -0.00131508   -0.00020761    0.00053809
     atom   20 type  4   force =    -0.00126762    0.00011720   -0.00063859
     atom   21 type  4   force =    -0.00007085    0.00114198   -0.00056321
     atom   22 type  4   force =    -0.00199022    0.00119727   -0.00082561
     atom   23 type  4   force =     0.00127762   -0.00015945    0.00164660
     atom   24 type  4   force =     0.00258028   -0.00069643    0.00118666
     atom   25 type  4   force =     0.00046920   -0.00022787   -0.00089055
     atom   26 type  4   force =     0.00128195    0.00085534    0.00043207
     atom   27 type  4   force =    -0.00101824    0.00020414    0.00072854
     atom   28 type  4   force =     0.00166733    0.00171407   -0.00216330

     Total force =     0.011404     Total SCF correction =     0.000027


     Computing stress (Cartesian axis) and pressure

          total   stress  (Ry/bohr**3)                   (kbar)     P=        2.64
   0.00003003   0.00000181   0.00000308            4.42        0.27        0.45
   0.00000181   0.00001130  -0.00000173            0.27        1.66       -0.25
   0.00000308  -0.00000173   0.00001250            0.45       -0.25        1.84

     Energy error            =      3.5E-04 Ry
     Gradient error          =      2.8E-03 Ry/Bohr
     Cell gradient error     =      4.4E+00 kbar

     number of scf cycles    =  26
     number of bfgs steps    =  25

     enthalpy           old  =   -1616.7246692113 Ry
     enthalpy           new  =   -1616.7250147035 Ry

     CASE: enthalpy          _new < enthalpy          _old

     new trust radius        =       0.0495468102 bohr
     new conv_thr            =       0.0000000003 Ry

     new unit-cell volume =   1732.62113 a.u.^3 (   256.74796 Ang^3 )
     density =      2.88183 g/cm^3

CELL_PARAMETERS (angstrom)
   7.736587324   0.055565964  -0.086586332
  -5.132118486   5.682690509  -0.021415724
  -2.366870309   0.925392848   5.815736839

ATOMIC_POSITIONS (angstrom)
Mg              -4.2556416710        5.1954130548        5.4210720000
Mg              -3.0384706987        4.7567033086        2.5842034175
Mg               3.3736489855        1.9901501954        3.1990959651
Mg               4.4994980792        1.3459248759        0.2982854092
Mg               0.7705612585        6.3620319938        4.2401345694
Mg              -0.5453012369        0.2576348496        1.4226457135
Mg              -0.5205605989        3.5238095357        4.3237113194
Mg               0.7316554476        3.1686422139        1.3870783713
Co              -1.7268168451        5.8544559177        5.1493466162
Ni              -1.8873780089        2.4011851433        2.3602542930
Ni               2.1639127068        4.2750562454        3.3100149506
Ni               1.9500881738        0.7602166667        0.4959769595
H               -0.4667022918        5.1220092097        5.6551411878
H               -0.3973025291        2.0967611003        2.6720601803
H                0.6606052727        4.5537670236        3.0492627346
H                0.6870656836        1.5795132729        0.1633294022
H                5.1545519651        1.0731533321        2.3055278764
H                4.1184480050        1.5410624348        5.0963731906
H               -3.7235983907        4.9876052684        0.4705425256
H               -4.8834993809        5.6062697197        3.3870443610
H               -2.8489541449        6.1783199330        4.1331803505
H               -2.4834904992        3.1513382496        1.1452021351
H                2.6169315889        3.4687722355        4.5635697556
H                2.9001517133        0.7674284566        1.7184454253
H                0.4638859185        1.8788129167        5.0453309215
H                2.6878990698        3.5406165833        2.0457211098
H               -2.4395695524        3.0746130559        3.6501711857
H               -0.2352386221        4.7798237054        0.6155650358



     Writing config-only to output data dir ./outdir/mg2nih4_co_nisite.save/ :
     XML data file
     NEW-OLD atomic charge density approx. for the potential
     New effective cutoffs (rho, wfc):  516.87   64.63

     Check: negative core charge=   -0.000001

     total cpu time spent up to now is    10008.1 secs

     Self-consistent Calculation

     iteration #  1     ecut=    60.00 Ry     beta= 0.30
     Davidson diagonalization with overlap
     ethr =  1.00E-06,  avg # of iterations =  4.0

     total cpu time spent up to now is    10060.0 secs

     total energy              =   -1616.72516679 Ry
     estimated scf accuracy    <       0.00055197 Ry

     iteration #  2     ecut=    60.00 Ry     beta= 0.30
     Davidson diagonalization with overlap
     ethr =  5.36E-07,  avg # of iterations =  3.0

     total cpu time spent up to now is    10093.7 secs

     total energy              =   -1616.72516392 Ry
     estimated scf accuracy    <       0.00103525 Ry

     iteration #  3     ecut=    60.00 Ry     beta= 0.30
     Davidson diagonalization with overlap
     ethr =  5.36E-07,  avg # of iterations =  2.3

     total cpu time spent up to now is    10125.6 secs

     total energy              =   -1616.72525434 Ry
     estimated scf accuracy    <       0.00011504 Ry

     iteration #  4     ecut=    60.00 Ry     beta= 0.30
     Davidson diagonalization with overlap
     ethr =  1.12E-07,  avg # of iterations =  3.0

     total cpu time spent up to now is    10155.8 secs

     total energy              =   -1616.72524430 Ry
     estimated scf accuracy    <       0.00033423 Ry

     iteration #  5     ecut=    60.00 Ry     beta= 0.30
     Davidson diagonalization with overlap
     ethr =  1.12E-07,  avg # of iterations =  2.9

     total cpu time spent up to now is    10186.3 secs

     total energy              =   -1616.72526520 Ry
     estimated scf accuracy    <       0.00001374 Ry

     iteration #  6     ecut=    60.00 Ry     beta= 0.30
     Davidson diagonalization with overlap
     ethr =  1.33E-08,  avg # of iterations =  2.0

     total cpu time spent up to now is    10212.1 secs

     total energy              =   -1616.72526478 Ry
     estimated scf accuracy    <       0.00002849 Ry

     iteration #  7     ecut=    60.00 Ry     beta= 0.30
     Davidson diagonalization with overlap
     ethr =  1.33E-08,  avg # of iterations =  2.0

     total cpu time spent up to now is    10237.6 secs

     total energy              =   -1616.72526687 Ry
     estimated scf accuracy    <       0.00000054 Ry

     iteration #  8     ecut=    60.00 Ry     beta= 0.30
     Davidson diagonalization with overlap
     ethr =  5.20E-10,  avg # of iterations =  4.0

     total cpu time spent up to now is    10282.7 secs

     total energy              =   -1616.72526712 Ry
     estimated scf accuracy    <       0.00000031 Ry

     iteration #  9     ecut=    60.00 Ry     beta= 0.30
     Davidson diagonalization with overlap
     ethr =  2.97E-10,  avg # of iterations =  2.0

     total cpu time spent up to now is    10308.8 secs

     total energy              =   -1616.72526714 Ry
     estimated scf accuracy    <       0.00000023 Ry

     iteration # 10     ecut=    60.00 Ry     beta= 0.30
     Davidson diagonalization with overlap
     ethr =  2.22E-10,  avg # of iterations =  1.7

     total cpu time spent up to now is    10336.7 secs

     total energy              =   -1616.72526716 Ry
     estimated scf accuracy    <       0.00000002 Ry

     iteration # 11     ecut=    60.00 Ry     beta= 0.30
     Davidson diagonalization with overlap
     ethr =  1.75E-11,  avg # of iterations =  2.0

     total cpu time spent up to now is    10364.3 secs

     total energy              =   -1616.72526716 Ry
     estimated scf accuracy    <          2.1E-09 Ry

     iteration # 12     ecut=    60.00 Ry     beta= 0.30
     Davidson diagonalization with overlap
     ethr =  2.07E-12,  avg # of iterations =  1.7

     total cpu time spent up to now is    10392.2 secs

     total energy              =   -1616.72526716 Ry
     estimated scf accuracy    <          3.4E-10 Ry

     iteration # 13     ecut=    60.00 Ry     beta= 0.30
     Davidson diagonalization with overlap
     ethr =  3.27E-13,  avg # of iterations =  2.0

     total cpu time spent up to now is    10421.2 secs

     End of self-consistent calculation

     Number of k-points >= 100: set verbosity='high' to print the bands.

     the Fermi energy is     5.8212 ev

!    total energy              =   -1616.72526716 Ry
     estimated scf accuracy    <          2.2E-11 Ry
     smearing contrib. (-TS)   =       0.00055042 Ry
     internal energy E=F+TS    =   -1616.72581758 Ry

     The total energy is F=E-TS. E is the sum of the following terms:
     one-electron contribution =   -1366.69930259 Ry
     hartree contribution      =     711.93446110 Ry
     xc contribution           =    -164.42167693 Ry
     ewald contribution        =    -546.85740018 Ry
     DFT-D3 Dispersion         =      -0.35750356 Ry
     one-center paw contrib.   =    -250.32439542 Ry

     convergence has been achieved in  13 iterations

     Forces acting on atoms (cartesian axes, Ry/au):

     atom    1 type  1   force =    -0.00145701   -0.00175390    0.00033290
     atom    2 type  1   force =    -0.00039164   -0.00001186    0.00088209
     atom    3 type  1   force =     0.00023288    0.00026716   -0.00030016
     atom    4 type  1   force =     0.00055425    0.00042773   -0.00069741
     atom    5 type  1   force =     0.00181845   -0.00273623   -0.00191449
     atom    6 type  1   force =     0.00134754    0.00002914    0.00054207
     atom    7 type  1   force =     0.00275355   -0.00035431    0.00069383
     atom    8 type  1   force =    -0.00125629   -0.00084052    0.00011847
     atom    9 type  2   force =     0.00010821    0.00172166    0.00097601
     atom   10 type  3   force =     0.00018143   -0.00156853   -0.00028255
     atom   11 type  3   force =    -0.00041333    0.00040423   -0.00138780
     atom   12 type  3   force =    -0.00152038    0.00086339   -0.00046263
     atom   13 type  4   force =     0.00088812   -0.00164429   -0.00007079
     atom   14 type  4   force =    -0.00046434    0.00127813   -0.00117830
     atom   15 type  4   force =     0.00053167    0.00081016    0.00110959
     atom   16 type  4   force =    -0.00171062    0.00196038    0.00090574
     atom   17 type  4   force =    -0.00096216   -0.00144144    0.00082314
     atom   18 type  4   force =    -0.00135806   -0.00072371    0.00100001
     atom   19 type  4   force =    -0.00140252    0.00001401    0.00033292
     atom   20 type  4   force =    -0.00127462   -0.00008607   -0.00078412
     atom   21 type  4   force =     0.00054666    0.00049689   -0.00020688
     atom   22 type  4   force =    -0.00184087    0.00101157   -0.00054437
     atom   23 type  4   force =     0.00094875    0.00039783    0.00101413
     atom   24 type  4   force =     0.00207300   -0.00057957    0.00059974
     atom   25 type  4   force =     0.00019283    0.00001913   -0.00095384
     atom   26 type  4   force =     0.00126949    0.00065240    0.00028789
     atom   27 type  4   force =    -0.00089411   -0.00013117    0.00050255
     atom   28 type  4   force =     0.00149911    0.00151778   -0.00133773

     Total force =     0.009861     Total SCF correction =     0.000021


     Computing stress (Cartesian axis) and pressure

          total   stress  (Ry/bohr**3)                   (kbar)     P=        0.45
   0.00001798   0.00000544  -0.00000074            2.65        0.80       -0.11
   0.00000544  -0.00000410   0.00000074            0.80       -0.60        0.11
  -0.00000074   0.00000074  -0.00000469           -0.11        0.11       -0.69

     Energy error            =      2.5E-04 Ry
     Gradient error          =      2.8E-03 Ry/Bohr
     Cell gradient error     =      2.6E+00 kbar

     number of scf cycles    =  27
     number of bfgs steps    =  26

     enthalpy           old  =   -1616.7250147035 Ry
     enthalpy           new  =   -1616.7252671582 Ry

     CASE: enthalpy          _new < enthalpy          _old

     new trust radius        =       0.0273635159 bohr
     new conv_thr            =       0.0000000003 Ry

     new unit-cell volume =   1736.55461 a.u.^3 (   257.33084 Ang^3 )
     density =      2.87530 g/cm^3

CELL_PARAMETERS (angstrom)
   7.745423108   0.056266427  -0.090958110
  -5.137534261   5.687364779  -0.019488781
  -2.372699963   0.925105973   5.818291385

ATOMIC_POSITIONS (angstrom)
Mg              -4.2663397801        5.1978157845        5.4284188989
Mg              -3.0410494784        4.7618569470        2.5929024055
Mg               3.3751385009        1.9927515482        3.1939151492
Mg               4.5054947403        1.3458386411        0.2933628215
Mg               0.7677834410        6.3652232139        4.2385480241
Mg              -0.5451712350        0.2578495809        1.4234366422
Mg              -0.5197795633        3.5263720037        4.3241726625
Mg               0.7311457350        3.1698180139        1.3869092167
Co              -1.7329197651        5.8582661683        5.1480931541
Ni              -1.8911839839        2.4018006829        2.3617072023
Ni               2.1651927688        4.2804777600        3.3069072479
Ni               1.9514467158        0.7601260537        0.4955271968
H               -0.4697041369        5.1205535393        5.6496694791
H               -0.3992108266        2.1005805012        2.6682453035
H                0.6601213486        4.5590604516        3.0507802260
H                0.6901643265        1.5845331398        0.1661012440
H                5.1611785049        1.0729537781        2.3028615484
H                4.1208808716        1.5339816685        5.0918084345
H               -3.7300863280        4.9922577884        0.4748120242
H               -4.8930720770        5.6116949144        3.3916818196
H               -2.8598218285        6.1954741228        4.1392174089
H               -2.4931032855        3.1549267885        1.1485633334
H                2.6206993382        3.4702685291        4.5614126964
H                2.9088745925        0.7622386288        1.7169046740
H                0.4609601178        1.8784789008        5.0467087621
H                2.6919146424        3.5481727603        2.0436842445
H               -2.4441928772        3.0751416059        3.6532366259
H               -0.2327161082        4.7838069931        0.6102344795



     Writing config-only to output data dir ./outdir/mg2nih4_co_nisite.save/ :
     XML data file
     NEW-OLD atomic charge density approx. for the potential
     New effective cutoffs (rho, wfc):  516.79   64.61

     Check: negative core charge=   -0.000001

     total cpu time spent up to now is    10438.8 secs

     Self-consistent Calculation

     iteration #  1     ecut=    60.00 Ry     beta= 0.30
     Davidson diagonalization with overlap
     ethr =  1.00E-06,  avg # of iterations =  3.1

     total cpu time spent up to now is    10483.7 secs

     total energy              =   -1616.72538898 Ry
     estimated scf accuracy    <       0.00024554 Ry

     iteration #  2     ecut=    60.00 Ry     beta= 0.30
     Davidson diagonalization with overlap
     ethr =  2.38E-07,  avg # of iterations =  3.0

     total cpu time spent up to now is    10519.4 secs

     total energy              =   -1616.72538921 Ry
     estimated scf accuracy    <       0.00060725 Ry

     iteration #  3     ecut=    60.00 Ry     beta= 0.30
     Davidson diagonalization with overlap
     ethr =  2.38E-07,  avg # of iterations =  2.8

     total cpu time spent up to now is    10552.5 secs

     total energy              =   -1616.72543956 Ry
     estimated scf accuracy    <       0.00004279 Ry

     iteration #  4     ecut=    60.00 Ry     beta= 0.30
     Davidson diagonalization with overlap
     ethr =  4.15E-08,  avg # of iterations =  3.0

     total cpu time spent up to now is    10581.7 secs

     total energy              =   -1616.72543575 Ry
     estimated scf accuracy    <       0.00015060 Ry

     iteration #  5     ecut=    60.00 Ry     beta= 0.30
     Davidson diagonalization with overlap
     ethr =  4.15E-08,  avg # of iterations =  3.0

     total cpu time spent up to now is    10613.7 secs

     total energy              =   -1616.72544475 Ry
     estimated scf accuracy    <       0.00000309 Ry

     iteration #  6     ecut=    60.00 Ry     beta= 0.30
     Davidson diagonalization with overlap
     ethr =  3.00E-09,  avg # of iterations =  2.1

     total cpu time spent up to now is    10645.1 secs

     total energy              =   -1616.72544461 Ry
     estimated scf accuracy    <       0.00000736 Ry

     iteration #  7     ecut=    60.00 Ry     beta= 0.30
     Davidson diagonalization with overlap
     ethr =  3.00E-09,  avg # of iterations =  2.0

     total cpu time spent up to now is    10672.7 secs

     total energy              =   -1616.72544516 Ry
     estimated scf accuracy    <       0.00000017 Ry

     iteration #  8     ecut=    60.00 Ry     beta= 0.30
     Davidson diagonalization with overlap
     ethr =  1.60E-10,  avg # of iterations =  4.0

     total cpu time spent up to now is    10715.5 secs

     total energy              =   -1616.72544524 Ry
     estimated scf accuracy    <       0.00000007 Ry

     iteration #  9     ecut=    60.00 Ry     beta= 0.30
     Davidson diagonalization with overlap
     ethr =  6.79E-11,  avg # of iterations =  2.0

     total cpu time spent up to now is    10740.4 secs

     total energy              =   -1616.72544524 Ry
     estimated scf accuracy    <       0.00000005 Ry

     iteration # 10     ecut=    60.00 Ry     beta= 0.30
     Davidson diagonalization with overlap
     ethr =  4.70E-11,  avg # of iterations =  1.3

     total cpu time spent up to now is    10763.5 secs

     total energy              =   -1616.72544524 Ry
     estimated scf accuracy    <          2.1E-09 Ry

     iteration # 11     ecut=    60.00 Ry     beta= 0.30
     Davidson diagonalization with overlap
     ethr =  2.01E-12,  avg # of iterations =  2.9

     total cpu time spent up to now is    10793.1 secs

     total energy              =   -1616.72544524 Ry
     estimated scf accuracy    <          6.3E-10 Ry

     iteration # 12     ecut=    60.00 Ry     beta= 0.30
     Davidson diagonalization with overlap
     ethr =  6.10E-13,  avg # of iterations =  2.0

     total cpu time spent up to now is    10817.4 secs

     End of self-consistent calculation

     Number of k-points >= 100: set verbosity='high' to print the bands.

     the Fermi energy is     5.8028 ev

!    total energy              =   -1616.72544524 Ry
     estimated scf accuracy    <          9.5E-11 Ry
     smearing contrib. (-TS)   =       0.00055725 Ry
     internal energy E=F+TS    =   -1616.72600249 Ry

     The total energy is F=E-TS. E is the sum of the following terms:
     one-electron contribution =   -1367.48849838 Ry
     hartree contribution      =     712.25878454 Ry
     xc contribution           =    -164.40524309 Ry
     ewald contribution        =    -546.41207289 Ry
     DFT-D3 Dispersion         =      -0.35673028 Ry
     one-center paw contrib.   =    -250.32224240 Ry

     convergence has been achieved in  12 iterations

     Forces acting on atoms (cartesian axes, Ry/au):

     atom    1 type  1   force =    -0.00120494   -0.00155411    0.00010488
     atom    2 type  1   force =    -0.00057246    0.00013709    0.00071332
     atom    3 type  1   force =     0.00044672    0.00023364   -0.00020476
     atom    4 type  1   force =     0.00045500    0.00030661   -0.00061938
     atom    5 type  1   force =     0.00198066   -0.00238066   -0.00171197
     atom    6 type  1   force =     0.00126205   -0.00009495    0.00028710
     atom    7 type  1   force =     0.00218387   -0.00108281    0.00055049
     atom    8 type  1   force =    -0.00085781    0.00004563   -0.00008190
     atom    9 type  2   force =     0.00050027    0.00014046    0.00027084
     atom   10 type  3   force =    -0.00043595   -0.00095534   -0.00052762
     atom   11 type  3   force =    -0.00032008   -0.00036706   -0.00002226
     atom   12 type  3   force =    -0.00054521    0.00089641    0.00023386
     atom   13 type  4   force =    -0.00037756   -0.00086647   -0.00023571
     atom   14 type  4   force =    -0.00054864    0.00121843   -0.00092570
     atom   15 type  4   force =     0.00083107    0.00051162    0.00102525
     atom   16 type  4   force =    -0.00162949    0.00153938    0.00075519
     atom   17 type  4   force =    -0.00085520   -0.00103204    0.00074137
     atom   18 type  4   force =    -0.00053631    0.00086827    0.00085092
     atom   19 type  4   force =    -0.00128887    0.00039421    0.00016703
     atom   20 type  4   force =    -0.00112155   -0.00009534   -0.00075976
     atom   21 type  4   force =     0.00110107    0.00003931    0.00026510
     atom   22 type  4   force =    -0.00156483    0.00057802    0.00005261
     atom   23 type  4   force =     0.00058687    0.00090546    0.00022638
     atom   24 type  4   force =     0.00122114   -0.00058648   -0.00039703
     atom   25 type  4   force =    -0.00015146    0.00009854   -0.00061827
     atom   26 type  4   force =     0.00115468    0.00041506   -0.00007373
     atom   27 type  4   force =    -0.00053348   -0.00043370    0.00015505
     atom   28 type  4   force =     0.00082046    0.00112082   -0.00022130

     Total force =     0.007791     Total SCF correction =     0.000016


     Computing stress (Cartesian axis) and pressure

          total   stress  (Ry/bohr**3)                   (kbar)     P=       -1.38
   0.00000251   0.00000663  -0.00000509            0.37        0.97       -0.75
   0.00000663  -0.00001440   0.00000244            0.97       -2.12        0.36
  -0.00000509   0.00000244  -0.00001628           -0.75        0.36       -2.39

     Energy error            =      1.8E-04 Ry
     Gradient error          =      2.4E-03 Ry/Bohr
     Cell gradient error     =      2.4E+00 kbar

     number of scf cycles    =  28
     number of bfgs steps    =  27

     enthalpy           old  =   -1616.7252671582 Ry
     enthalpy           new  =   -1616.7254452444 Ry

     CASE: enthalpy          _new < enthalpy          _old

     new trust radius        =       0.0158937849 bohr
     new conv_thr            =       0.0000000002 Ry

     new unit-cell volume =   1738.41658 a.u.^3 (   257.60676 Ang^3 )
     density =      2.87222 g/cm^3

CELL_PARAMETERS (angstrom)
   7.753875868   0.058379600  -0.094834783
  -5.141673278   5.687252260  -0.017069902
  -2.377804767   0.924559219   5.818082699

ATOMIC_POSITIONS (angstrom)
Mg              -4.2752470648        5.1958601797        5.4321708038
Mg              -3.0436936107        4.7629254593        2.5987265501
Mg               3.3776689614        1.9948732808        3.1890946488
Mg               4.5115678159        1.3466173506        0.2890980202
Mg               0.7685460408        6.3631904124        4.2348397450
Mg              -0.5442086892        0.2581444216        1.4236861761
Mg              -0.5171600364        3.5261882408        4.3235732081
Mg               0.7307875310        3.1697134070        1.3863835658
Co              -1.7365063797        5.8592607362        5.1464917612
Ni              -1.8945195397        2.4001863700        2.3619372050
Ni               2.1669996541        4.2830477028        3.3032718671
Ni               1.9524043687        0.7609566691        0.4947449499
H               -0.4715666818        5.1168236239        5.6436227638
H               -0.4009478390        2.1036710120        2.6637459821
H                0.6611677761        4.5617529484        3.0519739624
H                0.6914538338        1.5890614658        0.1688824604
H                5.1662877791        1.0726661627        2.3005424520
H                4.1226602988        1.5308058203        5.0876082365
H               -3.7359145424        4.9929531252        0.4784129750
H               -4.9012325796        5.6124233853        3.3936904943
H               -2.8656720807        6.2036471130        4.1421481121
H               -2.5010264813        3.1562122209        1.1507715082
H                2.6248952963        3.4717703576        4.5586133157
H                2.9166114353        0.7589708647        1.7147381636
H                0.4591613267        1.8780754578        5.0451466828
H                2.6970373526        3.5529376330        2.0414627270
H               -2.4484175543        3.0740819741        3.6545741943
H               -0.2295668574        4.7858577041        0.6065396786



     Writing config-only to output data dir ./outdir/mg2nih4_co_nisite.save/ :
     XML data file
     NEW-OLD atomic charge density approx. for the potential
     New effective cutoffs (rho, wfc):  517.01   64.63

     Check: negative core charge=   -0.000001

     total cpu time spent up to now is    10832.8 secs

     Self-consistent Calculation

     iteration #  1     ecut=    60.00 Ry     beta= 0.30
     Davidson diagonalization with overlap
     ethr =  1.00E-06,  avg # of iterations =  3.0

     Threshold (ethr) on eigenvalues was too large:
     Diagonalizing with lowered threshold

     Davidson diagonalization with overlap
     ethr =  9.52E-08,  avg # of iterations =  1.0

     total cpu time spent up to now is    10889.8 secs

     total energy              =   -1616.72558405 Ry
     estimated scf accuracy    <       0.00009833 Ry

     iteration #  2     ecut=    60.00 Ry     beta= 0.30
     Davidson diagonalization with overlap
     ethr =  9.55E-08,  avg # of iterations =  2.1

     total cpu time spent up to now is    10916.3 secs

     total energy              =   -1616.72558283 Ry
     estimated scf accuracy    <       0.00012888 Ry

     iteration #  3     ecut=    60.00 Ry     beta= 0.30
     Davidson diagonalization with overlap
     ethr =  9.55E-08,  avg # of iterations =  2.0

     total cpu time spent up to now is    10941.3 secs

     total energy              =   -1616.72559490 Ry
     estimated scf accuracy    <       0.00002320 Ry

     iteration #  4     ecut=    60.00 Ry     beta= 0.30
     Davidson diagonalization with overlap
     ethr =  2.25E-08,  avg # of iterations =  2.0

     total cpu time spent up to now is    10965.5 secs

     total energy              =   -1616.72559432 Ry
     estimated scf accuracy    <       0.00002762 Ry

     iteration #  5     ecut=    60.00 Ry     beta= 0.30
     Davidson diagonalization with overlap
     ethr =  2.25E-08,  avg # of iterations =  2.0

     total cpu time spent up to now is    10989.7 secs

     total energy              =   -1616.72559648 Ry
     estimated scf accuracy    <       0.00000407 Ry

     iteration #  6     ecut=    60.00 Ry     beta= 0.30
     Davidson diagonalization with overlap
     ethr =  3.95E-09,  avg # of iterations =  1.9

     total cpu time spent up to now is    11017.6 secs

     total energy              =   -1616.72559659 Ry
     estimated scf accuracy    <       0.00000237 Ry

     iteration #  7     ecut=    60.00 Ry     beta= 0.30
     Davidson diagonalization with overlap
     ethr =  2.31E-09,  avg # of iterations =  1.1

     total cpu time spent up to now is    11041.5 secs

     total energy              =   -1616.72559679 Ry
     estimated scf accuracy    <       0.00000018 Ry

     iteration #  8     ecut=    60.00 Ry     beta= 0.30
     Davidson diagonalization with overlap
     ethr =  1.74E-10,  avg # of iterations =  4.0

     total cpu time spent up to now is    11086.1 secs

     total energy              =   -1616.72559685 Ry
     estimated scf accuracy    <       0.00000007 Ry

     iteration #  9     ecut=    60.00 Ry     beta= 0.30
     Davidson diagonalization with overlap
     ethr =  6.75E-11,  avg # of iterations =  1.9

     total cpu time spent up to now is    11117.0 secs

     total energy              =   -1616.72559685 Ry
     estimated scf accuracy    <       0.00000002 Ry

     iteration # 10     ecut=    60.00 Ry     beta= 0.30
     Davidson diagonalization with overlap
     ethr =  1.69E-11,  avg # of iterations =  2.0

     total cpu time spent up to now is    11148.9 secs

     total energy              =   -1616.72559686 Ry
     estimated scf accuracy    <          7.9E-09 Ry

     iteration # 11     ecut=    60.00 Ry     beta= 0.30
     Davidson diagonalization with overlap
     ethr =  7.64E-12,  avg # of iterations =  1.2

     total cpu time spent up to now is    11171.7 secs

     total energy              =   -1616.72559686 Ry
     estimated scf accuracy    <          4.7E-10 Ry

     iteration # 12     ecut=    60.00 Ry     beta= 0.30
     Davidson diagonalization with overlap
     ethr =  4.52E-13,  avg # of iterations =  2.7

     total cpu time spent up to now is    11205.8 secs

     End of self-consistent calculation

     Number of k-points >= 100: set verbosity='high' to print the bands.

     the Fermi energy is     5.7948 ev

!    total energy              =   -1616.72559686 Ry
     estimated scf accuracy    <          1.0E-10 Ry
     smearing contrib. (-TS)   =       0.00056449 Ry
     internal energy E=F+TS    =   -1616.72616134 Ry

     The total energy is F=E-TS. E is the sum of the following terms:
     one-electron contribution =   -1367.85028245 Ry
     hartree contribution      =     712.40761222 Ry
     xc contribution           =    -164.39750088 Ry
     ewald contribution        =    -546.20833959 Ry
     DFT-D3 Dispersion         =      -0.35636844 Ry
     one-center paw contrib.   =    -250.32128220 Ry

     convergence has been achieved in  12 iterations

     Forces acting on atoms (cartesian axes, Ry/au):

     atom    1 type  1   force =    -0.00055680   -0.00108203    0.00013163
     atom    2 type  1   force =    -0.00054452    0.00028125    0.00057488
     atom    3 type  1   force =     0.00066888    0.00003542   -0.00014973
     atom    4 type  1   force =     0.00021367    0.00003460   -0.00052123
     atom    5 type  1   force =     0.00161787   -0.00166811   -0.00118248
     atom    6 type  1   force =     0.00105335   -0.00020200   -0.00020786
     atom    7 type  1   force =     0.00130404   -0.00153342    0.00026862
     atom    8 type  1   force =    -0.00036207    0.00085309   -0.00019812
     atom    9 type  2   force =     0.00075325   -0.00141555   -0.00055880
     atom   10 type  3   force =    -0.00104783   -0.00025667   -0.00059153
     atom   11 type  3   force =    -0.00002887   -0.00098167    0.00103521
     atom   12 type  3   force =     0.00035160    0.00076094    0.00069109
     atom   13 type  4   force =    -0.00109393   -0.00025778   -0.00021802
     atom   14 type  4   force =    -0.00054026    0.00105856   -0.00064977
     atom   15 type  4   force =     0.00085120    0.00020230    0.00081844
     atom   16 type  4   force =    -0.00125807    0.00097005    0.00056427
     atom   17 type  4   force =    -0.00064997   -0.00053236    0.00060322
     atom   18 type  4   force =     0.00026941    0.00203943    0.00066433
     atom   19 type  4   force =    -0.00109136    0.00079449    0.00004521
     atom   20 type  4   force =    -0.00089950    0.00001504   -0.00064631
     atom   21 type  4   force =     0.00112810   -0.00013237    0.00040474
     atom   22 type  4   force =    -0.00136968    0.00017921    0.00055820
     atom   23 type  4   force =     0.00034902    0.00113774   -0.00026989
     atom   24 type  4   force =     0.00046815   -0.00063882   -0.00127102
     atom   25 type  4   force =    -0.00049068    0.00003793   -0.00014847
     atom   26 type  4   force =     0.00099562    0.00020629   -0.00046971
     atom   27 type  4   force =    -0.00011883   -0.00066051   -0.00010959
     atom   28 type  4   force =     0.00002819    0.00075493    0.00083267

     Total force =     0.007106     Total SCF correction =     0.000028


     Computing stress (Cartesian axis) and pressure

          total   stress  (Ry/bohr**3)                   (kbar)     P=       -2.28
  -0.00000903   0.00000544  -0.00000748           -1.33        0.80       -1.10
   0.00000544  -0.00001779   0.00000263            0.80       -2.62        0.39
  -0.00000748   0.00000263  -0.00001960           -1.10        0.39       -2.88

     Energy error            =      1.5E-04 Ry
     Gradient error          =      2.0E-03 Ry/Bohr
     Cell gradient error     =      2.9E+00 kbar

     number of scf cycles    =  29
     number of bfgs steps    =  28

     enthalpy           old  =   -1616.7254452444 Ry
     enthalpy           new  =   -1616.7255968561 Ry

     CASE: enthalpy          _new < enthalpy          _old

     new trust radius        =       0.0286021726 bohr
     new conv_thr            =       0.0000000002 Ry

     new unit-cell volume =   1737.46441 a.u.^3 (   257.46566 Ang^3 )
     density =      2.87380 g/cm^3

CELL_PARAMETERS (angstrom)
   7.761297174   0.061788637  -0.101686268
  -5.144205315   5.682548089  -0.013000602
  -2.384661835   0.922627978   5.813946951

ATOMIC_POSITIONS (angstrom)
Mg              -4.2860062752        5.1876684254        5.4348121003
Mg              -3.0455827298        4.7615177127        2.6069652647
Mg               3.3794164715        1.9962772198        3.1784202404
Mg               4.5179076822        1.3469456005        0.2807257685
Mg               0.7697336843        6.3553994092        4.2257120559
Mg              -0.5425825982        0.2576104865        1.4226378608
Mg              -0.5135351085        3.5226497520        4.3196429364
Mg               0.7298086727        3.1676891360        1.3836189648
Co              -1.7408855229        5.8548926243        5.1393925960
Ni              -1.8982400053        2.3964675496        2.3596564966
Ni               2.1675043905        4.2823495789        3.2965646713
Ni               1.9530715834        0.7626932281        0.4941883509
H               -0.4755863003        5.1085392241        5.6323704989
H               -0.4031614746        2.1059128631        2.6566456110
H                0.6619219772        4.5618395258        3.0503831719
H                0.6914944881        1.5933578825        0.1713456595
H                5.1702885134        1.0714964063        2.2938097104
H                4.1242460559        1.5270404271        5.0753028713
H               -3.7419313887        4.9903641471        0.4837017107
H               -4.9102419427        5.6088091299        3.3952315236
H               -2.8750946633        6.2123827131        4.1449642395
H               -2.5119764121        3.1557951752        1.1534039306
H                2.6285212332        3.4705442048        4.5503457591
H                2.9264162824        0.7531488241        1.7094879789
H                0.4545952577        1.8760872557        5.0390705197
H                2.7024811152        3.5575765884        2.0348978026
H               -2.4533414280        3.0683973818        3.6543887531
H               -0.2252212197        4.7840533794        0.6019540764



     Writing config-only to output data dir ./outdir/mg2nih4_co_nisite.save/ :
     XML data file
     NEW-OLD atomic charge density approx. for the potential
     New effective cutoffs (rho, wfc):  518.18   64.76

     Check: negative core charge=   -0.000001

     total cpu time spent up to now is    11223.1 secs

     Self-consistent Calculation

     iteration #  1     ecut=    60.00 Ry     beta= 0.30
     Davidson diagonalization with overlap
     ethr =  1.00E-06,  avg # of iterations =  3.4

     total cpu time spent up to now is    11269.6 secs

     total energy              =   -1616.72576208 Ry
     estimated scf accuracy    <       0.00013271 Ry

     iteration #  2     ecut=    60.00 Ry     beta= 0.30
     Davidson diagonalization with overlap
     ethr =  1.29E-07,  avg # of iterations =  2.0

     total cpu time spent up to now is    11299.4 secs

     total energy              =   -1616.72575760 Ry
     estimated scf accuracy    <       0.00009562 Ry

     iteration #  3     ecut=    60.00 Ry     beta= 0.30
     Davidson diagonalization with overlap
     ethr =  9.28E-08,  avg # of iterations =  2.0

     total cpu time spent up to now is    11327.6 secs

     total energy              =   -1616.72576285 Ry
     estimated scf accuracy    <       0.00006241 Ry

     iteration #  4     ecut=    60.00 Ry     beta= 0.30
     Davidson diagonalization with overlap
     ethr =  6.06E-08,  avg # of iterations =  1.8

     total cpu time spent up to now is    11356.3 secs

     total energy              =   -1616.72576433 Ry
     estimated scf accuracy    <       0.00004254 Ry

     iteration #  5     ecut=    60.00 Ry     beta= 0.30
     Davidson diagonalization with overlap
     ethr =  4.13E-08,  avg # of iterations =  2.0

     total cpu time spent up to now is    11383.9 secs

     total energy              =   -1616.72576803 Ry
     estimated scf accuracy    <       0.00000531 Ry

     iteration #  6     ecut=    60.00 Ry     beta= 0.30
     Davidson diagonalization with overlap
     ethr =  5.15E-09,  avg # of iterations =  2.0

     total cpu time spent up to now is    11411.5 secs

     total energy              =   -1616.72576818 Ry
     estimated scf accuracy    <       0.00000380 Ry

     iteration #  7     ecut=    60.00 Ry     beta= 0.30
     Davidson diagonalization with overlap
     ethr =  3.69E-09,  avg # of iterations =  1.1

     total cpu time spent up to now is    11436.4 secs

     total energy              =   -1616.72576850 Ry
     estimated scf accuracy    <       0.00000028 Ry

     iteration #  8     ecut=    60.00 Ry     beta= 0.30
     Davidson diagonalization with overlap
     ethr =  2.73E-10,  avg # of iterations =  4.0

     total cpu time spent up to now is    11483.5 secs

     total energy              =   -1616.72576863 Ry
     estimated scf accuracy    <       0.00000014 Ry

     iteration #  9     ecut=    60.00 Ry     beta= 0.30
     Davidson diagonalization with overlap
     ethr =  1.34E-10,  avg # of iterations =  1.8

     total cpu time spent up to now is    11512.7 secs

     total energy              =   -1616.72576863 Ry
     estimated scf accuracy    <       0.00000007 Ry

     iteration # 10     ecut=    60.00 Ry     beta= 0.30
     Davidson diagonalization with overlap
     ethr =  7.11E-11,  avg # of iterations =  2.0

     total cpu time spent up to now is    11537.0 secs

     total energy              =   -1616.72576864 Ry
     estimated scf accuracy    <          7.9E-09 Ry

     iteration # 11     ecut=    60.00 Ry     beta= 0.30
     Davidson diagonalization with overlap
     ethr =  7.68E-12,  avg # of iterations =  2.0

     total cpu time spent up to now is    11562.3 secs

     total energy              =   -1616.72576864 Ry
     estimated scf accuracy    <          6.0E-10 Ry

     iteration # 12     ecut=    60.00 Ry     beta= 0.30
     Davidson diagonalization with overlap
     ethr =  5.79E-13,  avg # of iterations =  2.0

     total cpu time spent up to now is    11588.6 secs

     End of self-consistent calculation

     Number of k-points >= 100: set verbosity='high' to print the bands.

     the Fermi energy is     5.8036 ev

!    total energy              =   -1616.72576864 Ry
     estimated scf accuracy    <          1.2E-10 Ry
     smearing contrib. (-TS)   =       0.00057761 Ry
     internal energy E=F+TS    =   -1616.72634625 Ry

     The total energy is F=E-TS. E is the sum of the following terms:
     one-electron contribution =   -1367.53059715 Ry
     hartree contribution      =     712.26590344 Ry
     xc contribution           =    -164.39927572 Ry
     ewald contribution        =    -546.38408923 Ry
     DFT-D3 Dispersion         =      -0.35656284 Ry
     one-center paw contrib.   =    -250.32172474 Ry

     convergence has been achieved in  12 iterations

     Forces acting on atoms (cartesian axes, Ry/au):

     atom    1 type  1   force =     0.00033913   -0.00041647    0.00032069
     atom    2 type  1   force =    -0.00040255    0.00041784    0.00040430
     atom    3 type  1   force =     0.00087631   -0.00027900   -0.00023665
     atom    4 type  1   force =    -0.00017806   -0.00029062   -0.00038260
     atom    5 type  1   force =     0.00105763   -0.00063630   -0.00044325
     atom    6 type  1   force =     0.00080386   -0.00023210   -0.00080814
     atom    7 type  1   force =     0.00015260   -0.00189874   -0.00019340
     atom    8 type  1   force =     0.00023389    0.00156075   -0.00015907
     atom    9 type  2   force =     0.00050448   -0.00216385   -0.00143163
     atom   10 type  3   force =    -0.00154342    0.00043824   -0.00047092
     atom   11 type  3   force =     0.00045887   -0.00142214    0.00161100
     atom   12 type  3   force =     0.00103884    0.00050237    0.00088783
     atom   13 type  4   force =    -0.00135568    0.00015282   -0.00002983
     atom   14 type  4   force =    -0.00051156    0.00082262   -0.00033329
     atom   15 type  4   force =     0.00065133   -0.00016424    0.00047376
     atom   16 type  4   force =    -0.00062894    0.00019688    0.00030590
     atom   17 type  4   force =    -0.00038823    0.00001898    0.00037923
     atom   18 type  4   force =     0.00080216    0.00266289    0.00056497
     atom   19 type  4   force =    -0.00085923    0.00121758   -0.00008558
     atom   20 type  4   force =    -0.00065084    0.00015241   -0.00046633
     atom   21 type  4   force =     0.00127842   -0.00036866    0.00056292
     atom   22 type  4   force =    -0.00132340   -0.00018826    0.00096700
     atom   23 type  4   force =     0.00025851    0.00109149   -0.00041799
     atom   24 type  4   force =    -0.00015725   -0.00073024   -0.00201316
     atom   25 type  4   force =    -0.00084059   -0.00015802    0.00038499
     atom   26 type  4   force =     0.00076141    0.00005548   -0.00079816
     atom   27 type  4   force =     0.00033609   -0.00085782   -0.00031844
     atom   28 type  4   force =    -0.00071376    0.00051611    0.00172585

     Total force =     0.007814     Total SCF correction =     0.000033


     Computing stress (Cartesian axis) and pressure

          total   stress  (Ry/bohr**3)                   (kbar)     P=       -2.23
  -0.00001632   0.00000217  -0.00000823           -2.40        0.32       -1.21
   0.00000217  -0.00001401   0.00000242            0.32       -2.06        0.36
  -0.00000823   0.00000242  -0.00001513           -1.21        0.36       -2.23

     Energy error            =      1.7E-04 Ry
     Gradient error          =      2.7E-03 Ry/Bohr
     Cell gradient error     =      2.4E+00 kbar

     number of scf cycles    =  30
     number of bfgs steps    =  29

     enthalpy           old  =   -1616.7255968561 Ry
     enthalpy           new  =   -1616.7257686412 Ry

     CASE: enthalpy          _new < enthalpy          _old

     new trust radius        =       0.0248216131 bohr
     new conv_thr            =       0.0000000002 Ry

     new unit-cell volume =   1734.38025 a.u.^3 (   257.00864 Ang^3 )
     density =      2.87891 g/cm^3

CELL_PARAMETERS (angstrom)
   7.764789171   0.063880652  -0.109186943
  -5.145108126   5.676586503  -0.007888838
  -2.391046507   0.921323783   5.808098458

ATOMIC_POSITIONS (angstrom)
Mg              -4.2955508302        5.1793870887        5.4362654528
Mg              -3.0475763750        4.7590283841        2.6149835676
Mg               3.3790585789        1.9964579259        3.1670789324
Mg               4.5217440064        1.3459154689        0.2720603803
Mg               0.7690469996        6.3444071835        4.2158933849
Mg              -0.5403235248        0.2583076954        1.4206483414
Mg              -0.5106558180        3.5160443476        4.3143002840
Mg               0.7288028024        3.1667639168        1.3800603773
Co              -1.7459775709        5.8487517614        5.1307838834
Ni              -1.9027022796        2.3929456122        2.3568450997
Ni               2.1659525342        4.2790901735        3.2901344985
Ni               1.9533602264        0.7640270190        0.4940260225
H               -0.4825517476        5.0971932730        5.6164678629
H               -0.4059532772        2.1084816792        2.6475234304
H                0.6612558822        4.5599818854        3.0492730103
H                0.6915394613        1.5978879969        0.1753084375
H                5.1709527320        1.0691334033        2.2866847107
H                4.1231894269        1.5254210536        5.0621801302
H               -3.7479418957        4.9871323415        0.4892448027
H               -4.9181646510        5.6045667381        3.3962305134
H               -2.8824223727        6.2182072651        4.1471703336
H               -2.5230472927        3.1544197049        1.1566011308
H                2.6302055674        3.4687301924        4.5404693669
H                2.9341754755        0.7461200515        1.7026064003
H                0.4489556924        1.8732939102        5.0317914491
H                2.7059124284        3.5609407085        2.0271909707
H               -2.4574694818        3.0623595779        3.6532537268
H               -0.2229311659        4.7800767768        0.5992409732



     Writing config-only to output data dir ./outdir/mg2nih4_co_nisite.save/ :
     XML data file
     NEW-OLD atomic charge density approx. for the potential
     New effective cutoffs (rho, wfc):  519.76   64.96

     Check: negative core charge=   -0.000001

     total cpu time spent up to now is    11604.5 secs

     Self-consistent Calculation

     iteration #  1     ecut=    60.00 Ry     beta= 0.30
     Davidson diagonalization with overlap
     ethr =  1.00E-06,  avg # of iterations =  3.4

     total cpu time spent up to now is    11649.2 secs

     total energy              =   -1616.72587619 Ry
     estimated scf accuracy    <       0.00026095 Ry

     iteration #  2     ecut=    60.00 Ry     beta= 0.30
     Davidson diagonalization with overlap
     ethr =  2.53E-07,  avg # of iterations =  3.0

     total cpu time spent up to now is    11680.1 secs

     total energy              =   -1616.72587277 Ry
     estimated scf accuracy    <       0.00053059 Ry

     iteration #  3     ecut=    60.00 Ry     beta= 0.30
     Davidson diagonalization with overlap
     ethr =  2.53E-07,  avg # of iterations =  2.2

     total cpu time spent up to now is    11707.1 secs

     total energy              =   -1616.72591549 Ry
     estimated scf accuracy    <       0.00006982 Ry

     iteration #  4     ecut=    60.00 Ry     beta= 0.30
     Davidson diagonalization with overlap
     ethr =  6.78E-08,  avg # of iterations =  3.0

     total cpu time spent up to now is    11738.3 secs

     total energy              =   -1616.72591228 Ry
     estimated scf accuracy    <       0.00018126 Ry

     iteration #  5     ecut=    60.00 Ry     beta= 0.30
     Davidson diagonalization with overlap
     ethr =  6.78E-08,  avg # of iterations =  2.6

     total cpu time spent up to now is    11771.1 secs

     total energy              =   -1616.72592388 Ry
     estimated scf accuracy    <       0.00000405 Ry

     iteration #  6     ecut=    60.00 Ry     beta= 0.30
     Davidson diagonalization with overlap
     ethr =  3.93E-09,  avg # of iterations =  2.0

     total cpu time spent up to now is    11797.7 secs

     total energy              =   -1616.72592390 Ry
     estimated scf accuracy    <       0.00000364 Ry

     iteration #  7     ecut=    60.00 Ry     beta= 0.30
     Davidson diagonalization with overlap
     ethr =  3.54E-09,  avg # of iterations =  1.4

     total cpu time spent up to now is    11824.4 secs

     total energy              =   -1616.72592426 Ry
     estimated scf accuracy    <       0.00000035 Ry

     iteration #  8     ecut=    60.00 Ry     beta= 0.30
     Davidson diagonalization with overlap
     ethr =  3.39E-10,  avg # of iterations =  4.0

     total cpu time spent up to now is    11869.3 secs

     total energy              =   -1616.72592438 Ry
     estimated scf accuracy    <       0.00000009 Ry

     iteration #  9     ecut=    60.00 Ry     beta= 0.30
     Davidson diagonalization with overlap
     ethr =  8.76E-11,  avg # of iterations =  2.0

     total cpu time spent up to now is    11895.8 secs

     total energy              =   -1616.72592439 Ry
     estimated scf accuracy    <       0.00000009 Ry

     iteration # 10     ecut=    60.00 Ry     beta= 0.30
     Davidson diagonalization with overlap
     ethr =  8.76E-11,  avg # of iterations =  1.4

     total cpu time spent up to now is    11921.8 secs

     total energy              =   -1616.72592439 Ry
     estimated scf accuracy    <          6.7E-09 Ry

     iteration # 11     ecut=    60.00 Ry     beta= 0.30
     Davidson diagonalization with overlap
     ethr =  6.50E-12,  avg # of iterations =  2.0

     total cpu time spent up to now is    11950.0 secs

     total energy              =   -1616.72592440 Ry
     estimated scf accuracy    <          1.5E-09 Ry

     iteration # 12     ecut=    60.00 Ry     beta= 0.30
     Davidson diagonalization with overlap
     ethr =  1.49E-12,  avg # of iterations =  1.7

     total cpu time spent up to now is    11978.0 secs

     End of self-consistent calculation

     Number of k-points >= 100: set verbosity='high' to print the bands.

     the Fermi energy is     5.8217 ev

!    total energy              =   -1616.72592440 Ry
     estimated scf accuracy    <          1.3E-10 Ry
     smearing contrib. (-TS)   =       0.00059369 Ry
     internal energy E=F+TS    =   -1616.72651809 Ry

     The total energy is F=E-TS. E is the sum of the following terms:
     one-electron contribution =   -1366.78696508 Ry
     hartree contribution      =     711.94935367 Ry
     xc contribution           =    -164.41086392 Ry
     ewald contribution        =    -546.79744170 Ry
     DFT-D3 Dispersion         =      -0.35717535 Ry
     one-center paw contrib.   =    -250.32342570 Ry

     convergence has been achieved in  12 iterations

     Forces acting on atoms (cartesian axes, Ry/au):

     atom    1 type  1   force =     0.00103518    0.00010041    0.00066091
     atom    2 type  1   force =    -0.00014972    0.00052151    0.00023665
     atom    3 type  1   force =     0.00098106   -0.00062342   -0.00054607
     atom    4 type  1   force =    -0.00047698   -0.00049341   -0.00026199
     atom    5 type  1   force =     0.00042024    0.00047832    0.00028454
     atom    6 type  1   force =     0.00053521   -0.00024379   -0.00126850
     atom    7 type  1   force =    -0.00095144   -0.00198300   -0.00068121
     atom    8 type  1   force =     0.00070585    0.00188092    0.00000156
     atom    9 type  2   force =     0.00036182   -0.00202870   -0.00136554
     atom   10 type  3   force =    -0.00146192    0.00076717   -0.00027895
     atom   11 type  3   force =     0.00093033   -0.00137211    0.00129924
     atom   12 type  3   force =     0.00107979    0.00025022    0.00067722
     atom   13 type  4   force =    -0.00076008    0.00029882    0.00061268
     atom   14 type  4   force =    -0.00038736    0.00054453    0.00000424
     atom   15 type  4   force =     0.00028520   -0.00050682    0.00002614
     atom   16 type  4   force =    -0.00005141   -0.00055903   -0.00006479
     atom   17 type  4   force =    -0.00019785    0.00038631    0.00011541
     atom   18 type  4   force =     0.00093591    0.00240285    0.00057619
     atom   19 type  4   force =    -0.00067890    0.00141354   -0.00018625
     atom   20 type  4   force =    -0.00042404    0.00027396   -0.00027335
     atom   21 type  4   force =     0.00051902   -0.00028166    0.00003752
     atom   22 type  4   force =    -0.00151093   -0.00025104    0.00091649
     atom   23 type  4   force =     0.00039882    0.00061509    0.00001327
     atom   24 type  4   force =    -0.00023964   -0.00076735   -0.00204560
     atom   25 type  4   force =    -0.00103768   -0.00042134    0.00065635
     atom   26 type  4   force =     0.00048956    0.00002125   -0.00088031
     atom   27 type  4   force =     0.00061798   -0.00093302   -0.00023831
     atom   28 type  4   force =    -0.00096801    0.00050978    0.00197246

     Total force =     0.007812     Total SCF correction =     0.000023


     Computing stress (Cartesian axis) and pressure

          total   stress  (Ry/bohr**3)                   (kbar)     P=       -0.97
  -0.00001325  -0.00000201  -0.00000490           -1.95       -0.30       -0.72
  -0.00000201  -0.00000363   0.00000075           -0.30       -0.53        0.11
  -0.00000490   0.00000075  -0.00000287           -0.72        0.11       -0.42

     Energy error            =      1.6E-04 Ry
     Gradient error          =      2.4E-03 Ry/Bohr
     Cell gradient error     =      1.9E+00 kbar

     number of scf cycles    =  31
     number of bfgs steps    =  30

     enthalpy           old  =   -1616.7257686412 Ry
     enthalpy           new  =   -1616.7259243955 Ry

     CASE: enthalpy          _new < enthalpy          _old

     new trust radius        =       0.0301708564 bohr
     new conv_thr            =       0.0000000002 Ry

     new unit-cell volume =   1730.77198 a.u.^3 (   256.47395 Ang^3 )
     density =      2.88491 g/cm^3

CELL_PARAMETERS (angstrom)
   7.763374460   0.064554487  -0.116443416
  -5.143749005   5.672276033  -0.003675149
  -2.396049057   0.919794155   5.803247579

ATOMIC_POSITIONS (angstrom)
Mg              -4.3019221405        5.1722133476        5.4386715429
Mg              -3.0476493461        4.7581639712        2.6231543539
Mg               3.3767054644        1.9953621350        3.1553003795
Mg               4.5220600044        1.3438030354        0.2631179485
Mg               0.7662223793        6.3365113398        4.2074259695
Mg              -0.5387294061        0.2578794660        1.4180762627
Mg              -0.5104742378        3.5100667127        4.3088611529
Mg               0.7274854490        3.1660653873        1.3763058176
Co              -1.7509957340        5.8417553072        5.1213322466
Ni              -1.9059366080        2.3910269855        2.3537604563
Ni               2.1627924817        4.2748816754        3.2848798986
Ni               1.9531804808        0.7650307968        0.4945565498
H               -0.4898608128        5.0886788641        5.6046738157
H               -0.4083356089        2.1094971390        2.6412183531
H                0.6589417714        4.5574361886        3.0462351829
H                0.6909286230        1.5994922003        0.1767498802
H                5.1691259481        1.0668723332        2.2784776053
H                4.1216371589        1.5228892295        5.0478877567
H               -3.7511629185        4.9855987480        0.4940533644
H               -4.9231170527        5.6013641879        3.3980846561
H               -2.8920765521        6.2263949973        4.1502717993
H               -2.5327864183        3.1534363261        1.1598081737
H                2.6289574740        3.4650007041        4.5308625488
H                2.9393317667        0.7385358385        1.6955675808
H                0.4416277498        1.8701156382        5.0259945499
H                2.7060570208        3.5637146286        2.0188004138
H               -2.4598732801        3.0554794690        3.6523453755
H               -0.2220640865        4.7754787923        0.5973325574



     Writing config-only to output data dir ./outdir/mg2nih4_co_nisite.save/ :
     XML data file
     NEW-OLD atomic charge density approx. for the potential
     New effective cutoffs (rho, wfc):  521.39   65.16

     Check: negative core charge=   -0.000001

     total cpu time spent up to now is    11993.5 secs

     Self-consistent Calculation

     iteration #  1     ecut=    60.00 Ry     beta= 0.30
     Davidson diagonalization with overlap
     ethr =  1.00E-06,  avg # of iterations =  4.1

     total cpu time spent up to now is    12045.5 secs

     total energy              =   -1616.72595566 Ry
     estimated scf accuracy    <       0.00033516 Ry

     iteration #  2     ecut=    60.00 Ry     beta= 0.30
     Davidson diagonalization with overlap
     ethr =  3.25E-07,  avg # of iterations =  3.0

     total cpu time spent up to now is    12079.8 secs

     total energy              =   -1616.72595983 Ry
     estimated scf accuracy    <       0.00065813 Ry

     iteration #  3     ecut=    60.00 Ry     beta= 0.30
     Davidson diagonalization with overlap
     ethr =  3.25E-07,  avg # of iterations =  2.4

     total cpu time spent up to now is    12111.7 secs

     total energy              =   -1616.72602249 Ry
     estimated scf accuracy    <       0.00004784 Ry

     iteration #  4     ecut=    60.00 Ry     beta= 0.30
     Davidson diagonalization with overlap
     ethr =  4.64E-08,  avg # of iterations =  2.6

     total cpu time spent up to now is    12145.8 secs

     total energy              =   -1616.72601905 Ry
     estimated scf accuracy    <       0.00011147 Ry

     iteration #  5     ecut=    60.00 Ry     beta= 0.30
     Davidson diagonalization with overlap
     ethr =  4.64E-08,  avg # of iterations =  2.4

     total cpu time spent up to now is    12176.4 secs

     total energy              =   -1616.72602655 Ry
     estimated scf accuracy    <       0.00000767 Ry

     iteration #  6     ecut=    60.00 Ry     beta= 0.30
     Davidson diagonalization with overlap
     ethr =  7.45E-09,  avg # of iterations =  2.0

     total cpu time spent up to now is    12201.2 secs

     total energy              =   -1616.72602659 Ry
     estimated scf accuracy    <       0.00000591 Ry

     iteration #  7     ecut=    60.00 Ry     beta= 0.30
     Davidson diagonalization with overlap
     ethr =  5.74E-09,  avg # of iterations =  1.1

     total cpu time spent up to now is    12222.2 secs

     total energy              =   -1616.72602714 Ry
     estimated scf accuracy    <       0.00000035 Ry

     iteration #  8     ecut=    60.00 Ry     beta= 0.30
     Davidson diagonalization with overlap
     ethr =  3.36E-10,  avg # of iterations =  4.0

     total cpu time spent up to now is    12266.2 secs

     total energy              =   -1616.72602727 Ry
     estimated scf accuracy    <       0.00000016 Ry

     iteration #  9     ecut=    60.00 Ry     beta= 0.30
     Davidson diagonalization with overlap
     ethr =  1.51E-10,  avg # of iterations =  2.0

     total cpu time spent up to now is    12290.9 secs

     total energy              =   -1616.72602728 Ry
     estimated scf accuracy    <       0.00000011 Ry

     iteration # 10     ecut=    60.00 Ry     beta= 0.30
     Davidson diagonalization with overlap
     ethr =  1.02E-10,  avg # of iterations =  1.9

     total cpu time spent up to now is    12317.3 secs

     total energy              =   -1616.72602729 Ry
     estimated scf accuracy    <       0.00000002 Ry

     iteration # 11     ecut=    60.00 Ry     beta= 0.30
     Davidson diagonalization with overlap
     ethr =  1.71E-11,  avg # of iterations =  2.0

     total cpu time spent up to now is    12341.7 secs

     total energy              =   -1616.72602729 Ry
     estimated scf accuracy    <          1.2E-09 Ry

     iteration # 12     ecut=    60.00 Ry     beta= 0.30
     Davidson diagonalization with overlap
     ethr =  1.17E-12,  avg # of iterations =  2.0

     total cpu time spent up to now is    12366.4 secs

     End of self-consistent calculation

     Number of k-points >= 100: set verbosity='high' to print the bands.

     the Fermi energy is     5.8434 ev

!    total energy              =   -1616.72602729 Ry
     estimated scf accuracy    <          1.5E-10 Ry
     smearing contrib. (-TS)   =       0.00060724 Ry
     internal energy E=F+TS    =   -1616.72663453 Ry

     The total energy is F=E-TS. E is the sum of the following terms:
     one-electron contribution =   -1365.87753365 Ry
     hartree contribution      =     711.55786420 Ry
     xc contribution           =    -164.42280588 Ry
     ewald contribution        =    -547.30108306 Ry
     DFT-D3 Dispersion         =      -0.35789266 Ry
     one-center paw contrib.   =    -250.32518348 Ry

     convergence has been achieved in  12 iterations

     Forces acting on atoms (cartesian axes, Ry/au):

     atom    1 type  1   force =     0.00117245    0.00026223    0.00082202
     atom    2 type  1   force =    -0.00001914    0.00048813    0.00012991
     atom    3 type  1   force =     0.00084164   -0.00077125   -0.00082885
     atom    4 type  1   force =    -0.00055926   -0.00047515   -0.00022010
     atom    5 type  1   force =     0.00021611    0.00095216    0.00054484
     atom    6 type  1   force =     0.00040775   -0.00012505   -0.00125274
     atom    7 type  1   force =    -0.00141321   -0.00178825   -0.00093789
     atom    8 type  1   force =     0.00087941    0.00165529    0.00019770
     atom    9 type  2   force =    -0.00022996   -0.00045453   -0.00075328
     atom   10 type  3   force =    -0.00093325    0.00065006   -0.00015047
     atom   11 type  3   force =     0.00108169   -0.00089988    0.00040856
     atom   12 type  3   force =     0.00053520    0.00015077    0.00028430
     atom   13 type  4   force =    -0.00008280    0.00010066    0.00098749
     atom   14 type  4   force =    -0.00032490    0.00038498    0.00012032
     atom   15 type  4   force =     0.00006415   -0.00071139   -0.00021826
     atom   16 type  4   force =     0.00029104   -0.00089880   -0.00023945
     atom   17 type  4   force =    -0.00013818    0.00041979   -0.00007964
     atom   18 type  4   force =     0.00040578    0.00136786    0.00074531
     atom   19 type  4   force =    -0.00063795    0.00129817   -0.00025156
     atom   20 type  4   force =    -0.00035206    0.00024825   -0.00015985
     atom   21 type  4   force =     0.00048633   -0.00042919   -0.00013047
     atom   22 type  4   force =    -0.00178795   -0.00014014    0.00067035
     atom   23 type  4   force =     0.00065388    0.00010707    0.00058371
     atom   24 type  4   force =     0.00010391   -0.00077409   -0.00157661
     atom   25 type  4   force =    -0.00099335   -0.00060753    0.00054217
     atom   26 type  4   force =     0.00027966    0.00011811   -0.00061395
     atom   27 type  4   force =     0.00064212   -0.00088164   -0.00007806
     atom   28 type  4   force =    -0.00058913    0.00075337    0.00145451

     Total force =     0.006672     Total SCF correction =     0.000039


     Computing stress (Cartesian axis) and pressure

          total   stress  (Ry/bohr**3)                   (kbar)     P=        0.31
  -0.00000596  -0.00000445  -0.00000087           -0.88       -0.66       -0.13
  -0.00000445   0.00000536   0.00000021           -0.66        0.79        0.03
  -0.00000087   0.00000021   0.00000696           -0.13        0.03        1.02

     Energy error            =      1.0E-04 Ry
     Gradient error          =      1.8E-03 Ry/Bohr
     Cell gradient error     =      1.0E+00 kbar

     number of scf cycles    =  32
     number of bfgs steps    =  31

     enthalpy           old  =   -1616.7259243955 Ry
     enthalpy           new  =   -1616.7260272896 Ry

     CASE: enthalpy          _new < enthalpy          _old

     new trust radius        =       0.0145663271 bohr
     new conv_thr            =       0.0000000001 Ry

     new unit-cell volume =   1728.88688 a.u.^3 (   256.19460 Ang^3 )
     density =      2.88805 g/cm^3

CELL_PARAMETERS (angstrom)
   7.760421480   0.062784950  -0.120286551
  -5.143142126   5.672041654  -0.000690069
  -2.398380472   0.920479976   5.801859523

ATOMIC_POSITIONS (angstrom)
Mg              -4.3046061207        5.1718444567        5.4415221119
Mg              -3.0489718141        4.7591220410        2.6277797836
Mg               3.3744031938        1.9938430775        3.1503160692
Mg               4.5201318867        1.3412392330        0.2591330530
Mg               0.7625487597        6.3325693314        4.2049915553
Mg              -0.5369824042        0.2592499927        1.4159751155
Mg              -0.5120208855        3.5048488360        4.3064063807
Mg               0.7270455952        3.1689122697        1.3749257138
Co              -1.7550388762        5.8396899188        5.1179624747
Ni              -1.9094966854        2.3914922782        2.3531673761
Ni               2.1602331807        4.2721146291        3.2837268732
Ni               1.9529313931        0.7650076719        0.4950734983
H               -0.4961989792        5.0832464590        5.5970450333
H               -0.4107684568        2.1121117775        2.6366460239
H                0.6564121346        4.5561149728        3.0472413940
H                0.6912540755        1.6014126227        0.1796798059
H                5.1656925558        1.0646749212        2.2759152706
H                4.1180864896        1.5237457172        5.0442151624
H               -3.7546455313        4.9875751860        0.4967454731
H               -4.9264518524        5.6025234058        3.3994983159
H               -2.8945098836        6.2298676404        4.1523042554
H               -2.5396356960        3.1536425511        1.1629235103
H                2.6275329636        3.4644933144        4.5275993433
H                2.9406074548        0.7333305422        1.6906670746
H                0.4368298970        1.8681443713        5.0246663368
H                2.7049388020        3.5652051652        2.0150220245
H               -2.4607244552        3.0536096608        3.6526093399
H               -0.2240123865        4.7746600720        0.5986022833



     Writing config-only to output data dir ./outdir/mg2nih4_co_nisite.save/ :
     XML data file
     NEW-OLD atomic charge density approx. for the potential
     New effective cutoffs (rho, wfc):  522.10   65.26

     Check: negative core charge=   -0.000001

     total cpu time spent up to now is    12380.7 secs

     Self-consistent Calculation

     iteration #  1     ecut=    60.00 Ry     beta= 0.30
     Davidson diagonalization with overlap
     ethr =  1.00E-06,  avg # of iterations =  3.0

     total cpu time spent up to now is    12420.0 secs

     total energy              =   -1616.72607788 Ry
     estimated scf accuracy    <       0.00017062 Ry

     iteration #  2     ecut=    60.00 Ry     beta= 0.30
     Davidson diagonalization with overlap
     ethr =  1.66E-07,  avg # of iterations =  2.0

     total cpu time spent up to now is    12446.1 secs

     total energy              =   -1616.72608157 Ry
     estimated scf accuracy    <       0.00019875 Ry

     iteration #  3     ecut=    60.00 Ry     beta= 0.30
     Davidson diagonalization with overlap
     ethr =  1.66E-07,  avg # of iterations =  2.0

     total cpu time spent up to now is    12469.5 secs

     total energy              =   -1616.72610220 Ry
     estimated scf accuracy    <       0.00006953 Ry

     iteration #  4     ecut=    60.00 Ry     beta= 0.30
     Davidson diagonalization with overlap
     ethr =  6.75E-08,  avg # of iterations =  2.0

     total cpu time spent up to now is    12492.0 secs

     total energy              =   -1616.72610441 Ry
     estimated scf accuracy    <       0.00006808 Ry

     iteration #  5     ecut=    60.00 Ry     beta= 0.30
     Davidson diagonalization with overlap
     ethr =  6.61E-08,  avg # of iterations =  1.7

     total cpu time spent up to now is    12516.4 secs

     total energy              =   -1616.72610872 Ry
     estimated scf accuracy    <       0.00000320 Ry

     iteration #  6     ecut=    60.00 Ry     beta= 0.30
     Davidson diagonalization with overlap
     ethr =  3.10E-09,  avg # of iterations =  3.0

     total cpu time spent up to now is    12545.3 secs

     total energy              =   -1616.72610898 Ry
     estimated scf accuracy    <       0.00000273 Ry

     iteration #  7     ecut=    60.00 Ry     beta= 0.30
     Davidson diagonalization with overlap
     ethr =  2.65E-09,  avg # of iterations =  1.3

     total cpu time spent up to now is    12567.0 secs

     total energy              =   -1616.72610910 Ry
     estimated scf accuracy    <       0.00000068 Ry

     iteration #  8     ecut=    60.00 Ry     beta= 0.30
     Davidson diagonalization with overlap
     ethr =  6.57E-10,  avg # of iterations =  2.0

     total cpu time spent up to now is    12589.6 secs

     total energy              =   -1616.72610918 Ry
     estimated scf accuracy    <       0.00000010 Ry

     iteration #  9     ecut=    60.00 Ry     beta= 0.30
     Davidson diagonalization with overlap
     ethr =  1.01E-10,  avg # of iterations =  4.1

     total cpu time spent up to now is    12626.9 secs

     total energy              =   -1616.72610923 Ry
     estimated scf accuracy    <       0.00000002 Ry

     iteration # 10     ecut=    60.00 Ry     beta= 0.30
     Davidson diagonalization with overlap
     ethr =  2.00E-11,  avg # of iterations =  2.0

     total cpu time spent up to now is    12649.7 secs

     total energy              =   -1616.72610923 Ry
     estimated scf accuracy    <       0.00000001 Ry

     iteration # 11     ecut=    60.00 Ry     beta= 0.30
     Davidson diagonalization with overlap
     ethr =  1.13E-11,  avg # of iterations =  1.0

     total cpu time spent up to now is    12668.2 secs

     total energy              =   -1616.72610923 Ry
     estimated scf accuracy    <          5.0E-10 Ry

     iteration # 12     ecut=    60.00 Ry     beta= 0.30
     Davidson diagonalization with overlap
     ethr =  4.85E-13,  avg # of iterations =  2.3

     total cpu time spent up to now is    12695.4 secs

     total energy              =   -1616.72610923 Ry
     estimated scf accuracy    <          1.7E-10 Ry

     iteration # 13     ecut=    60.00 Ry     beta= 0.30
     Davidson diagonalization with overlap
     ethr =  1.64E-13,  avg # of iterations =  1.0

     total cpu time spent up to now is    12714.1 secs

     End of self-consistent calculation

     Number of k-points >= 100: set verbosity='high' to print the bands.

     the Fermi energy is     5.8517 ev

!    total energy              =   -1616.72610923 Ry
     estimated scf accuracy    <          2.1E-11 Ry
     smearing contrib. (-TS)   =       0.00061980 Ry
     internal energy E=F+TS    =   -1616.72672903 Ry

     The total energy is F=E-TS. E is the sum of the following terms:
     one-electron contribution =   -1365.45510453 Ry
     hartree contribution      =     711.37767549 Ry
     xc contribution           =    -164.43071256 Ry
     ewald contribution        =    -547.53411778 Ry
     DFT-D3 Dispersion         =      -0.35826480 Ry
     one-center paw contrib.   =    -250.32620486 Ry

     convergence has been achieved in  13 iterations

     Forces acting on atoms (cartesian axes, Ry/au):

     atom    1 type  1   force =     0.00088719    0.00011949    0.00092504
     atom    2 type  1   force =     0.00010694    0.00039347    0.00009604
     atom    3 type  1   force =     0.00059858   -0.00079038   -0.00103245
     atom    4 type  1   force =    -0.00036236   -0.00031638   -0.00025969
     atom    5 type  1   force =     0.00002535    0.00105838    0.00056887
     atom    6 type  1   force =     0.00024934   -0.00003775   -0.00097975
     atom    7 type  1   force =    -0.00150476   -0.00123618   -0.00095054
     atom    8 type  1   force =     0.00083919    0.00112511    0.00025527
     atom    9 type  2   force =     0.00002385    0.00065402    0.00066869
     atom   10 type  3   force =    -0.00007662    0.00028813   -0.00018610
     atom   11 type  3   force =     0.00094217   -0.00019983   -0.00047961
     atom   12 type  3   force =    -0.00028482    0.00013576   -0.00018507
     atom   13 type  4   force =     0.00062932   -0.00003141    0.00136996
     atom   14 type  4   force =    -0.00019546    0.00025332    0.00016444
     atom   15 type  4   force =    -0.00001428   -0.00084945   -0.00034343
     atom   16 type  4   force =     0.00036724   -0.00094112   -0.00037286
     atom   17 type  4   force =    -0.00014624    0.00028747   -0.00021749
     atom   18 type  4   force =    -0.00007655    0.00025125    0.00082629
     atom   19 type  4   force =    -0.00063792    0.00093128   -0.00026533
     atom   20 type  4   force =    -0.00029343    0.00020304   -0.00007915
     atom   21 type  4   force =    -0.00057452   -0.00014486   -0.00089747
     atom   22 type  4   force =    -0.00202627    0.00015415    0.00020599
     atom   23 type  4   force =     0.00088049   -0.00039482    0.00107616
     atom   24 type  4   force =     0.00074208   -0.00069462   -0.00064964
     atom   25 type  4   force =    -0.00076633   -0.00069617    0.00013375
     atom   26 type  4   force =     0.00012888    0.00021809   -0.00023432
     atom   27 type  4   force =     0.00047566   -0.00073819    0.00023022
     atom   28 type  4   force =     0.00006327    0.00099821    0.00061218

     Total force =     0.005894     Total SCF correction =     0.000008


     Computing stress (Cartesian axis) and pressure

          total   stress  (Ry/bohr**3)                   (kbar)     P=        1.23
   0.00000318  -0.00000494   0.00000434            0.47       -0.73        0.64
  -0.00000494   0.00000965  -0.00000120           -0.73        1.42       -0.18
   0.00000434  -0.00000120   0.00001226            0.64       -0.18        1.80

     Energy error            =      8.2E-05 Ry
     Gradient error          =      2.0E-03 Ry/Bohr
     Cell gradient error     =      1.8E+00 kbar

     number of scf cycles    =  33
     number of bfgs steps    =  32

     enthalpy           old  =   -1616.7260272896 Ry
     enthalpy           new  =   -1616.7261092297 Ry

     CASE: enthalpy          _new < enthalpy          _old

     new trust radius        =       0.0265663548 bohr
     new conv_thr            =            8.2E-11 Ry

     new unit-cell volume =   1727.49762 a.u.^3 (   255.98874 Ang^3 )
     density =      2.89038 g/cm^3

CELL_PARAMETERS (angstrom)
   7.757595978   0.061422020  -0.125503526
  -5.142305167   5.672693304   0.001859847
  -2.401760929   0.919858748   5.801108345

ATOMIC_POSITIONS (angstrom)
Mg              -4.3084251226        5.1694858026        5.4473074392
Mg              -3.0489184752        4.7622147266        2.6357236799
Mg               3.3724017986        1.9919059500        3.1411645258
Mg               4.5184166650        1.3383267441        0.2520435346
Mg               0.7587420597        6.3312389248        4.2012083049
Mg              -0.5354681756        0.2583264096        1.4131873938
Mg              -0.5148923667        3.5003251213        4.3031154794
Mg               0.7262170439        3.1709444769        1.3729786952
Co              -1.7599269484        5.8365212596        5.1124113289
Ni              -1.9125177892        2.3922029573        2.3514830324
Ni               2.1578790716        4.2695540080        3.2812823159
Ni               1.9524818147        0.7656800619        0.4959985130
H               -0.5020849285        5.0797412701        5.5935107995
H               -0.4131849427        2.1138741266        2.6338705841
H                0.6535885745        4.5549334921        3.0453246309
H                0.6907564525        1.6013572703        0.1797497341
H                5.1632281601        1.0627682482        2.2702832622
H                4.1165006197        1.5208899182        5.0360839042
H               -3.7579215997        4.9911709952        0.5001279766
H               -4.9308575409        5.6040023843        3.4024111795
H               -2.9042324496        6.2408261638        4.1563315615
H               -2.5501552430        3.1548682965        1.1666677140
H                2.6262335852        3.4617235755        4.5233204128
H                2.9446831469        0.7257840928        1.6846771591
H                0.4291585797        1.8652982591        5.0234570274
H                2.7039142243        3.5685532815        2.0089669698
H               -2.4618245440        3.0486215727        3.6537469508
H               -0.2243733229        4.7744976309        0.5980712305



     Writing config-only to output data dir ./outdir/mg2nih4_co_nisite.save/ :
     XML data file
     NEW-OLD atomic charge density approx. for the potential
     New effective cutoffs (rho, wfc):  522.99   65.37

     Check: negative core charge=   -0.000001

     total cpu time spent up to now is    12727.2 secs

     Self-consistent Calculation

     iteration #  1     ecut=    60.00 Ry     beta= 0.30
     Davidson diagonalization with overlap
     ethr =  1.00E-06,  avg # of iterations =  4.1

     total cpu time spent up to now is    12771.7 secs

     total energy              =   -1616.72616116 Ry
     estimated scf accuracy    <       0.00020967 Ry

     iteration #  2     ecut=    60.00 Ry     beta= 0.30
     Davidson diagonalization with overlap
     ethr =  2.04E-07,  avg # of iterations =  2.0

     total cpu time spent up to now is    12795.8 secs

     total energy              =   -1616.72616406 Ry
     estimated scf accuracy    <       0.00017823 Ry

     iteration #  3     ecut=    60.00 Ry     beta= 0.30
     Davidson diagonalization with overlap
     ethr =  1.73E-07,  avg # of iterations =  2.2

     total cpu time spent up to now is    12820.5 secs

     total energy              =   -1616.72618074 Ry
     estimated scf accuracy    <       0.00009966 Ry

     iteration #  4     ecut=    60.00 Ry     beta= 0.30
     Davidson diagonalization with overlap
     ethr =  9.68E-08,  avg # of iterations =  2.1

     total cpu time spent up to now is    12844.1 secs

     total energy              =   -1616.72618372 Ry
     estimated scf accuracy    <       0.00007554 Ry

     iteration #  5     ecut=    60.00 Ry     beta= 0.30
     Davidson diagonalization with overlap
     ethr =  7.33E-08,  avg # of iterations =  1.0

     total cpu time spent up to now is    12862.7 secs

     total energy              =   -1616.72618869 Ry
     estimated scf accuracy    <       0.00000651 Ry

     iteration #  6     ecut=    60.00 Ry     beta= 0.30
     Davidson diagonalization with overlap
     ethr =  6.32E-09,  avg # of iterations =  2.0

     total cpu time spent up to now is    12886.5 secs

     total energy              =   -1616.72618892 Ry
     estimated scf accuracy    <       0.00000729 Ry

     iteration #  7     ecut=    60.00 Ry     beta= 0.30
     Davidson diagonalization with overlap
     ethr =  6.32E-09,  avg # of iterations =  1.1

     total cpu time spent up to now is    12906.4 secs

     total energy              =   -1616.72618936 Ry
     estimated scf accuracy    <       0.00000070 Ry

     iteration #  8     ecut=    60.00 Ry     beta= 0.30
     Davidson diagonalization with overlap
     ethr =  6.75E-10,  avg # of iterations =  2.5

     total cpu time spent up to now is    12936.1 secs

     total energy              =   -1616.72618947 Ry
     estimated scf accuracy    <       0.00000020 Ry

     iteration #  9     ecut=    60.00 Ry     beta= 0.30
     Davidson diagonalization with overlap
     ethr =  1.89E-10,  avg # of iterations =  5.0

     total cpu time spent up to now is    12978.1 secs

     total energy              =   -1616.72618955 Ry
     estimated scf accuracy    <       0.00000003 Ry

     iteration # 10     ecut=    60.00 Ry     beta= 0.30
     Davidson diagonalization with overlap
     ethr =  3.38E-11,  avg # of iterations =  2.0

     total cpu time spent up to now is    13000.6 secs

     total energy              =   -1616.72618955 Ry
     estimated scf accuracy    <       0.00000003 Ry

     iteration # 11     ecut=    60.00 Ry     beta= 0.30
     Davidson diagonalization with overlap
     ethr =  2.70E-11,  avg # of iterations =  1.3

     total cpu time spent up to now is    13021.9 secs

     total energy              =   -1616.72618956 Ry
     estimated scf accuracy    <          1.0E-09 Ry

     iteration # 12     ecut=    60.00 Ry     beta= 0.30
     Davidson diagonalization with overlap
     ethr =  9.77E-13,  avg # of iterations =  3.0

     total cpu time spent up to now is    13051.5 secs

     total energy              =   -1616.72618956 Ry
     estimated scf accuracy    <          3.7E-10 Ry

     iteration # 13     ecut=    60.00 Ry     beta= 0.30
     Davidson diagonalization with overlap
     ethr =  3.58E-13,  avg # of iterations =  1.1

     total cpu time spent up to now is    13072.2 secs

     End of self-consistent calculation

     Number of k-points >= 100: set verbosity='high' to print the bands.

     the Fermi energy is     5.8609 ev

!    total energy              =   -1616.72618956 Ry
     estimated scf accuracy    <          2.2E-11 Ry
     smearing contrib. (-TS)   =       0.00063143 Ry
     internal energy E=F+TS    =   -1616.72682098 Ry

     The total energy is F=E-TS. E is the sum of the following terms:
     one-electron contribution =   -1365.00624911 Ry
     hartree contribution      =     711.17532598 Ry
     xc contribution           =    -164.43280941 Ry
     ewald contribution        =    -547.77793784 Ry
     DFT-D3 Dispersion         =      -0.35854224 Ry
     one-center paw contrib.   =    -250.32660836 Ry

     convergence has been achieved in  13 iterations

     Forces acting on atoms (cartesian axes, Ry/au):

     atom    1 type  1   force =     0.00046094   -0.00005090    0.00079351
     atom    2 type  1   force =     0.00007199    0.00015819    0.00005237
     atom    3 type  1   force =     0.00019176   -0.00065696   -0.00098291
     atom    4 type  1   force =    -0.00013151   -0.00010733   -0.00032679
     atom    5 type  1   force =     0.00008180    0.00072507    0.00035189
     atom    6 type  1   force =     0.00012969    0.00020073   -0.00046737
     atom    7 type  1   force =    -0.00129029   -0.00048282   -0.00078286
     atom    8 type  1   force =     0.00073510    0.00043185    0.00023851
     atom    9 type  2   force =    -0.00043209    0.00227171    0.00145805
     atom   10 type  3   force =     0.00059215    0.00001821   -0.00033994
     atom   11 type  3   force =     0.00064038    0.00037409   -0.00099049
     atom   12 type  3   force =    -0.00083503    0.00012183   -0.00038635
     atom   13 type  4   force =     0.00061270   -0.00012471    0.00111275
     atom   14 type  4   force =    -0.00017771    0.00017040    0.00003525
     atom   15 type  4   force =     0.00010698   -0.00098776   -0.00026466
     atom   16 type  4   force =     0.00041107   -0.00073690   -0.00029249
     atom   17 type  4   force =    -0.00011267    0.00013873   -0.00034790
     atom   18 type  4   force =    -0.00075114   -0.00077031    0.00092132
     atom   19 type  4   force =    -0.00064648    0.00047751   -0.00029972
     atom   20 type  4   force =    -0.00027300    0.00009591   -0.00000642
     atom   21 type  4   force =     0.00009489   -0.00052378   -0.00056979
     atom   22 type  4   force =    -0.00211171    0.00021347    0.00010919
     atom   23 type  4   force =     0.00098125   -0.00054466    0.00106302
     atom   24 type  4   force =     0.00110609   -0.00065001   -0.00006420
     atom   25 type  4   force =    -0.00046004   -0.00072168   -0.00034160
     atom   26 type  4   force =     0.00000972    0.00030576    0.00023834
     atom   27 type  4   force =     0.00028834   -0.00059235    0.00029552
     atom   28 type  4   force =     0.00070682    0.00124669   -0.00020624

     Total force =     0.006026     Total SCF correction =     0.000019


     Computing stress (Cartesian axis) and pressure

          total   stress  (Ry/bohr**3)                   (kbar)     P=        1.44
   0.00000754  -0.00000331   0.00000636            1.11       -0.49        0.94
  -0.00000331   0.00001026   0.00000008           -0.49        1.51        0.01
   0.00000636   0.00000008   0.00001147            0.94        0.01        1.69

     Energy error            =      8.0E-05 Ry
     Gradient error          =      2.3E-03 Ry/Bohr
     Cell gradient error     =      1.7E+00 kbar

     number of scf cycles    =  34
     number of bfgs steps    =  33

     enthalpy           old  =   -1616.7261092297 Ry
     enthalpy           new  =   -1616.7261895560 Ry

     CASE: enthalpy          _new < enthalpy          _old

     new trust radius        =       0.0189359138 bohr
     new conv_thr            =            8.0E-11 Ry

     new unit-cell volume =   1728.49700 a.u.^3 (   256.13683 Ang^3 )
     density =      2.88870 g/cm^3

CELL_PARAMETERS (angstrom)
   7.756638525   0.058671650  -0.127203376
  -5.143730573   5.676627119   0.003524288
  -2.403217576   0.921554462   5.803643480

ATOMIC_POSITIONS (angstrom)
Mg              -4.3100780554        5.1727773371        5.4542002994
Mg              -3.0511542657        4.7667382284        2.6405895084
Mg               3.3726080592        1.9899485988        3.1384792878
Mg               4.5167646494        1.3355833210        0.2496590446
Mg               0.7563525400        6.3327184292        4.2028222808
Mg              -0.5329374165        0.2594372953        1.4106381556
Mg              -0.5182681999        3.4959056133        4.3028148849
Mg               0.7268064334        3.1769234711        1.3738349076
Co              -1.7633925254        5.8391935196        5.1141542618
Ni              -1.9166437969        2.3944270355        2.3520529636
Ni               2.1580854168        4.2690664959        3.2823967239
Ni               1.9520501056        0.7660098925        0.4965896874
H               -0.5060566545        5.0784163956        5.5941934617
H               -0.4160925449        2.1186749154        2.6315825986
H                0.6522329799        4.5551282641        3.0486362636
H                0.6911783421        1.6029453916        0.1823592333
H                5.1607840578        1.0610687259        2.2711002549
H                4.1135296719        1.5220446632        5.0403802184
H               -3.7639198019        4.9982340965        0.5017034255
H               -4.9360676783        5.6095542564        3.4042976149
H               -2.9055492796        6.2462040974        4.1586804577
H               -2.5608638682        3.1573893320        1.1707957716
H                2.6277071749        3.4635920318        4.5263074712
H                2.9477514428        0.7203842484        1.6803480300
H                0.4244846807        1.8635775173        5.0260418770
H                2.7045140258        3.5714299478        2.0080130765
H               -2.4622214587        3.0483438712        3.6563741448
H               -0.2259387670        4.7802282426        0.6004555854



     Writing config-only to output data dir ./outdir/mg2nih4_co_nisite.save/ :
     XML data file
     NEW-OLD atomic charge density approx. for the potential
     New effective cutoffs (rho, wfc):  522.84   65.36

     Check: negative core charge=   -0.000001

     total cpu time spent up to now is    13088.4 secs

     Self-consistent Calculation

     iteration #  1     ecut=    60.00 Ry     beta= 0.30
     Davidson diagonalization with overlap
     ethr =  1.00E-06,  avg # of iterations =  3.0

     total cpu time spent up to now is    13125.3 secs

     total energy              =   -1616.72626937 Ry
     estimated scf accuracy    <       0.00015020 Ry

     iteration #  2     ecut=    60.00 Ry     beta= 0.30
     Davidson diagonalization with overlap
     ethr =  1.46E-07,  avg # of iterations =  2.0

     total cpu time spent up to now is    13149.9 secs

     total energy              =   -1616.72627695 Ry
     estimated scf accuracy    <       0.00005169 Ry

     iteration #  3     ecut=    60.00 Ry     beta= 0.30
     Davidson diagonalization with overlap
     ethr =  5.02E-08,  avg # of iterations =  3.0

     total cpu time spent up to now is    13179.1 secs

     total energy              =   -1616.72627699 Ry
     estimated scf accuracy    <       0.00010675 Ry

     iteration #  4     ecut=    60.00 Ry     beta= 0.30
     Davidson diagonalization with overlap
     ethr =  5.02E-08,  avg # of iterations =  2.0

     total cpu time spent up to now is    13202.5 secs

     total energy              =   -1616.72628333 Ry
     estimated scf accuracy    <       0.00002480 Ry

     iteration #  5     ecut=    60.00 Ry     beta= 0.30
     Davidson diagonalization with overlap
     ethr =  2.41E-08,  avg # of iterations =  2.1

     total cpu time spent up to now is    13226.6 secs

     total energy              =   -1616.72628502 Ry
     estimated scf accuracy    <       0.00000892 Ry

     iteration #  6     ecut=    60.00 Ry     beta= 0.30
     Davidson diagonalization with overlap
     ethr =  8.66E-09,  avg # of iterations =  1.6

     total cpu time spent up to now is    13251.2 secs

     total energy              =   -1616.72628539 Ry
     estimated scf accuracy    <       0.00000279 Ry

     iteration #  7     ecut=    60.00 Ry     beta= 0.30
     Davidson diagonalization with overlap
     ethr =  2.71E-09,  avg # of iterations =  1.4

     total cpu time spent up to now is    13274.2 secs

     total energy              =   -1616.72628568 Ry
     estimated scf accuracy    <       0.00000018 Ry

     iteration #  8     ecut=    60.00 Ry     beta= 0.30
     Davidson diagonalization with overlap
     ethr =  1.79E-10,  avg # of iterations =  4.0

     total cpu time spent up to now is    13316.6 secs

     total energy              =   -1616.72628576 Ry
     estimated scf accuracy    <       0.00000009 Ry

     iteration #  9     ecut=    60.00 Ry     beta= 0.30
     Davidson diagonalization with overlap
     ethr =  8.40E-11,  avg # of iterations =  2.0

     total cpu time spent up to now is    13343.6 secs

     total energy              =   -1616.72628576 Ry
     estimated scf accuracy    <       0.00000006 Ry

     iteration # 10     ecut=    60.00 Ry     beta= 0.30
     Davidson diagonalization with overlap
     ethr =  6.05E-11,  avg # of iterations =  2.0

     total cpu time spent up to now is    13367.0 secs

     total energy              =   -1616.72628577 Ry
     estimated scf accuracy    <       0.00000002 Ry

     iteration # 11     ecut=    60.00 Ry     beta= 0.30
     Davidson diagonalization with overlap
     ethr =  1.56E-11,  avg # of iterations =  1.3

     total cpu time spent up to now is    13388.6 secs

     total energy              =   -1616.72628577 Ry
     estimated scf accuracy    <          6.2E-10 Ry

     iteration # 12     ecut=    60.00 Ry     beta= 0.30
     Davidson diagonalization with overlap
     ethr =  6.01E-13,  avg # of iterations =  3.0

     total cpu time spent up to now is    13417.9 secs

     total energy              =   -1616.72628577 Ry
     estimated scf accuracy    <          5.2E-10 Ry

     iteration # 13     ecut=    60.00 Ry     beta= 0.30
     Davidson diagonalization with overlap
     ethr =  5.01E-13,  avg # of iterations =  1.0

     total cpu time spent up to now is    13436.6 secs

     End of self-consistent calculation

     Number of k-points >= 100: set verbosity='high' to print the bands.

     the Fermi energy is     5.8532 ev

!    total energy              =   -1616.72628577 Ry
     estimated scf accuracy    <          2.8E-11 Ry
     smearing contrib. (-TS)   =       0.00064378 Ry
     internal energy E=F+TS    =   -1616.72692955 Ry

     The total energy is F=E-TS. E is the sum of the following terms:
     one-electron contribution =   -1365.20167229 Ry
     hartree contribution      =     711.25114001 Ry
     xc contribution           =    -164.42846755 Ry
     ewald contribution        =    -547.66361753 Ry
     DFT-D3 Dispersion         =      -0.35834016 Ry
     one-center paw contrib.   =    -250.32597203 Ry

     convergence has been achieved in  13 iterations

     Forces acting on atoms (cartesian axes, Ry/au):

     atom    1 type  1   force =    -0.00007225   -0.00029002    0.00065806
     atom    2 type  1   force =     0.00009835   -0.00012036    0.00007332
     atom    3 type  1   force =    -0.00025961   -0.00043738   -0.00071593
     atom    4 type  1   force =     0.00026467    0.00012776   -0.00045449
     atom    5 type  1   force =    -0.00017192    0.00029014    0.00015295
     atom    6 type  1   force =    -0.00016467    0.00038807    0.00012521
     atom    7 type  1   force =    -0.00099888    0.00070780   -0.00040339
     atom    8 type  1   force =     0.00057632   -0.00033265    0.00000369
     atom    9 type  2   force =     0.00019410    0.00236318    0.00239275
     atom   10 type  3   force =     0.00122384   -0.00017899   -0.00062917
     atom   11 type  3   force =     0.00016965    0.00085955   -0.00087378
     atom   12 type  3   force =    -0.00106579    0.00002521   -0.00041582
     atom   13 type  4   force =     0.00033666    0.00011624    0.00077023
     atom   14 type  4   force =    -0.00004094    0.00001939   -0.00009913
     atom   15 type  4   force =     0.00031323   -0.00115792   -0.00012218
     atom   16 type  4   force =     0.00032547   -0.00035880   -0.00022956
     atom   17 type  4   force =     0.00000527    0.00007108   -0.00047942
     atom   18 type  4   force =    -0.00092573   -0.00131250    0.00074663
     atom   19 type  4   force =    -0.00056312   -0.00012838   -0.00028815
     atom   20 type  4   force =    -0.00013690    0.00007011    0.00011736
     atom   21 type  4   force =    -0.00043263   -0.00039581   -0.00081788
     atom   22 type  4   force =    -0.00200210    0.00026679    0.00002972
     atom   23 type  4   force =     0.00090935   -0.00054257    0.00061217
     atom   24 type  4   force =     0.00134480   -0.00053204    0.00055894
     atom   25 type  4   force =    -0.00003545   -0.00067410   -0.00091272
     atom   26 type  4   force =    -0.00007669    0.00028254    0.00062192
     atom   27 type  4   force =     0.00004548   -0.00040734    0.00036081
     atom   28 type  4   force =     0.00113948    0.00128098   -0.00078215

     Total force =     0.006408     Total SCF correction =     0.000009


     Computing stress (Cartesian axis) and pressure

          total   stress  (Ry/bohr**3)                   (kbar)     P=        1.01
   0.00000961  -0.00000007   0.00000782            1.41       -0.01        1.15
  -0.00000007   0.00000567   0.00000044           -0.01        0.83        0.06
   0.00000782   0.00000044   0.00000532            1.15        0.06        0.78

     Energy error            =      9.6E-05 Ry
     Gradient error          =      2.4E-03 Ry/Bohr
     Cell gradient error     =      1.4E+00 kbar

     number of scf cycles    =  35
     number of bfgs steps    =  34

     enthalpy           old  =   -1616.7261895560 Ry
     enthalpy           new  =   -1616.7262857716 Ry

     CASE: enthalpy          _new < enthalpy          _old

     new trust radius        =       0.0230095633 bohr
     new conv_thr            =            9.6E-11 Ry

     new unit-cell volume =   1730.04927 a.u.^3 (   256.36685 Ang^3 )
     density =      2.88611 g/cm^3

CELL_PARAMETERS (angstrom)
   7.758658478   0.058000579  -0.128968807
  -5.145595896   5.679440123   0.004696359
  -2.405276204   0.922152380   5.805497714

ATOMIC_POSITIONS (angstrom)
Mg              -4.3128524282        5.1731227267        5.4616983273
Mg              -3.0523274088        4.7712361780        2.6467535626
Mg               3.3747005950        1.9887851639        3.1333766825
Mg               4.5176436410        1.3340696312        0.2456926651
Mg               0.7564952382        6.3352117076        4.2028169535
Mg              -0.5306938981        0.2590779667        1.4081997920
Mg              -0.5207833644        3.4933189380        4.3018989888
Mg               0.7278169790        3.1810192599        1.3744058852
Co              -1.7656572206        5.8417612879        5.1152229006
Ni              -1.9193868893        2.3957590807        2.3512216323
Ni               2.1601749865        4.2697938849        3.2821525992
Ni               1.9517294858        0.7672411511        0.4972164919
H               -0.5077965216        5.0786658041        5.5974805926
H               -0.4183045811        2.1226951287        2.6301949770
H                0.6527467411        4.5552752727        3.0499616545
H                0.6911618728        1.6036448711        0.1830662527
H                5.1612666714        1.0606142279        2.2700959576
H                4.1134977083        1.5210057188        5.0418344028
H               -3.7698846445        5.0043707905        0.5034848931
H               -4.9420494038        5.6136856773        3.4063017839
H               -2.9102963884        6.2547032334        4.1613467451
H               -2.5738248926        3.1599468824        1.1747718630
H                2.6315862405        3.4647221348        4.5283284684
H                2.9543832934        0.7146854391        1.6761798285
H                0.4197742744        1.8617429932        5.0271734827
H                2.7073026908        3.5757202976        2.0064468334
H               -2.4629918111        3.0457245951        3.6589780141
H               -0.2244216775        4.7867031101        0.6008514921



     Writing config-only to output data dir ./outdir/mg2nih4_co_nisite.save/ :
     XML data file
     NEW-OLD atomic charge density approx. for the potential
     New effective cutoffs (rho, wfc):  522.70   65.34

     Check: negative core charge=   -0.000001

     total cpu time spent up to now is    13449.8 secs

     Self-consistent Calculation

     iteration #  1     ecut=    60.00 Ry     beta= 0.30
     Davidson diagonalization with overlap
     ethr =  1.00E-06,  avg # of iterations =  3.0

     total cpu time spent up to now is    13485.4 secs

     total energy              =   -1616.72635700 Ry
     estimated scf accuracy    <       0.00012022 Ry

     iteration #  2     ecut=    60.00 Ry     beta= 0.30
     Davidson diagonalization with overlap
     ethr =  1.17E-07,  avg # of iterations =  2.0

     total cpu time spent up to now is    13509.1 secs

     total energy              =   -1616.72635258 Ry
     estimated scf accuracy    <       0.00013078 Ry

     iteration #  3     ecut=    60.00 Ry     beta= 0.30
     Davidson diagonalization with overlap
     ethr =  1.17E-07,  avg # of iterations =  2.0

     total cpu time spent up to now is    13532.0 secs

     total energy              =   -1616.72636136 Ry
     estimated scf accuracy    <       0.00010599 Ry

     iteration #  4     ecut=    60.00 Ry     beta= 0.30
     Davidson diagonalization with overlap
     ethr =  1.03E-07,  avg # of iterations =  2.0

     total cpu time spent up to now is    13555.0 secs

     total energy              =   -1616.72636597 Ry
     estimated scf accuracy    <       0.00004985 Ry

     iteration #  5     ecut=    60.00 Ry     beta= 0.30
     Davidson diagonalization with overlap
     ethr =  4.84E-08,  avg # of iterations =  1.9

     total cpu time spent up to now is    13579.9 secs

     total energy              =   -1616.72636949 Ry
     estimated scf accuracy    <       0.00000329 Ry

     iteration #  6     ecut=    60.00 Ry     beta= 0.30
     Davidson diagonalization with overlap
     ethr =  3.19E-09,  avg # of iterations =  2.8

     total cpu time spent up to now is    13610.0 secs

     total energy              =   -1616.72636964 Ry
     estimated scf accuracy    <       0.00000396 Ry

     iteration #  7     ecut=    60.00 Ry     beta= 0.30
     Davidson diagonalization with overlap
     ethr =  3.19E-09,  avg # of iterations =  1.2

     total cpu time spent up to now is    13630.4 secs

     total energy              =   -1616.72636989 Ry
     estimated scf accuracy    <       0.00000039 Ry

     iteration #  8     ecut=    60.00 Ry     beta= 0.30
     Davidson diagonalization with overlap
     ethr =  3.79E-10,  avg # of iterations =  3.9

     total cpu time spent up to now is    13667.6 secs

     total energy              =   -1616.72636998 Ry
     estimated scf accuracy    <       0.00000009 Ry

     iteration #  9     ecut=    60.00 Ry     beta= 0.30
     Davidson diagonalization with overlap
     ethr =  9.08E-11,  avg # of iterations =  4.0

     total cpu time spent up to now is    13705.5 secs

     total energy              =   -1616.72637000 Ry
     estimated scf accuracy    <       0.00000010 Ry

     iteration # 10     ecut=    60.00 Ry     beta= 0.30
     Davidson diagonalization with overlap
     ethr =  9.08E-11,  avg # of iterations =  1.3

     total cpu time spent up to now is    13726.9 secs

     total energy              =   -1616.72637001 Ry
     estimated scf accuracy    <          9.8E-09 Ry

     iteration # 11     ecut=    60.00 Ry     beta= 0.30
     Davidson diagonalization with overlap
     ethr =  9.50E-12,  avg # of iterations =  2.1

     total cpu time spent up to now is    13751.6 secs

     total energy              =   -1616.72637001 Ry
     estimated scf accuracy    <          2.4E-09 Ry

     iteration # 12     ecut=    60.00 Ry     beta= 0.30
     Davidson diagonalization with overlap
     ethr =  2.34E-12,  avg # of iterations =  1.2

     total cpu time spent up to now is    13771.0 secs

     total energy              =   -1616.72637001 Ry
     estimated scf accuracy    <          1.6E-10 Ry

     iteration # 13     ecut=    60.00 Ry     beta= 0.30
     Davidson diagonalization with overlap
     ethr =  1.56E-13,  avg # of iterations =  2.4

     total cpu time spent up to now is    13797.5 secs

     End of self-consistent calculation

     Number of k-points >= 100: set verbosity='high' to print the bands.

     the Fermi energy is     5.8452 ev

!    total energy              =   -1616.72637001 Ry
     estimated scf accuracy    <          1.7E-11 Ry
     smearing contrib. (-TS)   =       0.00065288 Ry
     internal energy E=F+TS    =   -1616.72702289 Ry

     The total energy is F=E-TS. E is the sum of the following terms:
     one-electron contribution =   -1365.45156368 Ry
     hartree contribution      =     711.34478911 Ry
     xc contribution           =    -164.41967983 Ry
     ewald contribution        =    -547.51767720 Ry
     DFT-D3 Dispersion         =      -0.35803229 Ry
     one-center paw contrib.   =    -250.32485900 Ry

     convergence has been achieved in  13 iterations

     Forces acting on atoms (cartesian axes, Ry/au):

     atom    1 type  1   force =    -0.00027237   -0.00030944    0.00045834
     atom    2 type  1   force =     0.00002025   -0.00039917    0.00006733
     atom    3 type  1   force =    -0.00064478   -0.00019993   -0.00024081
     atom    4 type  1   force =     0.00042678    0.00026142   -0.00055993
     atom    5 type  1   force =    -0.00037991   -0.00013009    0.00001921
     atom    6 type  1   force =    -0.00043873    0.00058451    0.00059442
     atom    7 type  1   force =    -0.00077026    0.00169191   -0.00000993
     atom    8 type  1   force =     0.00051451   -0.00078810   -0.00025357
     atom    9 type  2   force =     0.00012003    0.00187430    0.00181959
     atom   10 type  3   force =     0.00115307   -0.00000505   -0.00082239
     atom   11 type  3   force =    -0.00014853    0.00085481   -0.00008099
     atom   12 type  3   force =    -0.00047344   -0.00018498   -0.00005407
     atom   13 type  4   force =    -0.00044976    0.00046138    0.00008339
     atom   14 type  4   force =     0.00005848   -0.00012394   -0.00025944
     atom   15 type  4   force =     0.00048507   -0.00129352    0.00007236
     atom   16 type  4   force =     0.00028792    0.00002727   -0.00009098
     atom   17 type  4   force =     0.00023759    0.00019015   -0.00059458
     atom   18 type  4   force =    -0.00076550   -0.00104583    0.00048705
     atom   19 type  4   force =    -0.00039157   -0.00052249   -0.00028659
     atom   20 type  4   force =     0.00002357    0.00009290    0.00025022
     atom   21 type  4   force =     0.00038515   -0.00075241   -0.00015896
     atom   22 type  4   force =    -0.00169477    0.00002018    0.00035705
     atom   23 type  4   force =     0.00069388   -0.00020712   -0.00026097
     atom   24 type  4   force =     0.00094299   -0.00047570    0.00038732
     atom   25 type  4   force =     0.00024814   -0.00058960   -0.00118182
     atom   26 type  4   force =    -0.00011844    0.00016652    0.00078072
     atom   27 type  4   force =    -0.00003736   -0.00032435    0.00009781
     atom   28 type  4   force =     0.00098798    0.00112639   -0.00061977

     Total force =     0.005762     Total SCF correction =     0.000018


     Computing stress (Cartesian axis) and pressure

          total   stress  (Ry/bohr**3)                   (kbar)     P=       -0.00
   0.00000445   0.00000322   0.00000501            0.66        0.47        0.74
   0.00000322  -0.00000060   0.00000245            0.47       -0.09        0.36
   0.00000501   0.00000245  -0.00000391            0.74        0.36       -0.58

     Energy error            =      8.4E-05 Ry
     Gradient error          =      1.9E-03 Ry/Bohr
     Cell gradient error     =      7.4E-01 kbar

     number of scf cycles    =  36
     number of bfgs steps    =  35

     enthalpy           old  =   -1616.7262857716 Ry
     enthalpy           new  =   -1616.7263700129 Ry

     CASE: enthalpy          _new < enthalpy          _old

     new trust radius        =       0.0157886594 bohr
     new conv_thr            =            8.4E-11 Ry

     new unit-cell volume =   1731.41937 a.u.^3 (   256.56988 Ang^3 )
     density =      2.88383 g/cm^3

CELL_PARAMETERS (angstrom)
   7.761663651   0.058632292  -0.128119171
  -5.147141241   5.680473922   0.005003722
  -2.405402049   0.923133593   5.806224602

ATOMIC_POSITIONS (angstrom)
Mg              -4.3130633784        5.1735040785        5.4656065132
Mg              -3.0530393481        4.7731760347        2.6489112111
Mg               3.3776552600        1.9885754652        3.1320415042
Mg               4.5194559017        1.3341943795        0.2448003130
Mg               0.7589965735        6.3370928993        4.2038745279
Mg              -0.5290985163        0.2595373519        1.4068451259
Mg              -0.5216390151        3.4929544371        4.3016968218
Mg               0.7297905510        3.1838143838        1.3755361986
Co              -1.7647762053        5.8452884603        5.1182940699
Ni              -1.9202354771        2.3964522195        2.3502479219
Ni               2.1636823127        4.2714483964        3.2829675753
Ni               1.9517262732        0.7682329593        0.4975756665
H               -0.5067156456        5.0800069573        5.6009490567
H               -0.4191382539        2.1258842151        2.6291581646
H                0.6553092157        4.5548677197        3.0520744916
H                0.6914743027        1.6045222004        0.1840635273
H                5.1628133907        1.0615009951        2.2712511828
H                4.1140571173        1.5221517893        5.0464598539
H               -3.7741567238        5.0075406850        0.5037000088
H               -4.9452877409        5.6161057381        3.4063270027
H               -2.9089858658        6.2564009477        4.1613939365
H               -2.5825115540        3.1611810792        1.1772057236
H                2.6368251009        3.4673679626        4.5312635230
H                2.9594405393        0.7124384180        1.6742748537
H                0.4190322428        1.8610368440        5.0271963877
H                2.7109884843        3.5782790949        2.0076737024
H               -2.4627779410        3.0447736626        3.6602597833
H               -0.2221365405        4.7930279354        0.6018794946



     Writing config-only to output data dir ./outdir/mg2nih4_co_nisite.save/ :
     XML data file
     NEW-OLD atomic charge density approx. for the potential
     New effective cutoffs (rho, wfc):  522.29   65.29

     Check: negative core charge=   -0.000001

     total cpu time spent up to now is    13810.6 secs

     Self-consistent Calculation

     iteration #  1     ecut=    60.00 Ry     beta= 0.30
     Davidson diagonalization with overlap
     ethr =  1.00E-06,  avg # of iterations =  3.0

     Threshold (ethr) on eigenvalues was too large:
     Diagonalizing with lowered threshold

     Davidson diagonalization with overlap
     ethr =  7.53E-08,  avg # of iterations =  1.0

     total cpu time spent up to now is    13863.7 secs

     total energy              =   -1616.72642184 Ry
     estimated scf accuracy    <       0.00007746 Ry

     iteration #  2     ecut=    60.00 Ry     beta= 0.30
     Davidson diagonalization with overlap
     ethr =  7.52E-08,  avg # of iterations =  2.0

     total cpu time spent up to now is    13887.8 secs

     total energy              =   -1616.72642147 Ry
     estimated scf accuracy    <       0.00006969 Ry

     iteration #  3     ecut=    60.00 Ry     beta= 0.30
     Davidson diagonalization with overlap
     ethr =  6.77E-08,  avg # of iterations =  2.0

     total cpu time spent up to now is    13910.8 secs

     total energy              =   -1616.72642794 Ry
     estimated scf accuracy    <       0.00003254 Ry

     iteration #  4     ecut=    60.00 Ry     beta= 0.30
     Davidson diagonalization with overlap
     ethr =  3.16E-08,  avg # of iterations =  2.0

     total cpu time spent up to now is    13933.3 secs

     total energy              =   -1616.72642853 Ry
     estimated scf accuracy    <       0.00003272 Ry

     iteration #  5     ecut=    60.00 Ry     beta= 0.30
     Davidson diagonalization with overlap
     ethr =  3.16E-08,  avg # of iterations =  1.8

     total cpu time spent up to now is    13958.2 secs

     total energy              =   -1616.72643077 Ry
     estimated scf accuracy    <       0.00000197 Ry

     iteration #  6     ecut=    60.00 Ry     beta= 0.30
     Davidson diagonalization with overlap
     ethr =  1.91E-09,  avg # of iterations =  2.7

     total cpu time spent up to now is    13988.1 secs

     total energy              =   -1616.72643091 Ry
     estimated scf accuracy    <       0.00000120 Ry

     iteration #  7     ecut=    60.00 Ry     beta= 0.30
     Davidson diagonalization with overlap
     ethr =  1.16E-09,  avg # of iterations =  1.1

     total cpu time spent up to now is    14007.5 secs

     total energy              =   -1616.72643095 Ry
     estimated scf accuracy    <       0.00000032 Ry

     iteration #  8     ecut=    60.00 Ry     beta= 0.30
     Davidson diagonalization with overlap
     ethr =  3.10E-10,  avg # of iterations =  2.0

     total cpu time spent up to now is    14031.6 secs

     total energy              =   -1616.72643100 Ry
     estimated scf accuracy    <       0.00000010 Ry

     iteration #  9     ecut=    60.00 Ry     beta= 0.30
     Davidson diagonalization with overlap
     ethr =  9.85E-11,  avg # of iterations =  4.9

     total cpu time spent up to now is    14071.9 secs

     total energy              =   -1616.72643101 Ry
     estimated scf accuracy    <       0.00000005 Ry

     iteration # 10     ecut=    60.00 Ry     beta= 0.30
     Davidson diagonalization with overlap
     ethr =  4.77E-11,  avg # of iterations =  3.0

     total cpu time spent up to now is    14102.7 secs

     total energy              =   -1616.72643102 Ry
     estimated scf accuracy    <          3.8E-09 Ry

     iteration # 11     ecut=    60.00 Ry     beta= 0.30
     Davidson diagonalization with overlap
     ethr =  3.70E-12,  avg # of iterations =  3.8

     total cpu time spent up to now is    14142.4 secs

     total energy              =   -1616.72643102 Ry
     estimated scf accuracy    <          4.9E-10 Ry

     iteration # 12     ecut=    60.00 Ry     beta= 0.30
     Davidson diagonalization with overlap
     ethr =  4.75E-13,  avg # of iterations =  1.7

     total cpu time spent up to now is    14167.0 secs

     End of self-consistent calculation

     Number of k-points >= 100: set verbosity='high' to print the bands.

     the Fermi energy is     5.8365 ev

!    total energy              =   -1616.72643102 Ry
     estimated scf accuracy    <          5.1E-11 Ry
     smearing contrib. (-TS)   =       0.00065655 Ry
     internal energy E=F+TS    =   -1616.72708757 Ry

     The total energy is F=E-TS. E is the sum of the following terms:
     one-electron contribution =   -1365.75546605 Ry
     hartree contribution      =     711.46974757 Ry
     xc contribution           =    -164.41375434 Ry
     ewald contribution        =    -547.34585176 Ry
     DFT-D3 Dispersion         =      -0.35776025 Ry
     one-center paw contrib.   =    -250.32400274 Ry

     convergence has been achieved in  12 iterations

     Forces acting on atoms (cartesian axes, Ry/au):

     atom    1 type  1   force =    -0.00017660   -0.00021371    0.00039850
     atom    2 type  1   force =    -0.00002788   -0.00052731    0.00008532
     atom    3 type  1   force =    -0.00078510   -0.00004568    0.00012590
     atom    4 type  1   force =     0.00036843    0.00031145   -0.00063204
     atom    5 type  1   force =    -0.00060614   -0.00026448    0.00003759
     atom    6 type  1   force =    -0.00063335    0.00064450    0.00079287
     atom    7 type  1   force =    -0.00069209    0.00217583    0.00026922
     atom    8 type  1   force =     0.00049808   -0.00088046   -0.00041780
     atom    9 type  2   force =     0.00022408    0.00051927    0.00069978
     atom   10 type  3   force =     0.00074290    0.00023313   -0.00077885
     atom   11 type  3   force =    -0.00026143    0.00060852    0.00074379
     atom   12 type  3   force =     0.00030249   -0.00039091    0.00023150
     atom   13 type  4   force =    -0.00089937    0.00072847   -0.00030224
     atom   14 type  4   force =     0.00020832   -0.00024717   -0.00031318
     atom   15 type  4   force =     0.00043869   -0.00128848    0.00015926
     atom   16 type  4   force =     0.00026244    0.00025599   -0.00004392
     atom   17 type  4   force =     0.00046913    0.00037567   -0.00064652
     atom   18 type  4   force =    -0.00023093   -0.00022544    0.00017418
     atom   19 type  4   force =    -0.00017879   -0.00064302   -0.00024419
     atom   20 type  4   force =     0.00017996    0.00018259    0.00036134
     atom   21 type  4   force =     0.00059880   -0.00080419    0.00017345
     atom   22 type  4   force =    -0.00142188   -0.00015401    0.00055259
     atom   23 type  4   force =     0.00052649    0.00003642   -0.00087184
     atom   24 type  4   force =     0.00045008   -0.00044185    0.00004019
     atom   25 type  4   force =     0.00033939   -0.00049126   -0.00115816
     atom   26 type  4   force =    -0.00010328    0.00001437    0.00066343
     atom   27 type  4   force =    -0.00002996   -0.00031363   -0.00016097
     atom   28 type  4   force =     0.00043749    0.00084539    0.00006082

     Total force =     0.005171     Total SCF correction =     0.000017


     Computing stress (Cartesian axis) and pressure

          total   stress  (Ry/bohr**3)                   (kbar)     P=       -0.62
   0.00000003   0.00000444   0.00000168            0.00        0.65        0.25
   0.00000444  -0.00000392   0.00000316            0.65       -0.58        0.46
   0.00000168   0.00000316  -0.00000872            0.25        0.46       -1.28

     Energy error            =      6.1E-05 Ry
     Gradient error          =      2.2E-03 Ry/Bohr
     Cell gradient error     =      1.3E+00 kbar

     number of scf cycles    =  37
     number of bfgs steps    =  36

     enthalpy           old  =   -1616.7263700129 Ry
     enthalpy           new  =   -1616.7264310239 Ry

     CASE: enthalpy          _new < enthalpy          _old

     new trust radius        =       0.0195095628 bohr
     new conv_thr            =            6.1E-11 Ry

     new unit-cell volume =   1731.91958 a.u.^3 (   256.64400 Ang^3 )
     density =      2.88300 g/cm^3

CELL_PARAMETERS (angstrom)
   7.764720172   0.060398244  -0.127709205
  -5.147885972   5.680024458   0.005864942
  -2.405682157   0.923946975   5.804934459

ATOMIC_POSITIONS (angstrom)
Mg              -4.3133363118        5.1723665785        5.4690961076
Mg              -3.0527069095        4.7743961208        2.6520769786
Mg               3.3802289781        1.9889305419        3.1286189276
Mg               4.5219890956        1.3349247130        0.2424193357
Mg               0.7617169493        6.3384926940        4.2035242490
Mg              -0.5279760486        0.2601848413        1.4055873288
Mg              -0.5223245596        3.4941114176        4.3002275599
Mg               0.7324448456        3.1854132661        1.3757596451
Co              -1.7634491930        5.8483106043        5.1195001724
Ni              -1.9200132801        2.3970236181        2.3477709284
Ni               2.1672998266        4.2735071305        3.2832152316
Ni               1.9521397044        0.7693059732        0.4983322024
H               -0.5059719512        5.0814579718        5.6022445604
H               -0.4193443172        2.1285065266        2.6272605022
H                0.6584965010        4.5533679043        3.0529932468
H                0.6921313983        1.6052359242        0.1846883922
H                5.1654031116        1.0633856350        2.2701910877
H                4.1156662550        1.5231308382        5.0474705542
H               -3.7778538534        5.0091584019        0.5044719656
H               -4.9478693811        5.6174532383        3.4066180973
H               -2.9088002256        6.2593460217        4.1618687946
H               -2.5926906083        3.1618166226        1.1800626980
H                2.6429221114        3.4694635174        4.5314605527
H                2.9658831633        0.7093997908        1.6717505028
H                0.4181899244        1.8600992622        5.0247429643
H                2.7149056482        3.5816864465        2.0080945805
H               -2.4622570963        3.0422566406        3.6605899849
H               -0.2186951795        4.7984432270        0.6026255958



     Writing config-only to output data dir ./outdir/mg2nih4_co_nisite.save/ :
     XML data file
     NEW-OLD atomic charge density approx. for the potential
     New effective cutoffs (rho, wfc):  522.12   65.27

     Check: negative core charge=   -0.000001

     total cpu time spent up to now is    14180.4 secs

     Self-consistent Calculation

     iteration #  1     ecut=    60.00 Ry     beta= 0.30
     Davidson diagonalization with overlap
     ethr =  1.00E-06,  avg # of iterations =  3.0

     Threshold (ethr) on eigenvalues was too large:
     Diagonalizing with lowered threshold

     Davidson diagonalization with overlap
     ethr =  6.48E-08,  avg # of iterations =  1.0

     total cpu time spent up to now is    14234.1 secs

     total energy              =   -1616.72648930 Ry
     estimated scf accuracy    <       0.00006668 Ry

     iteration #  2     ecut=    60.00 Ry     beta= 0.30
     Davidson diagonalization with overlap
     ethr =  6.47E-08,  avg # of iterations =  2.0

     total cpu time spent up to now is    14257.0 secs

     total energy              =   -1616.72649207 Ry
     estimated scf accuracy    <       0.00001490 Ry

     iteration #  3     ecut=    60.00 Ry     beta= 0.30
     Davidson diagonalization with overlap
     ethr =  1.45E-08,  avg # of iterations =  2.0

     total cpu time spent up to now is    14281.2 secs

     total energy              =   -1616.72649114 Ry
     estimated scf accuracy    <       0.00002168 Ry

     iteration #  4     ecut=    60.00 Ry     beta= 0.30
     Davidson diagonalization with overlap
     ethr =  1.45E-08,  avg # of iterations =  2.0

     total cpu time spent up to now is    14304.5 secs

     total energy              =   -1616.72649261 Ry
     estimated scf accuracy    <       0.00000469 Ry

     iteration #  5     ecut=    60.00 Ry     beta= 0.30
     Davidson diagonalization with overlap
     ethr =  4.55E-09,  avg # of iterations =  2.5

     total cpu time spent up to now is    14332.9 secs

     total energy              =   -1616.72649244 Ry
     estimated scf accuracy    <       0.00001010 Ry

     iteration #  6     ecut=    60.00 Ry     beta= 0.30
     Davidson diagonalization with overlap
     ethr =  4.55E-09,  avg # of iterations =  2.5

     total cpu time spent up to now is    14360.4 secs

     total energy              =   -1616.72649309 Ry
     estimated scf accuracy    <       0.00000090 Ry

     iteration #  7     ecut=    60.00 Ry     beta= 0.30
     Davidson diagonalization with overlap
     ethr =  8.72E-10,  avg # of iterations =  2.0

     total cpu time spent up to now is    14383.3 secs

     total energy              =   -1616.72649319 Ry
     estimated scf accuracy    <       0.00000014 Ry

     iteration #  8     ecut=    60.00 Ry     beta= 0.30
     Davidson diagonalization with overlap
     ethr =  1.31E-10,  avg # of iterations =  4.4

     total cpu time spent up to now is    14425.4 secs

     total energy              =   -1616.72649321 Ry
     estimated scf accuracy    <       0.00000001 Ry

     iteration #  9     ecut=    60.00 Ry     beta= 0.30
     Davidson diagonalization with overlap
     ethr =  1.13E-11,  avg # of iterations =  4.6

     total cpu time spent up to now is    14473.3 secs

     total energy              =   -1616.72649322 Ry
     estimated scf accuracy    <          3.2E-09 Ry

     iteration # 10     ecut=    60.00 Ry     beta= 0.30
     Davidson diagonalization with overlap
     ethr =  3.10E-12,  avg # of iterations =  2.0

     total cpu time spent up to now is    14497.0 secs

     total energy              =   -1616.72649322 Ry
     estimated scf accuracy    <          3.0E-09 Ry

     iteration # 11     ecut=    60.00 Ry     beta= 0.30
     Davidson diagonalization with overlap
     ethr =  2.89E-12,  avg # of iterations =  1.1

     total cpu time spent up to now is    14516.4 secs

     total energy              =   -1616.72649322 Ry
     estimated scf accuracy    <          1.2E-10 Ry

     iteration # 12     ecut=    60.00 Ry     beta= 0.30
     Davidson diagonalization with overlap
     ethr =  1.17E-13,  avg # of iterations =  3.8

     total cpu time spent up to now is    14551.8 secs

     End of self-consistent calculation

     Number of k-points >= 100: set verbosity='high' to print the bands.

     the Fermi energy is     5.8325 ev

!    total energy              =   -1616.72649322 Ry
     estimated scf accuracy    <          4.8E-11 Ry
     smearing contrib. (-TS)   =       0.00066015 Ry
     internal energy E=F+TS    =   -1616.72715337 Ry

     The total energy is F=E-TS. E is the sum of the following terms:
     one-electron contribution =   -1365.85698003 Ry
     hartree contribution      =     711.50840640 Ry
     xc contribution           =    -164.41071506 Ry
     ewald contribution        =    -547.28668913 Ry
     DFT-D3 Dispersion         =      -0.35766178 Ry
     one-center paw contrib.   =    -250.32351376 Ry

     convergence has been achieved in  12 iterations

     Forces acting on atoms (cartesian axes, Ry/au):

     atom    1 type  1   force =     0.00004575   -0.00008240    0.00038768
     atom    2 type  1   force =    -0.00013259   -0.00058601    0.00007925
     atom    3 type  1   force =    -0.00082397    0.00007570    0.00037721
     atom    4 type  1   force =     0.00011505    0.00036904   -0.00067656
     atom    5 type  1   force =    -0.00066650   -0.00027401    0.00006672
     atom    6 type  1   force =    -0.00072944    0.00065414    0.00091862
     atom    7 type  1   force =    -0.00063756    0.00224968    0.00049120
     atom    8 type  1   force =     0.00046763   -0.00081801   -0.00044032
     atom    9 type  2   force =     0.00001993   -0.00075412   -0.00078555
     atom   10 type  3   force =     0.00015487    0.00045807   -0.00056636
     atom   11 type  3   force =    -0.00022322    0.00029201    0.00131620
     atom   12 type  3   force =     0.00103917   -0.00054116    0.00036512
     atom   13 type  4   force =    -0.00102372    0.00081858   -0.00049491
     atom   14 type  4   force =     0.00035142   -0.00033789   -0.00032541
     atom   15 type  4   force =     0.00022753   -0.00114034    0.00018231
     atom   16 type  4   force =     0.00028191    0.00039050   -0.00002688
     atom   17 type  4   force =     0.00069200    0.00053686   -0.00066306
     atom   18 type  4   force =     0.00030388    0.00072453   -0.00009830
     atom   19 type  4   force =     0.00006652   -0.00058623   -0.00018620
     atom   20 type  4   force =     0.00028992    0.00024663    0.00044810
     atom   21 type  4   force =     0.00096799   -0.00091176    0.00054493
     atom   22 type  4   force =    -0.00120306   -0.00028232    0.00063718
     atom   23 type  4   force =     0.00047933    0.00017464   -0.00117350
     atom   24 type  4   force =    -0.00006306   -0.00042968   -0.00037575
     atom   25 type  4   force =     0.00029244   -0.00035456   -0.00098164
     atom   26 type  4   force =    -0.00007747   -0.00011293    0.00049013
     atom   27 type  4   force =     0.00000812   -0.00034436   -0.00044034
     atom   28 type  4   force =    -0.00022287    0.00056540    0.00093016

     Total force =     0.005624     Total SCF correction =     0.000030


     Computing stress (Cartesian axis) and pressure

          total   stress  (Ry/bohr**3)                   (kbar)     P=       -0.94
  -0.00000364   0.00000413  -0.00000198           -0.53        0.61       -0.29
   0.00000413  -0.00000500   0.00000355            0.61       -0.74        0.52
  -0.00000198   0.00000355  -0.00001047           -0.29        0.52       -1.54

     Energy error            =      6.2E-05 Ry
     Gradient error          =      2.2E-03 Ry/Bohr
     Cell gradient error     =      1.5E+00 kbar

     number of scf cycles    =  38
     number of bfgs steps    =  37

     enthalpy           old  =   -1616.7264310239 Ry
     enthalpy           new  =   -1616.7264932221 Ry

     CASE: enthalpy          _new < enthalpy          _old

     new trust radius        =       0.0214669994 bohr
     new conv_thr            =            6.2E-11 Ry

     new unit-cell volume =   1731.61492 a.u.^3 (   256.59886 Ang^3 )
     density =      2.88350 g/cm^3

CELL_PARAMETERS (angstrom)
   7.766793035   0.062310557  -0.127760988
  -5.147871946   5.678948143   0.007338864
  -2.405989913   0.924950115   5.802424376

ATOMIC_POSITIONS (angstrom)
Mg              -4.3133326220        5.1710094714        5.4723316979
Mg              -3.0519211518        4.7752102335        2.6557603112
Mg               3.3817610234        1.9894200149        3.1241992265
Mg               4.5241257486        1.3357329776        0.2391607020
Mg               0.7636278709        6.3394841542        4.2026136632
Mg              -0.5272633544        0.2613220257        1.4044444067
Mg              -0.5234210141        3.4961178705        4.2980578173
Mg               0.7354178952        3.1865860005        1.3753778430
Co              -1.7623624946        5.8507965898        5.1191762073
Ni              -1.9194416377        2.3978896338        2.3446022951
Ni               2.1703270763        4.2755299799        3.2834544352
Ni               1.9528986819        0.7701374729        0.4993199161
H               -0.5061650351        5.0827876340        5.6015262128
H               -0.4192639366        2.1308304880        2.6246181663
H                0.6613815243        4.5510496621        3.0534310601
H                0.6931524124        1.6059611923        0.1853763746
H                5.1679118661        1.0656880612        2.2677401532
H                4.1171974151        1.5246055116        5.0463467781
H               -3.7810088707        5.0100153188        0.5056703521
H               -4.9497359541        5.6185642166        3.4072759725
H               -2.9087820187        6.2625862262        4.1627267093
H               -2.6035330499        3.1620811188        1.1833316184
H                2.6488587617        3.4712166068        4.5298443704
H                2.9722456652        0.7057439633        1.6686157130
H                0.4170471527        1.8590229463        5.0208432142
H                2.7181870551        3.5853165803        2.0080199162
H               -2.4614475375        3.0391653738        3.6602380413
H               -0.2154249991        4.8030520829        0.6039283551



     Writing config-only to output data dir ./outdir/mg2nih4_co_nisite.save/ :
     XML data file
     NEW-OLD atomic charge density approx. for the potential
     New effective cutoffs (rho, wfc):  522.15   65.28

     Check: negative core charge=   -0.000001

     total cpu time spent up to now is    14565.2 secs

     Self-consistent Calculation

     iteration #  1     ecut=    60.00 Ry     beta= 0.30
     Davidson diagonalization with overlap
     ethr =  1.00E-06,  avg # of iterations =  3.0

     Threshold (ethr) on eigenvalues was too large:
     Diagonalizing with lowered threshold

     Davidson diagonalization with overlap
     ethr =  7.06E-08,  avg # of iterations =  1.0

     total cpu time spent up to now is    14619.1 secs

     total energy              =   -1616.72655489 Ry
     estimated scf accuracy    <       0.00007258 Ry

     iteration #  2     ecut=    60.00 Ry     beta= 0.30
     Davidson diagonalization with overlap
     ethr =  7.05E-08,  avg # of iterations =  2.0

     total cpu time spent up to now is    14642.4 secs

     total energy              =   -1616.72655464 Ry
     estimated scf accuracy    <       0.00003639 Ry

     iteration #  3     ecut=    60.00 Ry     beta= 0.30
     Davidson diagonalization with overlap
     ethr =  3.53E-08,  avg # of iterations =  2.4

     total cpu time spent up to now is    14670.6 secs

     total energy              =   -1616.72655501 Ry
     estimated scf accuracy    <       0.00006384 Ry

     iteration #  4     ecut=    60.00 Ry     beta= 0.30
     Davidson diagonalization with overlap
     ethr =  3.53E-08,  avg # of iterations =  2.1

     total cpu time spent up to now is    14694.0 secs

     total energy              =   -1616.72655810 Ry
     estimated scf accuracy    <       0.00002288 Ry

     iteration #  5     ecut=    60.00 Ry     beta= 0.30
     Davidson diagonalization with overlap
     ethr =  2.22E-08,  avg # of iterations =  2.0

     total cpu time spent up to now is    14717.2 secs

     total energy              =   -1616.72655994 Ry
     estimated scf accuracy    <       0.00000334 Ry

     iteration #  6     ecut=    60.00 Ry     beta= 0.30
     Davidson diagonalization with overlap
     ethr =  3.25E-09,  avg # of iterations =  1.9

     total cpu time spent up to now is    14741.1 secs

     total energy              =   -1616.72656006 Ry
     estimated scf accuracy    <       0.00000138 Ry

     iteration #  7     ecut=    60.00 Ry     beta= 0.30
     Davidson diagonalization with overlap
     ethr =  1.34E-09,  avg # of iterations =  1.6

     total cpu time spent up to now is    14767.4 secs

     total energy              =   -1616.72656018 Ry
     estimated scf accuracy    <       0.00000018 Ry

     iteration #  8     ecut=    60.00 Ry     beta= 0.30
     Davidson diagonalization with overlap
     ethr =  1.79E-10,  avg # of iterations =  4.3

     total cpu time spent up to now is    14811.4 secs

     total energy              =   -1616.72656022 Ry
     estimated scf accuracy    <       0.00000005 Ry

     iteration #  9     ecut=    60.00 Ry     beta= 0.30
     Davidson diagonalization with overlap
     ethr =  5.01E-11,  avg # of iterations =  4.0

     total cpu time spent up to now is    14850.9 secs

     total energy              =   -1616.72656024 Ry
     estimated scf accuracy    <       0.00000001 Ry

     iteration # 10     ecut=    60.00 Ry     beta= 0.30
     Davidson diagonalization with overlap
     ethr =  1.03E-11,  avg # of iterations =  1.7

     total cpu time spent up to now is    14876.7 secs

     total energy              =   -1616.72656024 Ry
     estimated scf accuracy    <          3.9E-10 Ry

     iteration # 11     ecut=    60.00 Ry     beta= 0.30
     Davidson diagonalization with overlap
     ethr =  3.75E-13,  avg # of iterations =  3.2

     total cpu time spent up to now is    14909.5 secs

     total energy              =   -1616.72656024 Ry
     estimated scf accuracy    <          8.1E-10 Ry

     iteration # 12     ecut=    60.00 Ry     beta= 0.30
     Davidson diagonalization with overlap
     ethr =  3.75E-13,  avg # of iterations =  2.0

     total cpu time spent up to now is    14933.9 secs

     total energy              =   -1616.72656024 Ry
     estimated scf accuracy    <          1.4E-10 Ry

     iteration # 13     ecut=    60.00 Ry     beta= 0.30
     Davidson diagonalization with overlap
     ethr =  1.32E-13,  avg # of iterations =  1.9

     total cpu time spent up to now is    14959.7 secs

     End of self-consistent calculation

     Number of k-points >= 100: set verbosity='high' to print the bands.

     the Fermi energy is     5.8322 ev

!    total energy              =   -1616.72656024 Ry
     estimated scf accuracy    <          6.2E-12 Ry
     smearing contrib. (-TS)   =       0.00066437 Ry
     internal energy E=F+TS    =   -1616.72722461 Ry

     The total energy is F=E-TS. E is the sum of the following terms:
     one-electron contribution =   -1365.77576888 Ry
     hartree contribution      =     711.46947051 Ry
     xc contribution           =    -164.41070188 Ry
     ewald contribution        =    -547.32909045 Ry
     DFT-D3 Dispersion         =      -0.35772276 Ry
     one-center paw contrib.   =    -250.32341115 Ry

     convergence has been achieved in  13 iterations

     Forces acting on atoms (cartesian axes, Ry/au):

     atom    1 type  1   force =     0.00023087   -0.00000695    0.00041918
     atom    2 type  1   force =    -0.00024975   -0.00059144    0.00006546
     atom    3 type  1   force =    -0.00080302    0.00016830    0.00047056
     atom    4 type  1   force =    -0.00018887    0.00046079   -0.00070304
     atom    5 type  1   force =    -0.00059132   -0.00022832    0.00006004
     atom    6 type  1   force =    -0.00074754    0.00063165    0.00102064
     atom    7 type  1   force =    -0.00054788    0.00206421    0.00066508
     atom    8 type  1   force =     0.00038143   -0.00073872   -0.00035021
     atom    9 type  2   force =    -0.00013316   -0.00162077   -0.00183981
     atom   10 type  3   force =    -0.00030661    0.00056505   -0.00029705
     atom   11 type  3   force =    -0.00017076    0.00006594    0.00147938
     atom   12 type  3   force =     0.00143556   -0.00059201    0.00028059
     atom   13 type  4   force =    -0.00081696    0.00074853   -0.00049343
     atom   14 type  4   force =     0.00045315   -0.00038810   -0.00031585
     atom   15 type  4   force =    -0.00004883   -0.00089215    0.00015937
     atom   16 type  4   force =     0.00033314    0.00045288   -0.00003729
     atom   17 type  4   force =     0.00085603    0.00058554   -0.00065583
     atom   18 type  4   force =     0.00064369    0.00139492   -0.00029652
     atom   19 type  4   force =     0.00030111   -0.00046366   -0.00011648
     atom   20 type  4   force =     0.00034586    0.00025971    0.00050808
     atom   21 type  4   force =     0.00105568   -0.00092569    0.00065732
     atom   22 type  4   force =    -0.00106154   -0.00031016    0.00055511
     atom   23 type  4   force =     0.00056153    0.00015951   -0.00114342
     atom   24 type  4   force =    -0.00038641   -0.00041615   -0.00059790
     atom   25 type  4   force =     0.00019036   -0.00019258   -0.00079961
     atom   26 type  4   force =    -0.00006333   -0.00017830    0.00036342
     atom   27 type  4   force =     0.00000784   -0.00037099   -0.00062629
     atom   28 type  4   force =    -0.00068026    0.00035896    0.00156849

     Total force =     0.006345     Total SCF correction =     0.000010


     Computing stress (Cartesian axis) and pressure

          total   stress  (Ry/bohr**3)                   (kbar)     P=       -0.92
  -0.00000490   0.00000278  -0.00000450           -0.72        0.41       -0.66
   0.00000278  -0.00000434   0.00000337            0.41       -0.64        0.50
  -0.00000450   0.00000337  -0.00000956           -0.66        0.50       -1.41

     Energy error            =      6.7E-05 Ry
     Gradient error          =      2.1E-03 Ry/Bohr
     Cell gradient error     =      1.4E+00 kbar

     number of scf cycles    =  39
     number of bfgs steps    =  38

     enthalpy           old  =   -1616.7264932221 Ry
     enthalpy           new  =   -1616.7265602378 Ry

     CASE: enthalpy          _new < enthalpy          _old

     new trust radius        =       0.0322068692 bohr
     new conv_thr            =            6.7E-11 Ry

     new unit-cell volume =   1730.54844 a.u.^3 (   256.44082 Ang^3 )
     density =      2.88528 g/cm^3

CELL_PARAMETERS (angstrom)
   7.768629997   0.064768573  -0.128855575
  -5.147313044   5.677348748   0.010196706
  -2.406916278   0.926497478   5.798158782

ATOMIC_POSITIONS (angstrom)
Mg              -4.3136907788        5.1691107629        5.4772727887
Mg              -3.0506917122        4.7764293172        2.6619781229
Mg               3.3825915934        1.9901249164        3.1166323497
Mg               4.5264471369        1.3367263685        0.2332719568
Mg               0.7649350055        6.3407473019        4.2007185553
Mg              -0.5267165387        0.2632247415        1.4030146245
Mg              -0.5257336773        3.4995863192        4.2945156686
Mg               0.7395047234        3.1878818159        1.3742631949
Co              -1.7618354991        5.8535600298        5.1169268818
Ni              -1.9187581996        2.3995402800        2.3397993783
Ni               2.1735456737        4.2782309770        3.2835811611
Ni               1.9542724607        0.7710374286        0.5007745942
H               -0.5078126390        5.0845407875        5.5988472920
H               -0.4191368746        2.1338184459        2.6203569397
H                0.6644999355        4.5473339486        3.0534289593
H                0.6948759110        1.6069455490        0.1862380398
H                5.1712095279        1.0690268203        2.2625724155
H                4.1190639058        1.5267708102        5.0421727549
H               -3.7850210062        5.0110464406        0.5080775334
H               -4.9521904884        5.6202856138        3.4090729904
H               -2.9100973441        6.2684817190        4.1648123077
H               -2.6196975517        3.1623904462        1.1884612584
H                2.6565468669        3.4730384671        4.5257910281
H                2.9810038952        0.6996487925        1.6633888104
H                0.4144441011        1.8573630463        5.0143458716
H                2.7218185004        3.5907645545        2.0070630678
H               -2.4604145048        3.0342368240        3.6593590784
H               -0.2113529661        4.8087146540        0.6062611604



     Writing config-only to output data dir ./outdir/mg2nih4_co_nisite.save/ :
     XML data file
     NEW-OLD atomic charge density approx. for the potential
     New effective cutoffs (rho, wfc):  522.43   65.32

     Check: negative core charge=   -0.000001

     total cpu time spent up to now is    14974.3 secs

     Self-consistent Calculation

     iteration #  1     ecut=    60.00 Ry     beta= 0.30
     Davidson diagonalization with overlap
     ethr =  1.00E-06,  avg # of iterations =  3.5

     total cpu time spent up to now is    15018.9 secs

     total energy              =   -1616.72663337 Ry
     estimated scf accuracy    <       0.00018131 Ry

     iteration #  2     ecut=    60.00 Ry     beta= 0.30
     Davidson diagonalization with overlap
     ethr =  1.76E-07,  avg # of iterations =  2.0

     total cpu time spent up to now is    15044.5 secs

     total energy              =   -1616.72663252 Ry
     estimated scf accuracy    <       0.00015841 Ry

     iteration #  3     ecut=    60.00 Ry     beta= 0.30
     Davidson diagonalization with overlap
     ethr =  1.54E-07,  avg # of iterations =  2.0

     total cpu time spent up to now is    15069.3 secs

     total energy              =   -1616.72664481 Ry
     estimated scf accuracy    <       0.00010290 Ry

     iteration #  4     ecut=    60.00 Ry     beta= 0.30
     Davidson diagonalization with overlap
     ethr =  9.99E-08,  avg # of iterations =  2.0

     total cpu time spent up to now is    15094.1 secs

     total energy              =   -1616.72664729 Ry
     estimated scf accuracy    <       0.00008413 Ry

     iteration #  5     ecut=    60.00 Ry     beta= 0.30
     Davidson diagonalization with overlap
     ethr =  8.17E-08,  avg # of iterations =  2.0

     total cpu time spent up to now is    15120.4 secs

     total energy              =   -1616.72665336 Ry
     estimated scf accuracy    <       0.00000596 Ry

     iteration #  6     ecut=    60.00 Ry     beta= 0.30
     Davidson diagonalization with overlap
     ethr =  5.79E-09,  avg # of iterations =  2.5

     total cpu time spent up to now is    15149.6 secs

     total energy              =   -1616.72665361 Ry
     estimated scf accuracy    <       0.00000336 Ry

     iteration #  7     ecut=    60.00 Ry     beta= 0.30
     Davidson diagonalization with overlap
     ethr =  3.26E-09,  avg # of iterations =  1.2

     total cpu time spent up to now is    15172.3 secs

     total energy              =   -1616.72665385 Ry
     estimated scf accuracy    <       0.00000063 Ry

     iteration #  8     ecut=    60.00 Ry     beta= 0.30
     Davidson diagonalization with overlap
     ethr =  6.15E-10,  avg # of iterations =  2.4

     total cpu time spent up to now is    15202.4 secs

     total energy              =   -1616.72665395 Ry
     estimated scf accuracy    <       0.00000019 Ry

     iteration #  9     ecut=    60.00 Ry     beta= 0.30
     Davidson diagonalization with overlap
     ethr =  1.83E-10,  avg # of iterations =  5.0

     total cpu time spent up to now is    15245.8 secs

     total energy              =   -1616.72665400 Ry
     estimated scf accuracy    <       0.00000008 Ry

     iteration # 10     ecut=    60.00 Ry     beta= 0.30
     Davidson diagonalization with overlap
     ethr =  7.46E-11,  avg # of iterations =  1.9

     total cpu time spent up to now is    15272.5 secs

     total energy              =   -1616.72665401 Ry
     estimated scf accuracy    <       0.00000001 Ry

     iteration # 11     ecut=    60.00 Ry     beta= 0.30
     Davidson diagonalization with overlap
     ethr =  1.23E-11,  avg # of iterations =  2.2

     total cpu time spent up to now is    15299.8 secs

     total energy              =   -1616.72665402 Ry
     estimated scf accuracy    <          1.2E-09 Ry

     iteration # 12     ecut=    60.00 Ry     beta= 0.30
     Davidson diagonalization with overlap
     ethr =  1.20E-12,  avg # of iterations =  2.0

     total cpu time spent up to now is    15326.1 secs

     total energy              =   -1616.72665402 Ry
     estimated scf accuracy    <          1.6E-10 Ry

     iteration # 13     ecut=    60.00 Ry     beta= 0.30
     Davidson diagonalization with overlap
     ethr =  1.58E-13,  avg # of iterations =  2.3

     total cpu time spent up to now is    15352.9 secs

     End of self-consistent calculation

     Number of k-points >= 100: set verbosity='high' to print the bands.

     the Fermi energy is     5.8349 ev

!    total energy              =   -1616.72665402 Ry
     estimated scf accuracy    <          1.0E-11 Ry
     smearing contrib. (-TS)   =       0.00067130 Ry
     internal energy E=F+TS    =   -1616.72732531 Ry

     The total energy is F=E-TS. E is the sum of the following terms:
     one-electron contribution =   -1365.49225210 Ry
     hartree contribution      =     711.34115622 Ry
     xc contribution           =    -164.41257715 Ry
     ewald contribution        =    -547.48216967 Ry
     DFT-D3 Dispersion         =      -0.35793584 Ry
     one-center paw contrib.   =    -250.32354678 Ry

     convergence has been achieved in  13 iterations

     Forces acting on atoms (cartesian axes, Ry/au):

     atom    1 type  1   force =     0.00040017    0.00002404    0.00047973
     atom    2 type  1   force =    -0.00041895   -0.00056260    0.00003583
     atom    3 type  1   force =    -0.00074055    0.00026251    0.00045825
     atom    4 type  1   force =    -0.00059256    0.00060995   -0.00071807
     atom    5 type  1   force =    -0.00036521   -0.00016075   -0.00000062
     atom    6 type  1   force =    -0.00071113    0.00058783    0.00113866
     atom    7 type  1   force =    -0.00037521    0.00162149    0.00085528
     atom    8 type  1   force =     0.00020456   -0.00063951   -0.00014606
     atom    9 type  2   force =    -0.00028921   -0.00219263   -0.00260199
     atom   10 type  3   force =    -0.00074462    0.00063170   -0.00001199
     atom   11 type  3   force =    -0.00012309   -0.00014265    0.00133987
     atom   12 type  3   force =     0.00161390   -0.00055193    0.00003262
     atom   13 type  4   force =    -0.00032109    0.00052678   -0.00037676
     atom   14 type  4   force =     0.00050448   -0.00040973   -0.00030071
     atom   15 type  4   force =    -0.00041452   -0.00048994    0.00010868
     atom   16 type  4   force =     0.00043420    0.00048131   -0.00005788
     atom   17 type  4   force =     0.00100468    0.00050966   -0.00063137
     atom   18 type  4   force =     0.00082210    0.00188374   -0.00047387
     atom   19 type  4   force =     0.00059528   -0.00027642   -0.00002210
     atom   20 type  4   force =     0.00036724    0.00021626    0.00056357
     atom   21 type  4   force =     0.00098514   -0.00090081    0.00059103
     atom   22 type  4   force =    -0.00090200   -0.00030409    0.00036343
     atom   23 type  4   force =     0.00077949    0.00003712   -0.00086522
     atom   24 type  4   force =    -0.00064729   -0.00039193   -0.00070786
     atom   25 type  4   force =     0.00002493    0.00004998   -0.00059309
     atom   26 type  4   force =    -0.00007006   -0.00019779    0.00027501
     atom   27 type  4   force =    -0.00004199   -0.00039101   -0.00077770
     atom   28 type  4   force =    -0.00097871    0.00016942    0.00204331

     Total force =     0.006893     Total SCF correction =     0.000014


     Computing stress (Cartesian axis) and pressure

          total   stress  (Ry/bohr**3)                   (kbar)     P=       -0.68
  -0.00000475   0.00000040  -0.00000668           -0.70        0.06       -0.98
   0.00000040  -0.00000238   0.00000286            0.06       -0.35        0.42
  -0.00000668   0.00000286  -0.00000670           -0.98        0.42       -0.99

     Energy error            =      9.4E-05 Ry
     Gradient error          =      2.6E-03 Ry/Bohr
     Cell gradient error     =      9.9E-01 kbar

     number of scf cycles    =  40
     number of bfgs steps    =  39

     enthalpy           old  =   -1616.7265602378 Ry
     enthalpy           new  =   -1616.7266540154 Ry

     CASE: enthalpy          _new < enthalpy          _old

     new trust radius        =       0.0483203298 bohr
     new conv_thr            =            9.4E-11 Ry

     new unit-cell volume =   1728.62844 a.u.^3 (   256.15631 Ang^3 )
     density =      2.88849 g/cm^3

CELL_PARAMETERS (angstrom)
   7.770273521   0.067694187  -0.131704745
  -5.146307632   5.675590244   0.015362502
  -2.409020948   0.929135271   5.791787968

ATOMIC_POSITIONS (angstrom)
Mg              -4.3149214047        5.1670985028        5.4853618138
Mg              -3.0493610710        4.7786288023        2.6720683116
Mg               3.3822444294        1.9911770887        3.1046438837
Mg               4.5288123768        1.3380301444        0.2234362664
Mg               0.7650442527        6.3429133244        4.1977573021
Mg              -0.5265142187        0.2664335202        1.4014097799
Mg              -0.5302515963        3.5054881009        4.2894352982
Mg               0.7450603419        3.1895761535        1.3723495850
Co              -1.7625774754        5.8572206863        5.1123316101
Ni              -1.9183351242        2.4026903725        2.3329290620
Ni               2.1768818367        4.2821690738        3.2837123332
Ni               1.9566123966        0.7719751558        0.5026760951
H               -0.5117971375        5.0873653931        5.5938856098
H               -0.4191769432        2.1380344951        2.6138528669
H                0.6675908942        4.5418899634        3.0531107776
H                0.6977375706        1.6084423725        0.1874067834
H                5.1757290105        1.0738150798        2.2534378875
H                4.1210938236        1.5302319296        5.0340004137
H               -3.7905061552        5.0129576628        0.5124608559
H               -4.9559766918        5.6235463592        3.4130063568
H               -2.9134703939        6.2784117704        4.1689442589
H               -2.6440897241        3.1630431885        1.1965810671
H                2.6668480927        3.4752302772        4.5185893326
H                2.9930954974        0.6899290581        1.6549725777
H                0.4094071729        1.8550752575        5.0043430092
H                2.7258112374        3.5989750494        2.0050967438
H               -2.4593756606        3.0269902573        3.6579326533
H               -0.2063861567        4.8165367786        0.6105076164



     Writing config-only to output data dir ./outdir/mg2nih4_co_nisite.save/ :
     XML data file
     NEW-OLD atomic charge density approx. for the potential
     New effective cutoffs (rho, wfc):  523.00   65.41

     Check: negative core charge=   -0.000001

     total cpu time spent up to now is    15368.2 secs

     Self-consistent Calculation

     iteration #  1     ecut=    60.00 Ry     beta= 0.30
     Davidson diagonalization with overlap
     ethr =  1.00E-06,  avg # of iterations =  4.0

     total cpu time spent up to now is    15413.4 secs

     total energy              =   -1616.72671187 Ry
     estimated scf accuracy    <       0.00045732 Ry

     iteration #  2     ecut=    60.00 Ry     beta= 0.30
     Davidson diagonalization with overlap
     ethr =  4.44E-07,  avg # of iterations =  2.0

     total cpu time spent up to now is    15444.3 secs

     total energy              =   -1616.72670970 Ry
     estimated scf accuracy    <       0.00045984 Ry

     iteration #  3     ecut=    60.00 Ry     beta= 0.30
     Davidson diagonalization with overlap
     ethr =  4.44E-07,  avg # of iterations =  2.0

     total cpu time spent up to now is    15474.8 secs

     total energy              =   -1616.72674972 Ry
     estimated scf accuracy    <       0.00022097 Ry

     iteration #  4     ecut=    60.00 Ry     beta= 0.30
     Davidson diagonalization with overlap
     ethr =  2.15E-07,  avg # of iterations =  2.0

     total cpu time spent up to now is    15506.1 secs

     total energy              =   -1616.72675336 Ry
     estimated scf accuracy    <       0.00022237 Ry

     iteration #  5     ecut=    60.00 Ry     beta= 0.30
     Davidson diagonalization with overlap
     ethr =  2.15E-07,  avg # of iterations =  1.9

     total cpu time spent up to now is    15540.1 secs

     total energy              =   -1616.72676862 Ry
     estimated scf accuracy    <       0.00001367 Ry

     iteration #  6     ecut=    60.00 Ry     beta= 0.30
     Davidson diagonalization with overlap
     ethr =  1.33E-08,  avg # of iterations =  2.8

     total cpu time spent up to now is    15580.1 secs

     total energy              =   -1616.72676940 Ry
     estimated scf accuracy    <       0.00000837 Ry

     iteration #  7     ecut=    60.00 Ry     beta= 0.30
     Davidson diagonalization with overlap
     ethr =  8.13E-09,  avg # of iterations =  1.1

     total cpu time spent up to now is    15607.1 secs

     total energy              =   -1616.72676989 Ry
     estimated scf accuracy    <       0.00000186 Ry

     iteration #  8     ecut=    60.00 Ry     beta= 0.30
     Davidson diagonalization with overlap
     ethr =  1.80E-09,  avg # of iterations =  2.0

     total cpu time spent up to now is    15641.9 secs

     total energy              =   -1616.72677015 Ry
     estimated scf accuracy    <       0.00000056 Ry

     iteration #  9     ecut=    60.00 Ry     beta= 0.30
     Davidson diagonalization with overlap
     ethr =  5.43E-10,  avg # of iterations =  5.2

     total cpu time spent up to now is    15702.3 secs

     total energy              =   -1616.72677028 Ry
     estimated scf accuracy    <       0.00000031 Ry

     iteration # 10     ecut=    60.00 Ry     beta= 0.30
     Davidson diagonalization with overlap
     ethr =  3.00E-10,  avg # of iterations =  1.8

     total cpu time spent up to now is    15741.1 secs

     total energy              =   -1616.72677031 Ry
     estimated scf accuracy    <       0.00000002 Ry

     iteration # 11     ecut=    60.00 Ry     beta= 0.30
     Davidson diagonalization with overlap
     ethr =  2.34E-11,  avg # of iterations =  3.2

     total cpu time spent up to now is    15788.9 secs

     total energy              =   -1616.72677032 Ry
     estimated scf accuracy    <          4.3E-09 Ry

     iteration # 12     ecut=    60.00 Ry     beta= 0.30
     Davidson diagonalization with overlap
     ethr =  4.20E-12,  avg # of iterations =  1.9

     total cpu time spent up to now is    15828.5 secs

     total energy              =   -1616.72677032 Ry
     estimated scf accuracy    <          3.1E-10 Ry

     iteration # 13     ecut=    60.00 Ry     beta= 0.30
     Davidson diagonalization with overlap
     ethr =  3.02E-13,  avg # of iterations =  2.8

     total cpu time spent up to now is    15875.7 secs

     End of self-consistent calculation

     Number of k-points >= 100: set verbosity='high' to print the bands.

     the Fermi energy is     5.8408 ev

!    total energy              =   -1616.72677032 Ry
     estimated scf accuracy    <          2.6E-11 Ry
     smearing contrib. (-TS)   =       0.00068100 Ry
     internal energy E=F+TS    =   -1616.72745132 Ry

     The total energy is F=E-TS. E is the sum of the following terms:
     one-electron contribution =   -1364.96168168 Ry
     hartree contribution      =     711.10168693 Ry
     xc contribution           =    -164.41598136 Ry
     ewald contribution        =    -547.76926177 Ry
     DFT-D3 Dispersion         =      -0.35832058 Ry
     one-center paw contrib.   =    -250.32389286 Ry

     convergence has been achieved in  13 iterations

     Forces acting on atoms (cartesian axes, Ry/au):

     atom    1 type  1   force =     0.00052255   -0.00001955    0.00057750
     atom    2 type  1   force =    -0.00064741   -0.00047938   -0.00001514
     atom    3 type  1   force =    -0.00061300    0.00033822    0.00029783
     atom    4 type  1   force =    -0.00107668    0.00081440   -0.00071105
     atom    5 type  1   force =     0.00004412   -0.00008188   -0.00013199
     atom    6 type  1   force =    -0.00061172    0.00051007    0.00123436
     atom    7 type  1   force =    -0.00008101    0.00083613    0.00105482
     atom    8 type  1   force =    -0.00010884   -0.00048940    0.00018878
     atom    9 type  2   force =    -0.00036057   -0.00227833   -0.00272616
     atom   10 type  3   force =    -0.00109438    0.00066960    0.00021684
     atom   11 type  3   force =    -0.00015198   -0.00033194    0.00084229
     atom   12 type  3   force =     0.00144758   -0.00036196   -0.00038822
     atom   13 type  4   force =     0.00052449    0.00011995   -0.00013020
     atom   14 type  4   force =     0.00043220   -0.00037978   -0.00028527
     atom   15 type  4   force =    -0.00083914    0.00011381    0.00003528
     atom   16 type  4   force =     0.00059883    0.00046467   -0.00008470
     atom   17 type  4   force =     0.00111373    0.00022686   -0.00058416
     atom   18 type  4   force =     0.00072584    0.00201333   -0.00061205
     atom   19 type  4   force =     0.00096547   -0.00002708    0.00010263
     atom   20 type  4   force =     0.00033969    0.00009050    0.00061065
     atom   21 type  4   force =     0.00061412   -0.00079015    0.00021866
     atom   22 type  4   force =    -0.00066074   -0.00029212    0.00007332
     atom   23 type  4   force =     0.00117898   -0.00019549   -0.00030704
     atom   24 type  4   force =    -0.00081214   -0.00034397   -0.00063968
     atom   25 type  4   force =    -0.00022027    0.00041120   -0.00037313
     atom   26 type  4   force =    -0.00011573   -0.00014808    0.00024525
     atom   27 type  4   force =    -0.00016698   -0.00039088   -0.00086033
     atom   28 type  4   force =    -0.00094700    0.00000126    0.00215091

     Total force =     0.006881     Total SCF correction =     0.000025


     Computing stress (Cartesian axis) and pressure

          total   stress  (Ry/bohr**3)                   (kbar)     P=       -0.24
  -0.00000329  -0.00000317  -0.00000804           -0.48       -0.47       -1.18
  -0.00000317   0.00000045   0.00000194           -0.47        0.07        0.28
  -0.00000804   0.00000194  -0.00000214           -1.18        0.28       -0.31

     Energy error            =      1.2E-04 Ry
     Gradient error          =      2.7E-03 Ry/Bohr
     Cell gradient error     =      1.2E+00 kbar

     number of scf cycles    =  41
     number of bfgs steps    =  40

     enthalpy           old  =   -1616.7266540155 Ry
     enthalpy           new  =   -1616.7267703199 Ry

     CASE: enthalpy          _new < enthalpy          _old

     new trust radius        =       0.0569188036 bohr
     new conv_thr            =       0.0000000001 Ry

     new unit-cell volume =   1726.20322 a.u.^3 (   255.79693 Ang^3 )
     density =      2.89254 g/cm^3

CELL_PARAMETERS (angstrom)
   7.771114961   0.069899643  -0.136729751
  -5.145330593   5.674742128   0.022728805
  -2.412650861   0.932833777   5.784718691

ATOMIC_POSITIONS (angstrom)
Mg              -4.3176160401        5.1660990796        5.4962239926
Mg              -3.0490510483        4.7818890057        2.6848635732
Mg               3.3798163974        1.9923764174        3.0898986415
Mg               4.5300124098        1.3394231818        0.2105448693
Mg               0.7628047711        6.3461204124        4.1943137681
Mg              -0.5271704720        0.2706726224        1.4004559706
Mg              -0.5371654759        3.5134816588        4.2842451650
Mg               0.7505590616        3.1912596087        1.3701359332
Co              -1.7656420003        5.8612571922        5.1060355472
Ni              -1.9189633733        2.4074614042        2.3254683707
Ni               2.1787754685        4.2867630179        3.2838082705
Ni               1.9596665628        0.7725808781        0.5042238005
H               -0.5181956128        5.0913294485        5.5878039005
H               -0.4197912908        2.1428166527        2.6062613816
H                0.6689567427        4.5359673052        3.0525360635
H                0.7014552336        1.6102849224        0.1885333098
H                5.1806448209        1.0789604531        2.2409801694
H                4.1221315413        1.5345841184        5.0224794613
H               -3.7964188644        5.0160900127        0.5187299333
H               -4.9610798624        5.6286131099        3.4194832676
H               -2.9194004767        6.2912946446        4.1749435962
H               -2.6732546870        3.1642155654        1.2068171360
H                2.6776469297        3.4772971503        4.5092051417
H                3.0058674763        0.6778407376        1.6443089606
H                0.4018118337        1.8529284772        4.9924045833
H                2.7286543366        3.6085879110        2.0024478372
H               -2.4592140409        3.0189256467        3.6562853778
H               -0.2019712445        4.8255370312        0.6166104143



     Writing config-only to output data dir ./outdir/mg2nih4_co_nisite.save/ :
     XML data file
     NEW-OLD atomic charge density approx. for the potential
     New effective cutoffs (rho, wfc):  524.11   65.55

     Check: negative core charge=   -0.000001

     total cpu time spent up to now is    15896.9 secs

     Self-consistent Calculation

     iteration #  1     ecut=    60.00 Ry     beta= 0.30
     Davidson diagonalization with overlap
     ethr =  1.00E-06,  avg # of iterations =  4.1

     total cpu time spent up to now is    15973.1 secs

     total energy              =   -1616.72677172 Ry
     estimated scf accuracy    <       0.00071945 Ry

     iteration #  2     ecut=    60.00 Ry     beta= 0.30
     Davidson diagonalization with overlap
     ethr =  6.98E-07,  avg # of iterations =  2.0

     total cpu time spent up to now is    16011.2 secs

     total energy              =   -1616.72677403 Ry
     estimated scf accuracy    <       0.00072929 Ry

     iteration #  3     ecut=    60.00 Ry     beta= 0.30
     Davidson diagonalization with overlap
     ethr =  6.98E-07,  avg # of iterations =  2.0

     total cpu time spent up to now is    16048.5 secs

     total energy              =   -1616.72684265 Ry
     estimated scf accuracy    <       0.00031174 Ry

     iteration #  4     ecut=    60.00 Ry     beta= 0.30
     Davidson diagonalization with overlap
     ethr =  3.03E-07,  avg # of iterations =  2.0

     total cpu time spent up to now is    16080.4 secs

     total energy              =   -1616.72684751 Ry
     estimated scf accuracy    <       0.00031430 Ry

     iteration #  5     ecut=    60.00 Ry     beta= 0.30
     Davidson diagonalization with overlap
     ethr =  3.03E-07,  avg # of iterations =  1.9

     total cpu time spent up to now is    16116.5 secs

     total energy              =   -1616.72686916 Ry
     estimated scf accuracy    <       0.00002197 Ry

     iteration #  6     ecut=    60.00 Ry     beta= 0.30
     Davidson diagonalization with overlap
     ethr =  2.13E-08,  avg # of iterations =  2.5

     total cpu time spent up to now is    16153.8 secs

     total energy              =   -1616.72687037 Ry
     estimated scf accuracy    <       0.00001130 Ry

     iteration #  7     ecut=    60.00 Ry     beta= 0.30
     Davidson diagonalization with overlap
     ethr =  1.10E-08,  avg # of iterations =  1.3

     total cpu time spent up to now is    16188.3 secs

     total energy              =   -1616.72687105 Ry
     estimated scf accuracy    <       0.00000273 Ry

     iteration #  8     ecut=    60.00 Ry     beta= 0.30
     Davidson diagonalization with overlap
     ethr =  2.65E-09,  avg # of iterations =  2.0

     total cpu time spent up to now is    16219.3 secs

     total energy              =   -1616.72687143 Ry
     estimated scf accuracy    <       0.00000082 Ry

     iteration #  9     ecut=    60.00 Ry     beta= 0.30
     Davidson diagonalization with overlap
     ethr =  7.92E-10,  avg # of iterations =  5.3

     total cpu time spent up to now is    16284.6 secs

     total energy              =   -1616.72687161 Ry
     estimated scf accuracy    <       0.00000048 Ry

     iteration # 10     ecut=    60.00 Ry     beta= 0.30
     Davidson diagonalization with overlap
     ethr =  4.68E-10,  avg # of iterations =  1.9

     total cpu time spent up to now is    16326.1 secs

     total energy              =   -1616.72687166 Ry
     estimated scf accuracy    <       0.00000003 Ry

     iteration # 11     ecut=    60.00 Ry     beta= 0.30
     Davidson diagonalization with overlap
     ethr =  3.39E-11,  avg # of iterations =  3.3

     total cpu time spent up to now is    16380.1 secs

     total energy              =   -1616.72687167 Ry
     estimated scf accuracy    <          5.9E-09 Ry

     iteration # 12     ecut=    60.00 Ry     beta= 0.30
     Davidson diagonalization with overlap
     ethr =  5.76E-12,  avg # of iterations =  2.2

     total cpu time spent up to now is    16415.4 secs

     total energy              =   -1616.72687167 Ry
     estimated scf accuracy    <          4.4E-10 Ry

     iteration # 13     ecut=    60.00 Ry     beta= 0.30
     Davidson diagonalization with overlap
     ethr =  4.23E-13,  avg # of iterations =  2.7

     total cpu time spent up to now is    16445.4 secs

     End of self-consistent calculation

     Number of k-points >= 100: set verbosity='high' to print the bands.

     the Fermi energy is     5.8486 ev

!    total energy              =   -1616.72687167 Ry
     estimated scf accuracy    <          3.9E-11 Ry
     smearing contrib. (-TS)   =       0.00068987 Ry
     internal energy E=F+TS    =   -1616.72756155 Ry

     The total energy is F=E-TS. E is the sum of the following terms:
     one-electron contribution =   -1364.25263497 Ry
     hartree contribution      =     710.78041703 Ry
     xc contribution           =    -164.41964177 Ry
     ewald contribution        =    -548.15253909 Ry
     DFT-D3 Dispersion         =      -0.35880945 Ry
     one-center paw contrib.   =    -250.32435330 Ry

     convergence has been achieved in  13 iterations

     Forces acting on atoms (cartesian axes, Ry/au):

     atom    1 type  1   force =     0.00052237   -0.00015527    0.00069016
     atom    2 type  1   force =    -0.00086616   -0.00033098   -0.00008594
     atom    3 type  1   force =    -0.00040807    0.00031799   -0.00002882
     atom    4 type  1   force =    -0.00142740    0.00097104   -0.00066246
     atom    5 type  1   force =     0.00054385   -0.00002318   -0.00029757
     atom    6 type  1   force =    -0.00045755    0.00040935    0.00117314
     atom    7 type  1   force =     0.00028484   -0.00017735    0.00115654
     atom    8 type  1   force =    -0.00051808   -0.00026712    0.00055951
     atom    9 type  2   force =    -0.00023871   -0.00149189   -0.00165979
     atom   10 type  3   force =    -0.00109905    0.00062704    0.00024565
     atom   11 type  3   force =    -0.00032590   -0.00045743    0.00009021
     atom   12 type  3   force =     0.00077932    0.00002010   -0.00083837
     atom   13 type  4   force =     0.00148311   -0.00037088    0.00016910
     atom   14 type  4   force =     0.00012338   -0.00026735   -0.00027649
     atom   15 type  4   force =    -0.00113389    0.00079179   -0.00002938
     atom   16 type  4   force =     0.00077927    0.00037977   -0.00010444
     atom   17 type  4   force =     0.00110230   -0.00029320   -0.00052050
     atom   18 type  4   force =     0.00021450    0.00147326   -0.00062607
     atom   19 type  4   force =     0.00129016    0.00018695    0.00022156
     atom   20 type  4   force =     0.00024409   -0.00011906    0.00062690
     atom   21 type  4   force =    -0.00007727   -0.00059017   -0.00047037
     atom   22 type  4   force =    -0.00035511   -0.00028506   -0.00025048
     atom   23 type  4   force =     0.00169012   -0.00044971    0.00037761
     atom   24 type  4   force =    -0.00074238   -0.00027166   -0.00030640
     atom   25 type  4   force =    -0.00049193    0.00081619   -0.00022492
     atom   26 type  4   force =    -0.00021478   -0.00000450    0.00030519
     atom   27 type  4   force =    -0.00036083   -0.00034963   -0.00078010
     atom   28 type  4   force =    -0.00034019   -0.00008905    0.00154654

     Total force =     0.006224     Total SCF correction =     0.000030


     Computing stress (Cartesian axis) and pressure

          total   stress  (Ry/bohr**3)                   (kbar)     P=        0.23
  -0.00000101  -0.00000678  -0.00000726           -0.15       -1.00       -1.07
  -0.00000678   0.00000306   0.00000081           -1.00        0.45        0.12
  -0.00000726   0.00000081   0.00000269           -1.07        0.12        0.40

     Energy error            =      1.0E-04 Ry
     Gradient error          =      1.7E-03 Ry/Bohr
     Cell gradient error     =      1.1E+00 kbar

     number of scf cycles    =  42
     number of bfgs steps    =  41

     enthalpy           old  =   -1616.7267703199 Ry
     enthalpy           new  =   -1616.7268716746 Ry

     CASE: enthalpy          _new < enthalpy          _old

     new trust radius        =       0.0286791598 bohr
     new conv_thr            =       0.0000000001 Ry

     new unit-cell volume =   1725.00422 a.u.^3 (   255.61925 Ang^3 )
     density =      2.89455 g/cm^3

CELL_PARAMETERS (angstrom)
   7.770781755   0.069536037  -0.140838235
  -5.145448169   5.675791092   0.027764035
  -2.415695047   0.935474991   5.781843719

ATOMIC_POSITIONS (angstrom)
Mg              -4.3204020705        5.1671229521        5.5033500737
Mg              -3.0506747494        4.7842867057        2.6920765784
Mg               3.3767504916        1.9928639114        3.0820709481
Mg               4.5289645718        1.3400722904        0.2028189859
Mg               0.7595204267        6.3484747293        4.1927892737
Mg              -0.5284003338        0.2733382168        1.4010478227
Mg              -0.5422878769        3.5185142810        4.2828147028
Mg               0.7520344570        3.1918492023        1.3693749843
Co              -1.7693913508        5.8635190042        5.1028418526
Ni              -1.9206047051        2.4110488532        2.3223928505
Ni               2.1776277640        4.2890062797        3.2838999914
Ni               1.9613617050        0.7724928812        0.5041016649
H               -0.5228088906        5.0941867382        5.5852535254
H               -0.4209376184        2.1452163474        2.6026244539
H                0.6672852108        4.5337037942        3.0523200102
H                0.7036294423        1.6113430169        0.1888395080
H                5.1828579284        1.0807658048        2.2332182752
H                4.1210249399        1.5371063412        5.0154603883
H               -3.7990324691        5.0188282656        0.5229861160
H               -4.9647034557        5.6325955743        3.4246691912
H               -2.9243317837        6.2985514803        4.1787943951
H               -2.6885935384        3.1653182681        1.2126519338
H                2.6821738634        3.4779858735        4.5041375648
H                3.0108336174        0.6712082738        1.6383030238
H                0.3962761498        1.8526659841        4.9863202044
H                2.7282928269        3.6132469270        2.0011570391
H               -2.4604943348        3.0155502924        3.6556093949
H               -0.2010306631        4.8303673825        0.6208485165



     Writing config-only to output data dir ./outdir/mg2nih4_co_nisite.save/ :
     XML data file
     NEW-OLD atomic charge density approx. for the potential
     New effective cutoffs (rho, wfc):  525.04   65.65

     Check: negative core charge=   -0.000001

     total cpu time spent up to now is    16459.1 secs

     Self-consistent Calculation

     iteration #  1     ecut=    60.00 Ry     beta= 0.30
     Davidson diagonalization with overlap
     ethr =  1.00E-06,  avg # of iterations =  3.7

     total cpu time spent up to now is    16506.0 secs

     total energy              =   -1616.72690301 Ry
     estimated scf accuracy    <       0.00022128 Ry

     iteration #  2     ecut=    60.00 Ry     beta= 0.30
     Davidson diagonalization with overlap
     ethr =  2.15E-07,  avg # of iterations =  2.0

     total cpu time spent up to now is    16530.7 secs

     total energy              =   -1616.72690836 Ry
     estimated scf accuracy    <       0.00018642 Ry

     iteration #  3     ecut=    60.00 Ry     beta= 0.30
     Davidson diagonalization with overlap
     ethr =  1.81E-07,  avg # of iterations =  2.0

     total cpu time spent up to now is    16553.9 secs

     total energy              =   -1616.72692844 Ry
     estimated scf accuracy    <       0.00008411 Ry

     iteration #  4     ecut=    60.00 Ry     beta= 0.30
     Davidson diagonalization with overlap
     ethr =  8.17E-08,  avg # of iterations =  1.9

     total cpu time spent up to now is    16578.9 secs

     total energy              =   -1616.72693072 Ry
     estimated scf accuracy    <       0.00005116 Ry

     iteration #  5     ecut=    60.00 Ry     beta= 0.30
     Davidson diagonalization with overlap
     ethr =  4.97E-08,  avg # of iterations =  2.0

     total cpu time spent up to now is    16602.0 secs

     total energy              =   -1616.72693468 Ry
     estimated scf accuracy    <       0.00001015 Ry

     iteration #  6     ecut=    60.00 Ry     beta= 0.30
     Davidson diagonalization with overlap
     ethr =  9.85E-09,  avg # of iterations =  1.3

     total cpu time spent up to now is    16623.7 secs

     total energy              =   -1616.72693512 Ry
     estimated scf accuracy    <       0.00000263 Ry

     iteration #  7     ecut=    60.00 Ry     beta= 0.30
     Davidson diagonalization with overlap
     ethr =  2.56E-09,  avg # of iterations =  2.0

     total cpu time spent up to now is    16646.3 secs

     total energy              =   -1616.72693534 Ry
     estimated scf accuracy    <       0.00000069 Ry

     iteration #  8     ecut=    60.00 Ry     beta= 0.30
     Davidson diagonalization with overlap
     ethr =  6.71E-10,  avg # of iterations =  2.5

     total cpu time spent up to now is    16675.5 secs

     total energy              =   -1616.72693544 Ry
     estimated scf accuracy    <       0.00000024 Ry

     iteration #  9     ecut=    60.00 Ry     beta= 0.30
     Davidson diagonalization with overlap
     ethr =  2.34E-10,  avg # of iterations =  5.0

     total cpu time spent up to now is    16717.6 secs

     total energy              =   -1616.72693547 Ry
     estimated scf accuracy    <       0.00000011 Ry

     iteration # 10     ecut=    60.00 Ry     beta= 0.30
     Davidson diagonalization with overlap
     ethr =  1.11E-10,  avg # of iterations =  3.6

     total cpu time spent up to now is    16751.2 secs

     total energy              =   -1616.72693550 Ry
     estimated scf accuracy    <       0.00000003 Ry

     iteration # 11     ecut=    60.00 Ry     beta= 0.30
     Davidson diagonalization with overlap
     ethr =  3.15E-11,  avg # of iterations =  1.8

     total cpu time spent up to now is    16775.0 secs

     total energy              =   -1616.72693551 Ry
     estimated scf accuracy    <          9.2E-10 Ry

     iteration # 12     ecut=    60.00 Ry     beta= 0.30
     Davidson diagonalization with overlap
     ethr =  8.98E-13,  avg # of iterations =  3.4

     total cpu time spent up to now is    16808.9 secs

     total energy              =   -1616.72693551 Ry
     estimated scf accuracy    <          5.8E-10 Ry

     iteration # 13     ecut=    60.00 Ry     beta= 0.30
     Davidson diagonalization with overlap
     ethr =  5.65E-13,  avg # of iterations =  1.0

     total cpu time spent up to now is    16827.5 secs

     total energy              =   -1616.72693551 Ry
     estimated scf accuracy    <          1.6E-10 Ry

     iteration # 14     ecut=    60.00 Ry     beta= 0.30
     Davidson diagonalization with overlap
     ethr =  1.51E-13,  avg # of iterations =  2.0

     total cpu time spent up to now is    16850.4 secs

     End of self-consistent calculation

     Number of k-points >= 100: set verbosity='high' to print the bands.

     the Fermi energy is     5.8525 ev

!    total energy              =   -1616.72693551 Ry
     estimated scf accuracy    <          2.7E-12 Ry
     smearing contrib. (-TS)   =       0.00069196 Ry
     internal energy E=F+TS    =   -1616.72762746 Ry

     The total energy is F=E-TS. E is the sum of the following terms:
     one-electron contribution =   -1363.86403215 Ry
     hartree contribution      =     710.60231608 Ry
     xc contribution           =    -164.42069507 Ry
     ewald contribution        =    -548.36162308 Ry
     DFT-D3 Dispersion         =      -0.35905309 Ry
     one-center paw contrib.   =    -250.32454015 Ry

     convergence has been achieved in  14 iterations

     Forces acting on atoms (cartesian axes, Ry/au):

     atom    1 type  1   force =     0.00041535   -0.00025860    0.00072354
     atom    2 type  1   force =    -0.00090139   -0.00020644   -0.00012154
     atom    3 type  1   force =    -0.00024352    0.00018356   -0.00027224
     atom    4 type  1   force =    -0.00133859    0.00090995   -0.00059861
     atom    5 type  1   force =     0.00073284   -0.00000915   -0.00034221
     atom    6 type  1   force =    -0.00036177    0.00034913    0.00092087
     atom    7 type  1   force =     0.00044597   -0.00069694    0.00106329
     atom    8 type  1   force =    -0.00072972   -0.00008486    0.00067005
     atom    9 type  2   force =     0.00001619   -0.00048622   -0.00022852
     atom   10 type  3   force =    -0.00066947    0.00041656    0.00017119
     atom   11 type  3   force =    -0.00049326   -0.00047614   -0.00026302
     atom   12 type  3   force =     0.00009008    0.00032154   -0.00095343
     atom   13 type  4   force =     0.00177654   -0.00053069    0.00026841
     atom   14 type  4   force =    -0.00022309   -0.00014733   -0.00026864
     atom   15 type  4   force =    -0.00108076    0.00108517   -0.00003199
     atom   16 type  4   force =     0.00081293    0.00029790   -0.00010595
     atom   17 type  4   force =     0.00097680   -0.00067801   -0.00047973
     atom   18 type  4   force =    -0.00030086    0.00068199   -0.00052184
     atom   19 type  4   force =     0.00132227    0.00017840    0.00024957
     atom   20 type  4   force =     0.00015030   -0.00026221    0.00060404
     atom   21 type  4   force =    -0.00058763   -0.00043866   -0.00094425
     atom   22 type  4   force =    -0.00027401   -0.00019857   -0.00050009
     atom   23 type  4   force =     0.00192075   -0.00049317    0.00062626
     atom   24 type  4   force =    -0.00045382   -0.00021063    0.00008245
     atom   25 type  4   force =    -0.00059625    0.00097761   -0.00025637
     atom   26 type  4   force =    -0.00029351    0.00012351    0.00038286
     atom   27 type  4   force =    -0.00049162   -0.00028122   -0.00057545
     atom   28 type  4   force =     0.00037923   -0.00006648    0.00070136

     Total force =     0.005715     Total SCF correction =     0.000006


     Computing stress (Cartesian axis) and pressure

          total   stress  (Ry/bohr**3)                   (kbar)     P=        0.40
   0.00000024  -0.00000752  -0.00000482            0.04       -1.11       -0.71
  -0.00000752   0.00000356   0.00000016           -1.11        0.52        0.02
  -0.00000482   0.00000016   0.00000437           -0.71        0.02        0.64

     Energy error            =      6.4E-05 Ry
     Gradient error          =      1.9E-03 Ry/Bohr
     Cell gradient error     =      1.1E+00 kbar

     number of scf cycles    =  43
     number of bfgs steps    =  42

     enthalpy           old  =   -1616.7268716746 Ry
     enthalpy           new  =   -1616.7269355079 Ry

     CASE: enthalpy          _new < enthalpy          _old

     new trust radius        =       0.0315526222 bohr
     new conv_thr            =            6.4E-11 Ry

     new unit-cell volume =   1723.96027 a.u.^3 (   255.46455 Ang^3 )
     density =      2.89631 g/cm^3

CELL_PARAMETERS (angstrom)
   7.770047761   0.067027520  -0.147284938
  -5.146926964   5.678999388   0.034801492
  -2.420741579   0.939296918   5.779866793

ATOMIC_POSITIONS (angstrom)
Mg              -4.3258201912        5.1698948329        5.5135946846
Mg              -3.0552549262        4.7880625095        2.7010517286
Mg               3.3715440244        1.9930124545        3.0728913018
Mg               4.5259411421        1.3406280335        0.1927298771
Mg               0.7536076655        6.3517069608        4.1912247567
Mg              -0.5306847289        0.2767968803        1.4029610051
Mg              -0.5496695931        3.5245717519        4.2830187674
Mg               0.7515621695        3.1922759605        1.3692007932
Co              -1.7763613254        5.8666950091        5.1002124768
Ni              -1.9242136234        2.4162533140        2.3199525114
Ni               2.1736164054        4.2910200032        3.2839517181
Ni               1.9630515496        0.7722126289        0.5027139900
H               -0.5293061951        5.0981187102        5.5836500103
H               -0.4236830361        2.1480130003        2.5989545097
H                0.6623735142        4.5325514519        3.0523177602
H                0.7061788080        1.6127409598        0.1888136962
H                5.1851842911        1.0810387075        2.2230755242
H                4.1176767982        1.5397724024        5.0066278680
H               -3.8018594373        5.0235630853        0.5290221856
H               -4.9707643741        5.6387423869        3.4327695987
H               -2.9329433779        6.3076220310        4.1837647479
H               -2.7066516801        3.1674188228        1.2196154710
H                2.6865148329        3.4781561273        4.4986791942
H                3.0149088271        0.6631048026        1.6311670887
H                0.3878320646        1.8535666070        4.9797781064
H                2.7258421278        3.6181156683        1.9998347769
H               -2.4640989500        3.0126555849        3.6553179884
H               -0.2012137370        4.8362228637        0.6264747267



     Writing config-only to output data dir ./outdir/mg2nih4_co_nisite.save/ :
     XML data file
     NEW-OLD atomic charge density approx. for the potential
     New effective cutoffs (rho, wfc):  526.26   65.80

     Check: negative core charge=   -0.000001

     total cpu time spent up to now is    16863.8 secs

     Self-consistent Calculation

     iteration #  1     ecut=    60.00 Ry     beta= 0.30
     Davidson diagonalization with overlap
     ethr =  1.00E-06,  avg # of iterations =  4.0

     total cpu time spent up to now is    16906.6 secs

     total energy              =   -1616.72698378 Ry
     estimated scf accuracy    <       0.00028618 Ry

     iteration #  2     ecut=    60.00 Ry     beta= 0.30
     Davidson diagonalization with overlap
     ethr =  2.78E-07,  avg # of iterations =  2.0

     total cpu time spent up to now is    16930.9 secs

     total energy              =   -1616.72699152 Ry
     estimated scf accuracy    <       0.00020311 Ry

     iteration #  3     ecut=    60.00 Ry     beta= 0.30
     Davidson diagonalization with overlap
     ethr =  1.97E-07,  avg # of iterations =  2.0

     total cpu time spent up to now is    16954.6 secs

     total energy              =   -1616.72701414 Ry
     estimated scf accuracy    <       0.00010955 Ry

     iteration #  4     ecut=    60.00 Ry     beta= 0.30
     Davidson diagonalization with overlap
     ethr =  1.06E-07,  avg # of iterations =  1.4

     total cpu time spent up to now is    16977.0 secs

     total energy              =   -1616.72701881 Ry
     estimated scf accuracy    <       0.00002139 Ry

     iteration #  5     ecut=    60.00 Ry     beta= 0.30
     Davidson diagonalization with overlap
     ethr =  2.08E-08,  avg # of iterations =  2.1

     total cpu time spent up to now is    17001.8 secs

     total energy              =   -1616.72701998 Ry
     estimated scf accuracy    <       0.00003520 Ry

     iteration #  6     ecut=    60.00 Ry     beta= 0.30
     Davidson diagonalization with overlap
     ethr =  2.08E-08,  avg # of iterations =  1.9

     total cpu time spent up to now is    17025.9 secs

     total energy              =   -1616.72702197 Ry
     estimated scf accuracy    <       0.00000210 Ry

     iteration #  7     ecut=    60.00 Ry     beta= 0.30
     Davidson diagonalization with overlap
     ethr =  2.04E-09,  avg # of iterations =  2.1

     total cpu time spent up to now is    17050.5 secs

     total energy              =   -1616.72702220 Ry
     estimated scf accuracy    <       0.00000108 Ry

     iteration #  8     ecut=    60.00 Ry     beta= 0.30
     Davidson diagonalization with overlap
     ethr =  1.05E-09,  avg # of iterations =  2.0

     total cpu time spent up to now is    17073.9 secs

     total energy              =   -1616.72702231 Ry
     estimated scf accuracy    <       0.00000016 Ry

     iteration #  9     ecut=    60.00 Ry     beta= 0.30
     Davidson diagonalization with overlap
     ethr =  1.54E-10,  avg # of iterations =  4.0

     total cpu time spent up to now is    17114.3 secs

     total energy              =   -1616.72702239 Ry
     estimated scf accuracy    <       0.00000014 Ry

     iteration # 10     ecut=    60.00 Ry     beta= 0.30
     Davidson diagonalization with overlap
     ethr =  1.33E-10,  avg # of iterations =  1.1

     total cpu time spent up to now is    17133.4 secs

     total energy              =   -1616.72702240 Ry
     estimated scf accuracy    <          9.6E-09 Ry

     iteration # 11     ecut=    60.00 Ry     beta= 0.30
     Davidson diagonalization with overlap
     ethr =  9.30E-12,  avg # of iterations =  2.4

     total cpu time spent up to now is    17161.3 secs

     total energy              =   -1616.72702240 Ry
     estimated scf accuracy    <          3.6E-09 Ry

     iteration # 12     ecut=    60.00 Ry     beta= 0.30
     Davidson diagonalization with overlap
     ethr =  3.45E-12,  avg # of iterations =  1.0

     total cpu time spent up to now is    17180.1 secs

     total energy              =   -1616.72702240 Ry
     estimated scf accuracy    <          2.7E-10 Ry

     iteration # 13     ecut=    60.00 Ry     beta= 0.30
     Davidson diagonalization with overlap
     ethr =  2.64E-13,  avg # of iterations =  2.1

     total cpu time spent up to now is    17204.7 secs

     End of self-consistent calculation

     Number of k-points >= 100: set verbosity='high' to print the bands.

     the Fermi energy is     5.8559 ev

!    total energy              =   -1616.72702240 Ry
     estimated scf accuracy    <          1.8E-11 Ry
     smearing contrib. (-TS)   =       0.00069096 Ry
     internal energy E=F+TS    =   -1616.72771336 Ry

     The total energy is F=E-TS. E is the sum of the following terms:
     one-electron contribution =   -1363.44409226 Ry
     hartree contribution      =     710.40531690 Ry
     xc contribution           =    -164.41976417 Ry
     ewald contribution        =    -548.58532923 Ry
     DFT-D3 Dispersion         =      -0.35926862 Ry
     one-center paw contrib.   =    -250.32457598 Ry

     convergence has been achieved in  13 iterations

     Forces acting on atoms (cartesian axes, Ry/au):

     atom    1 type  1   force =     0.00022084   -0.00032747    0.00070471
     atom    2 type  1   force =    -0.00082313   -0.00005017   -0.00016741
     atom    3 type  1   force =    -0.00001382   -0.00010960   -0.00054037
     atom    4 type  1   force =    -0.00088805    0.00063669   -0.00046642
     atom    5 type  1   force =     0.00073826    0.00001446   -0.00026719
     atom    6 type  1   force =    -0.00027979    0.00026767    0.00035876
     atom    7 type  1   force =     0.00050838   -0.00110018    0.00076881
     atom    8 type  1   force =    -0.00090083    0.00020220    0.00063869
     atom    9 type  2   force =     0.00036568    0.00095141    0.00174992
     atom   10 type  3   force =     0.00006510    0.00006132   -0.00006000
     atom   11 type  3   force =    -0.00067353   -0.00047917   -0.00035986
     atom   12 type  3   force =    -0.00071971    0.00063135   -0.00073777
     atom   13 type  4   force =     0.00163098   -0.00044698    0.00021629
     atom   14 type  4   force =    -0.00071908    0.00001893   -0.00023621
     atom   15 type  4   force =    -0.00075454    0.00127771    0.00001806
     atom   16 type  4   force =     0.00072080    0.00020656   -0.00009547
     atom   17 type  4   force =     0.00074366   -0.00111190   -0.00044198
     atom   18 type  4   force =    -0.00096138   -0.00053236   -0.00031529
     atom   19 type  4   force =     0.00119191    0.00001190    0.00022824
     atom   20 type  4   force =     0.00000606   -0.00045275    0.00055123
     atom   21 type  4   force =    -0.00098704   -0.00032911   -0.00131215
     atom   22 type  4   force =    -0.00021430   -0.00010473   -0.00072077
     atom   23 type  4   force =     0.00204441   -0.00032930    0.00057388
     atom   24 type  4   force =    -0.00001210   -0.00010656    0.00057146
     atom   25 type  4   force =    -0.00065830    0.00105493   -0.00037217
     atom   26 type  4   force =    -0.00041235    0.00029033    0.00049769
     atom   27 type  4   force =    -0.00062229   -0.00014775   -0.00022895
     atom   28 type  4   force =     0.00140413    0.00000259   -0.00055574

     Total force =     0.006202     Total SCF correction =     0.000019


     Computing stress (Cartesian axis) and pressure

          total   stress  (Ry/bohr**3)                   (kbar)     P=        0.33
   0.00000020  -0.00000608  -0.00000070            0.03       -0.89       -0.10
  -0.00000608   0.00000253  -0.00000019           -0.89        0.37       -0.03
  -0.00000070  -0.00000019   0.00000399           -0.10       -0.03        0.59

     Energy error            =      8.7E-05 Ry
     Gradient error          =      2.0E-03 Ry/Bohr
     Cell gradient error     =      8.9E-01 kbar

     number of scf cycles    =  44
     number of bfgs steps    =  43

     enthalpy           old  =   -1616.7269355079 Ry
     enthalpy           new  =   -1616.7270224038 Ry

     CASE: enthalpy          _new < enthalpy          _old

     new trust radius        =       0.0287260816 bohr
     new conv_thr            =            8.7E-11 Ry

     new unit-cell volume =   1723.27827 a.u.^3 (   255.36349 Ang^3 )
     density =      2.89745 g/cm^3

CELL_PARAMETERS (angstrom)
   7.769330235   0.063175978  -0.153927947
  -5.149426069   5.683243423   0.042021449
  -2.426159429   0.943559814   5.779017324

ATOMIC_POSITIONS (angstrom)
Mg              -4.3319304496        5.1733379183        5.5246086494
Mg              -3.0618468058        4.7920573955        2.7092407085
Mg               3.3660187119        1.9925441313        3.0646666472
Mg               4.5217611665        1.3411553295        0.1828576727
Mg               0.7474496990        6.3548399881        4.1900884093
Mg              -0.5333127041        0.2803328752        1.4054730791
Mg              -0.5572859769        3.5299470219        4.2849060476
Mg               0.7493133127        3.1926913473        1.3700063972
Co              -1.7839959373        5.8706015563        5.0999131123
Ni              -1.9286162954        2.4216463876        2.3183150221
Ni               2.1681556515        4.2921469298        3.2843446148
Ni               1.9640576812        0.7721641083        0.5004264552
H               -0.5351560801        5.1024140310        5.5841768368
H               -0.4275970830        2.1508835414        2.5959766190
H                0.6559943351        4.5327499610        3.0528944213
H                0.7084279891        1.6142825722        0.1885288780
H                5.1872849618        1.0794994298        2.2133621139
H                4.1125598893        1.5421950806        4.9992492655
H               -3.8043150896        5.0289651022        0.5351690461
H               -4.9778239257        5.6453279725        3.4414568149
H               -2.9421321000        6.3150620526        4.1877081777
H               -2.7240129011        3.1699109069        1.2259115071
H                2.6911753750        3.4782982173        4.4946991516
H                3.0176543707        0.6555528025        1.6247036023
H                0.3787091667        1.8556668980        4.9738179520
H                2.7224491892        3.6219704719        1.9994473056
H               -2.4691012602        3.0107958038        3.6553886203
H               -0.2014585769        4.8426691844        0.6322144341



     Writing config-only to output data dir ./outdir/mg2nih4_co_nisite.save/ :
     XML data file
     NEW-OLD atomic charge density approx. for the potential
     New effective cutoffs (rho, wfc):  527.39   65.94

     Check: negative core charge=   -0.000001

     total cpu time spent up to now is    17218.1 secs

     Self-consistent Calculation

     iteration #  1     ecut=    60.00 Ry     beta= 0.30
     Davidson diagonalization with overlap
     ethr =  1.00E-06,  avg # of iterations =  4.0

     total cpu time spent up to now is    17264.6 secs

     total energy              =   -1616.72708277 Ry
     estimated scf accuracy    <       0.00021376 Ry

     iteration #  2     ecut=    60.00 Ry     beta= 0.30
     Davidson diagonalization with overlap
     ethr =  2.08E-07,  avg # of iterations =  2.0

     total cpu time spent up to now is    17288.8 secs

     total energy              =   -1616.72708370 Ry
     estimated scf accuracy    <       0.00016633 Ry

     iteration #  3     ecut=    60.00 Ry     beta= 0.30
     Davidson diagonalization with overlap
     ethr =  1.61E-07,  avg # of iterations =  2.4

     total cpu time spent up to now is    17315.9 secs

     total energy              =   -1616.72709644 Ry
     estimated scf accuracy    <       0.00013069 Ry

     iteration #  4     ecut=    60.00 Ry     beta= 0.30
     Davidson diagonalization with overlap
     ethr =  1.27E-07,  avg # of iterations =  2.2

     total cpu time spent up to now is    17340.1 secs

     total energy              =   -1616.72710129 Ry
     estimated scf accuracy    <       0.00009133 Ry

     iteration #  5     ecut=    60.00 Ry     beta= 0.30
     Davidson diagonalization with overlap
     ethr =  8.87E-08,  avg # of iterations =  1.0

     total cpu time spent up to now is    17358.6 secs

     total energy              =   -1616.72710740 Ry
     estimated scf accuracy    <       0.00000562 Ry

     iteration #  6     ecut=    60.00 Ry     beta= 0.30
     Davidson diagonalization with overlap
     ethr =  5.46E-09,  avg # of iterations =  2.2

     total cpu time spent up to now is    17384.9 secs

     total energy              =   -1616.72710784 Ry
     estimated scf accuracy    <       0.00000205 Ry

     iteration #  7     ecut=    60.00 Ry     beta= 0.30
     Davidson diagonalization with overlap
     ethr =  1.99E-09,  avg # of iterations =  1.9

     total cpu time spent up to now is    17408.5 secs

     total energy              =   -1616.72710794 Ry
     estimated scf accuracy    <       0.00000111 Ry

     iteration #  8     ecut=    60.00 Ry     beta= 0.30
     Davidson diagonalization with overlap
     ethr =  1.08E-09,  avg # of iterations =  1.8

     total cpu time spent up to now is    17433.1 secs

     total energy              =   -1616.72710805 Ry
     estimated scf accuracy    <       0.00000013 Ry

     iteration #  9     ecut=    60.00 Ry     beta= 0.30
     Davidson diagonalization with overlap
     ethr =  1.24E-10,  avg # of iterations =  4.0

     total cpu time spent up to now is    17474.0 secs

     total energy              =   -1616.72710813 Ry
     estimated scf accuracy    <       0.00000005 Ry

     iteration # 10     ecut=    60.00 Ry     beta= 0.30
     Davidson diagonalization with overlap
     ethr =  5.24E-11,  avg # of iterations =  1.7

     total cpu time spent up to now is    17498.3 secs

     total energy              =   -1616.72710813 Ry
     estimated scf accuracy    <       0.00000001 Ry

     iteration # 11     ecut=    60.00 Ry     beta= 0.30
     Davidson diagonalization with overlap
     ethr =  1.04E-11,  avg # of iterations =  2.0

     total cpu time spent up to now is    17520.9 secs

     total energy              =   -1616.72710813 Ry
     estimated scf accuracy    <          1.6E-09 Ry

     iteration # 12     ecut=    60.00 Ry     beta= 0.30
     Davidson diagonalization with overlap
     ethr =  1.60E-12,  avg # of iterations =  2.0

     total cpu time spent up to now is    17543.7 secs

     total energy              =   -1616.72710813 Ry
     estimated scf accuracy    <          3.4E-10 Ry

     iteration # 13     ecut=    60.00 Ry     beta= 0.30
     Davidson diagonalization with overlap
     ethr =  3.27E-13,  avg # of iterations =  1.1

     total cpu time spent up to now is    17563.5 secs

     End of self-consistent calculation

     Number of k-points >= 100: set verbosity='high' to print the bands.

     the Fermi energy is     5.8580 ev

!    total energy              =   -1616.72710813 Ry
     estimated scf accuracy    <          1.2E-11 Ry
     smearing contrib. (-TS)   =       0.00068470 Ry
     internal energy E=F+TS    =   -1616.72779283 Ry

     The total energy is F=E-TS. E is the sum of the following terms:
     one-electron contribution =   -1363.09462748 Ry
     hartree contribution      =     710.23781986 Ry
     xc contribution           =    -164.41734877 Ry
     ewald contribution        =    -548.76974703 Ry
     DFT-D3 Dispersion         =      -0.35941307 Ry
     one-center paw contrib.   =    -250.32447634 Ry

     convergence has been achieved in  13 iterations

     Forces acting on atoms (cartesian axes, Ry/au):

     atom    1 type  1   force =     0.00006740   -0.00026432    0.00063313
     atom    2 type  1   force =    -0.00062821    0.00007174   -0.00019129
     atom    3 type  1   force =     0.00021162   -0.00045104   -0.00069329
     atom    4 type  1   force =    -0.00021723    0.00023358   -0.00031415
     atom    5 type  1   force =     0.00047343    0.00006658   -0.00002722
     atom    6 type  1   force =    -0.00025417    0.00016620   -0.00035379
     atom    7 type  1   force =     0.00041216   -0.00114299    0.00035077
     atom    8 type  1   force =    -0.00094073    0.00051295    0.00045271
     atom    9 type  2   force =     0.00060484    0.00191888    0.00301863
     atom   10 type  3   force =     0.00055572   -0.00025344   -0.00035371
     atom   11 type  3   force =    -0.00076262   -0.00047240   -0.00003729
     atom   12 type  3   force =    -0.00113110    0.00071121   -0.00016683
     atom   13 type  4   force =     0.00100759   -0.00008190   -0.00002433
     atom   14 type  4   force =    -0.00106789    0.00013350   -0.00015281
     atom   15 type  4   force =    -0.00029081    0.00130319    0.00011015
     atom   16 type  4   force =     0.00046159    0.00018207   -0.00007844
     atom   17 type  4   force =     0.00053131   -0.00134942   -0.00042621
     atom   18 type  4   force =    -0.00131841   -0.00146389   -0.00013038
     atom   19 type  4   force =     0.00096819   -0.00024180    0.00017261
     atom   20 type  4   force =    -0.00013685   -0.00062665    0.00049349
     atom   21 type  4   force =    -0.00103346   -0.00031643   -0.00128707
     atom   22 type  4   force =    -0.00009327   -0.00012940   -0.00072929
     atom   23 type  4   force =     0.00199313    0.00001583    0.00016450
     atom   24 type  4   force =     0.00031434    0.00001932    0.00087352
     atom   25 type  4   force =    -0.00066352    0.00099771   -0.00044390
     atom   26 type  4   force =    -0.00053356    0.00041153    0.00055081
     atom   27 type  4   force =    -0.00067342    0.00000827    0.00008190
     atom   28 type  4   force =     0.00214390    0.00004113   -0.00149223

     Total force =     0.007180     Total SCF correction =     0.000012


     Computing stress (Cartesian axis) and pressure

          total   stress  (Ry/bohr**3)                   (kbar)     P=        0.08
  -0.00000116  -0.00000257   0.00000300           -0.17       -0.38        0.44
  -0.00000257   0.00000089   0.00000000           -0.38        0.13        0.00
   0.00000300   0.00000000   0.00000192            0.44        0.00        0.28

     Energy error            =      8.6E-05 Ry
     Gradient error          =      3.0E-03 Ry/Bohr
     Cell gradient error     =      4.4E-01 kbar

     number of scf cycles    =  45
     number of bfgs steps    =  44

     enthalpy           old  =   -1616.7270224038 Ry
     enthalpy           new  =   -1616.7271081342 Ry

     CASE: enthalpy          _new < enthalpy          _old

     new trust radius        =       0.0301061885 bohr
     new conv_thr            =            8.6E-11 Ry

     new unit-cell volume =   1722.69647 a.u.^3 (   255.27728 Ang^3 )
     density =      2.89843 g/cm^3

CELL_PARAMETERS (angstrom)
   7.768580564   0.058837977  -0.160344228
  -5.152274593   5.687887974   0.049520513
  -2.431469239   0.948410258   5.778454772

ATOMIC_POSITIONS (angstrom)
Mg              -4.3377633738        5.1769732641        5.5367289910
Mg              -3.0696917218        4.7961878129        2.7170681755
Mg               3.3606110847        1.9915845035        3.0565652210
Mg               4.5168525644        1.3420054716        0.1727793989
Mg               0.7418708026        6.3581828444        4.1893396003
Mg              -0.5361785273        0.2841572937        1.4080523633
Mg              -0.5649574771        3.5351515973        4.2878787710
Mg               0.7459848971        3.1934527702        1.3717438881
Co              -1.7912138417        5.8758410449        5.1020372147
Ni              -1.9331909258        2.4272138284        2.3165400039
Ni               2.1620382906        4.2928353282        3.2855078875
Ni               1.9644361331        0.7726254655        0.4977647695
H               -0.5398008751        5.1076517188        5.5865225949
H               -0.4325228501        2.1542292006        2.5931533922
H                0.6492203625        4.5340184044        3.0541308484
H                0.7106248289        1.6161789571        0.1880974408
H                5.1896873457        1.0767662973        2.2036582224
H                4.1059212073        1.5446804217        4.9931729830
H               -3.8062603575        5.0346738478        0.5415034183
H               -4.9854123262        5.6520847835        3.4506490445
H               -2.9510417639        6.3210415924        4.1904597553
H               -2.7423602048        3.1725372195        1.2319830849
H                2.6980313653        3.4791258650        4.4916424339
H                3.0202890994        0.6481259359        1.6185463757
H                0.3689791486        1.8589905065        4.9673736825
H                2.7187939007        3.6256830830        2.0002595362
H               -2.4749185840        3.0092888478        3.6555474074
H               -0.2003139572        4.8506190173        0.6381282895



     Writing config-only to output data dir ./outdir/mg2nih4_co_nisite.save/ :
     XML data file
     NEW-OLD atomic charge density approx. for the potential
     New effective cutoffs (rho, wfc):  528.45   66.07

     Check: negative core charge=   -0.000001

     total cpu time spent up to now is    17576.8 secs

     Self-consistent Calculation

     iteration #  1     ecut=    60.00 Ry     beta= 0.30
     Davidson diagonalization with overlap
     ethr =  1.00E-06,  avg # of iterations =  4.1

     total cpu time spent up to now is    17622.2 secs

     total energy              =   -1616.72717955 Ry
     estimated scf accuracy    <       0.00021172 Ry

     iteration #  2     ecut=    60.00 Ry     beta= 0.30
     Davidson diagonalization with overlap
     ethr =  2.06E-07,  avg # of iterations =  2.0

     total cpu time spent up to now is    17646.1 secs

     total energy              =   -1616.72717527 Ry
     estimated scf accuracy    <       0.00017909 Ry

     iteration #  3     ecut=    60.00 Ry     beta= 0.30
     Davidson diagonalization with overlap
     ethr =  1.74E-07,  avg # of iterations =  2.6

     total cpu time spent up to now is    17673.5 secs

     total energy              =   -1616.72718574 Ry
     estimated scf accuracy    <       0.00015795 Ry

     iteration #  4     ecut=    60.00 Ry     beta= 0.30
     Davidson diagonalization with overlap
     ethr =  1.53E-07,  avg # of iterations =  2.1

     total cpu time spent up to now is    17697.3 secs

     total energy              =   -1616.72719182 Ry
     estimated scf accuracy    <       0.00011429 Ry

     iteration #  5     ecut=    60.00 Ry     beta= 0.30
     Davidson diagonalization with overlap
     ethr =  1.11E-07,  avg # of iterations =  1.0

     total cpu time spent up to now is    17715.7 secs

     total energy              =   -1616.72719933 Ry
     estimated scf accuracy    <       0.00000480 Ry

     iteration #  6     ecut=    60.00 Ry     beta= 0.30
     Davidson diagonalization with overlap
     ethr =  4.66E-09,  avg # of iterations =  2.6

     total cpu time spent up to now is    17745.6 secs

     total energy              =   -1616.72719981 Ry
     estimated scf accuracy    <       0.00000251 Ry

     iteration #  7     ecut=    60.00 Ry     beta= 0.30
     Davidson diagonalization with overlap
     ethr =  2.44E-09,  avg # of iterations =  2.0

     total cpu time spent up to now is    17768.4 secs

     total energy              =   -1616.72719991 Ry
     estimated scf accuracy    <       0.00000125 Ry

     iteration #  8     ecut=    60.00 Ry     beta= 0.30
     Davidson diagonalization with overlap
     ethr =  1.21E-09,  avg # of iterations =  1.5

     total cpu time spent up to now is    17792.4 secs

     total energy              =   -1616.72720003 Ry
     estimated scf accuracy    <       0.00000013 Ry

     iteration #  9     ecut=    60.00 Ry     beta= 0.30
     Davidson diagonalization with overlap
     ethr =  1.23E-10,  avg # of iterations =  4.0

     total cpu time spent up to now is    17833.4 secs

     total energy              =   -1616.72720012 Ry
     estimated scf accuracy    <       0.00000002 Ry

     iteration # 10     ecut=    60.00 Ry     beta= 0.30
     Davidson diagonalization with overlap
     ethr =  1.75E-11,  avg # of iterations =  1.3

     total cpu time spent up to now is    17854.7 secs

     total energy              =   -1616.72720012 Ry
     estimated scf accuracy    <       0.00000001 Ry

     iteration # 11     ecut=    60.00 Ry     beta= 0.30
     Davidson diagonalization with overlap
     ethr =  9.84E-12,  avg # of iterations =  1.3

     total cpu time spent up to now is    17876.2 secs

     total energy              =   -1616.72720012 Ry
     estimated scf accuracy    <          1.4E-09 Ry

     iteration # 12     ecut=    60.00 Ry     beta= 0.30
     Davidson diagonalization with overlap
     ethr =  1.34E-12,  avg # of iterations =  2.0

     total cpu time spent up to now is    17898.8 secs

     total energy              =   -1616.72720012 Ry
     estimated scf accuracy    <          3.2E-10 Ry

     iteration # 13     ecut=    60.00 Ry     beta= 0.30
     Davidson diagonalization with overlap
     ethr =  3.07E-13,  avg # of iterations =  1.8

     total cpu time spent up to now is    17922.5 secs

     End of self-consistent calculation

     Number of k-points >= 100: set verbosity='high' to print the bands.

     the Fermi energy is     5.8598 ev

!    total energy              =   -1616.72720013 Ry
     estimated scf accuracy    <          1.9E-11 Ry
     smearing contrib. (-TS)   =       0.00067220 Ry
     internal energy E=F+TS    =   -1616.72787232 Ry

     The total energy is F=E-TS. E is the sum of the following terms:
     one-electron contribution =   -1362.77005565 Ry
     hartree contribution      =     710.08073208 Ry
     xc contribution           =    -164.41443239 Ry
     ewald contribution        =    -548.94025743 Ry
     DFT-D3 Dispersion         =      -0.35953844 Ry
     one-center paw contrib.   =    -250.32432048 Ry

     convergence has been achieved in  13 iterations

     Forces acting on atoms (cartesian axes, Ry/au):

     atom    1 type  1   force =     0.00001026   -0.00005733    0.00050553
     atom    2 type  1   force =    -0.00035757    0.00014759   -0.00017375
     atom    3 type  1   force =     0.00040360   -0.00076822   -0.00071590
     atom    4 type  1   force =     0.00053969   -0.00021413   -0.00018612
     atom    5 type  1   force =     0.00002155    0.00014235    0.00035620
     atom    6 type  1   force =    -0.00025790    0.00001779   -0.00110501
     atom    7 type  1   force =     0.00018285   -0.00085534   -0.00015177
     atom    8 type  1   force =    -0.00084226    0.00082846    0.00016900
     atom    9 type  2   force =     0.00059239    0.00209047    0.00298089
     atom   10 type  3   force =     0.00054230   -0.00044313   -0.00063307
     atom   11 type  3   force =    -0.00072562   -0.00044075    0.00060905
     atom   12 type  3   force =    -0.00100622    0.00051117    0.00067753
     atom   13 type  4   force =     0.00008724    0.00045462   -0.00038657
     atom   14 type  4   force =    -0.00114570    0.00016501    0.00000611
     atom   15 type  4   force =     0.00017351    0.00121542    0.00022467
     atom   16 type  4   force =     0.00001741    0.00024807   -0.00005037
     atom   17 type  4   force =     0.00038917   -0.00132602   -0.00042132
     atom   18 type  4   force =    -0.00121616   -0.00178798   -0.00001520
     atom   19 type  4   force =     0.00071111   -0.00049743    0.00010523
     atom   20 type  4   force =    -0.00027785   -0.00077513    0.00042841
     atom   21 type  4   force =    -0.00067746   -0.00040862   -0.00080894
     atom   22 type  4   force =     0.00014583   -0.00031502   -0.00050932
     atom   23 type  4   force =     0.00182301    0.00044323   -0.00044561
     atom   24 type  4   force =     0.00043247    0.00015965    0.00090559
     atom   25 type  4   force =    -0.00064057    0.00082261   -0.00036167
     atom   26 type  4   force =    -0.00065063    0.00046507    0.00049602
     atom   27 type  4   force =    -0.00062221    0.00015647    0.00026980
     atom   28 type  4   force =     0.00234775    0.00002112   -0.00176941

     Total force =     0.007239     Total SCF correction =     0.000021


     Computing stress (Cartesian axis) and pressure

          total   stress  (Ry/bohr**3)                   (kbar)     P=       -0.21
  -0.00000304   0.00000217   0.00000541           -0.45        0.32        0.80
   0.00000217  -0.00000049   0.00000065            0.32       -0.07        0.10
   0.00000541   0.00000065  -0.00000076            0.80        0.10       -0.11

     Energy error            =      9.2E-05 Ry
     Gradient error          =      3.0E-03 Ry/Bohr
     Cell gradient error     =      8.0E-01 kbar

     number of scf cycles    =  46
     number of bfgs steps    =  45

     enthalpy           old  =   -1616.7271081342 Ry
     enthalpy           new  =   -1616.7272001250 Ry

     CASE: enthalpy          _new < enthalpy          _old

     new trust radius        =       0.0313735999 bohr
     new conv_thr            =            9.2E-11 Ry

     new unit-cell volume =   1721.99898 a.u.^3 (   255.17392 Ang^3 )
     density =      2.89961 g/cm^3

CELL_PARAMETERS (angstrom)
   7.767576302   0.055511758  -0.165435296
  -5.154190900   5.691774239   0.056456740
  -2.435534591   0.953298617   5.777417132

ATOMIC_POSITIONS (angstrom)
Mg              -4.3415710855        5.1800544223        5.5487439862
Mg              -3.0767441660        4.7999956761        2.7242249201
Mg               3.3562758989        1.9904720813        3.0486224469
Mg               4.5123043881        1.3433337943        0.1632615640
Mg               0.7380922442        6.3617782802        4.1891023207
Mg              -0.5388156353        0.2879388022        1.4096989202
Mg              -0.5714916923        3.5400460141        4.2907638267
Mg               0.7427479560        3.1950003805        1.3739880333
Co              -1.7961994756        5.8821138949        5.1057143934
Ni              -1.9368837700        2.4322943860        2.3139534967
Ni               2.1567243270        4.2935747582        3.2877451628
Ni               1.9643302470        0.7736897414        0.4958406197
H               -0.5423887190        5.1136537656        5.5894510891
H               -0.4375465015        2.1579828476        2.5902651497
H                0.6438986371        4.5361153950        3.0558906460
H                0.7127810275        1.6185116152        0.1877846324
H                5.1925487101        1.0739230692        2.1946405134
H                4.0990197341        1.5471660485        4.9885379988
H               -3.8070998322        5.0396215429        0.5474044131
H               -4.9919171043        5.6579010559        3.4592415231
H               -2.9578604549        6.3256223434        4.1919518049
H               -2.7606683139        3.1746311968        1.2375981498
H                2.7078545873        3.4812207653        4.4890180561
H                3.0235896652        0.6412599974        1.6130766139
H                0.3598453997        1.8630867095        4.9604305101
H                2.7158078376        3.6299141417        2.0021812825
H               -2.4800923031        3.0076674890        3.6555145112
H               -0.1966302431        4.8596143736        0.6434934766



     Writing config-only to output data dir ./outdir/mg2nih4_co_nisite.save/ :
     XML data file
     NEW-OLD atomic charge density approx. for the potential
     New effective cutoffs (rho, wfc):  529.34   66.19

     Check: negative core charge=   -0.000001

     total cpu time spent up to now is    17935.8 secs

     Self-consistent Calculation

     iteration #  1     ecut=    60.00 Ry     beta= 0.30
     Davidson diagonalization with overlap
     ethr =  1.00E-06,  avg # of iterations =  4.0

     total cpu time spent up to now is    17978.2 secs

     total energy              =   -1616.72726951 Ry
     estimated scf accuracy    <       0.00024063 Ry

     iteration #  2     ecut=    60.00 Ry     beta= 0.30
     Davidson diagonalization with overlap
     ethr =  2.34E-07,  avg # of iterations =  2.0

     total cpu time spent up to now is    18002.0 secs

     total energy              =   -1616.72726654 Ry
     estimated scf accuracy    <       0.00017153 Ry

     iteration #  3     ecut=    60.00 Ry     beta= 0.30
     Davidson diagonalization with overlap
     ethr =  1.67E-07,  avg # of iterations =  2.3

     total cpu time spent up to now is    18028.6 secs

     total energy              =   -1616.72727766 Ry
     estimated scf accuracy    <       0.00014572 Ry

     iteration #  4     ecut=    60.00 Ry     beta= 0.30
     Davidson diagonalization with overlap
     ethr =  1.41E-07,  avg # of iterations =  2.2

     total cpu time spent up to now is    18053.1 secs

     total energy              =   -1616.72728223 Ry
     estimated scf accuracy    <       0.00010989 Ry

     iteration #  5     ecut=    60.00 Ry     beta= 0.30
     Davidson diagonalization with overlap
     ethr =  1.07E-07,  avg # of iterations =  1.0

     total cpu time spent up to now is    18071.8 secs

     total energy              =   -1616.72728972 Ry
     estimated scf accuracy    <       0.00000674 Ry

     iteration #  6     ecut=    60.00 Ry     beta= 0.30
     Davidson diagonalization with overlap
     ethr =  6.54E-09,  avg # of iterations =  2.2

     total cpu time spent up to now is    18097.7 secs

     total energy              =   -1616.72729014 Ry
     estimated scf accuracy    <       0.00000426 Ry

     iteration #  7     ecut=    60.00 Ry     beta= 0.30
     Davidson diagonalization with overlap
     ethr =  4.14E-09,  avg # of iterations =  1.3

     total cpu time spent up to now is    18119.5 secs

     total energy              =   -1616.72729043 Ry
     estimated scf accuracy    <       0.00000088 Ry

     iteration #  8     ecut=    60.00 Ry     beta= 0.30
     Davidson diagonalization with overlap
     ethr =  8.51E-10,  avg # of iterations =  2.5

     total cpu time spent up to now is    18147.2 secs

     total energy              =   -1616.72729053 Ry
     estimated scf accuracy    <       0.00000015 Ry

     iteration #  9     ecut=    60.00 Ry     beta= 0.30
     Davidson diagonalization with overlap
     ethr =  1.43E-10,  avg # of iterations =  4.0

     total cpu time spent up to now is    18188.1 secs

     total energy              =   -1616.72729063 Ry
     estimated scf accuracy    <       0.00000004 Ry

     iteration # 10     ecut=    60.00 Ry     beta= 0.30
     Davidson diagonalization with overlap
     ethr =  3.86E-11,  avg # of iterations =  1.6

     total cpu time spent up to now is    18211.9 secs

     total energy              =   -1616.72729063 Ry
     estimated scf accuracy    <       0.00000002 Ry

     iteration # 11     ecut=    60.00 Ry     beta= 0.30
     Davidson diagonalization with overlap
     ethr =  2.15E-11,  avg # of iterations =  1.3

     total cpu time spent up to now is    18233.5 secs

     total energy              =   -1616.72729063 Ry
     estimated scf accuracy    <          1.3E-09 Ry

     iteration # 12     ecut=    60.00 Ry     beta= 0.30
     Davidson diagonalization with overlap
     ethr =  1.28E-12,  avg # of iterations =  2.0

     total cpu time spent up to now is    18257.4 secs

     total energy              =   -1616.72729063 Ry
     estimated scf accuracy    <          3.7E-10 Ry

     iteration # 13     ecut=    60.00 Ry     beta= 0.30
     Davidson diagonalization with overlap
     ethr =  3.57E-13,  avg # of iterations =  1.5

     total cpu time spent up to now is    18280.5 secs

     End of self-consistent calculation

     Number of k-points >= 100: set verbosity='high' to print the bands.

     the Fermi energy is     5.8622 ev

!    total energy              =   -1616.72729063 Ry
     estimated scf accuracy    <          2.1E-11 Ry
     smearing contrib. (-TS)   =       0.00065493 Ry
     internal energy E=F+TS    =   -1616.72794556 Ry

     The total energy is F=E-TS. E is the sum of the following terms:
     one-electron contribution =   -1362.45516646 Ry
     hartree contribution      =     709.92991210 Ry
     xc contribution           =    -164.41243934 Ry
     ewald contribution        =    -549.10635371 Ry
     DFT-D3 Dispersion         =      -0.35968658 Ry
     one-center paw contrib.   =    -250.32421158 Ry

     convergence has been achieved in  13 iterations

     Forces acting on atoms (cartesian axes, Ry/au):

     atom    1 type  1   force =     0.00006518    0.00023003    0.00033164
     atom    2 type  1   force =    -0.00010806    0.00015547   -0.00010961
     atom    3 type  1   force =     0.00049074   -0.00093125   -0.00063316
     atom    4 type  1   force =     0.00113647   -0.00053810   -0.00015858
     atom    5 type  1   force =    -0.00041025    0.00021198    0.00076169
     atom    6 type  1   force =    -0.00024340   -0.00017124   -0.00163543
     atom    7 type  1   force =    -0.00009977   -0.00035427   -0.00062898
     atom    8 type  1   force =    -0.00062564    0.00104966   -0.00009697
     atom    9 type  2   force =     0.00029196    0.00133797    0.00142868
     atom   10 type  3   force =    -0.00001409   -0.00049611   -0.00072524
     atom   11 type  3   force =    -0.00057467   -0.00035764    0.00126996
     atom   12 type  3   force =    -0.00042468    0.00009159    0.00149008
     atom   13 type  4   force =    -0.00077090    0.00094032   -0.00072381
     atom   14 type  4   force =    -0.00089583    0.00010302    0.00022575
     atom   15 type  4   force =     0.00044660    0.00108308    0.00031933
     atom   16 type  4   force =    -0.00051565    0.00037719   -0.00000048
     atom   17 type  4   force =     0.00036155   -0.00102252   -0.00041497
     atom   18 type  4   force =    -0.00063843   -0.00128772   -0.00000709
     atom   19 type  4   force =     0.00050130   -0.00063231    0.00005625
     atom   20 type  4   force =    -0.00040275   -0.00086619    0.00035184
     atom   21 type  4   force =    -0.00003034   -0.00056907   -0.00000213
     atom   22 type  4   force =     0.00046832   -0.00061881   -0.00015941
     atom   23 type  4   force =     0.00164049    0.00076384   -0.00095693
     atom   24 type  4   force =     0.00031927    0.00027861    0.00066616
     atom   25 type  4   force =    -0.00060800    0.00057720   -0.00005808
     atom   26 type  4   force =    -0.00075048    0.00044087    0.00033439
     atom   27 type  4   force =    -0.00047170    0.00024398    0.00025231
     atom   28 type  4   force =     0.00186277   -0.00003960   -0.00117721

     Total force =     0.006363     Total SCF correction =     0.000016


     Computing stress (Cartesian axis) and pressure

          total   stress  (Ry/bohr**3)                   (kbar)     P=       -0.37
  -0.00000411   0.00000644   0.00000582           -0.60        0.95        0.86
   0.00000644  -0.00000077   0.00000146            0.95       -0.11        0.21
   0.00000582   0.00000146  -0.00000268            0.86        0.21       -0.39

     Energy error            =      9.1E-05 Ry
     Gradient error          =      1.9E-03 Ry/Bohr
     Cell gradient error     =      9.5E-01 kbar

     number of scf cycles    =  47
     number of bfgs steps    =  46

     enthalpy           old  =   -1616.7272001250 Ry
     enthalpy           new  =   -1616.7272906310 Ry

     CASE: enthalpy          _new < enthalpy          _old

     new trust radius        =       0.0294032822 bohr
     new conv_thr            =            9.1E-11 Ry

     new unit-cell volume =   1721.08668 a.u.^3 (   255.03873 Ang^3 )
     density =      2.90114 g/cm^3

CELL_PARAMETERS (angstrom)
   7.766090990   0.054418976  -0.168431869
  -5.154094282   5.693981512   0.061862321
  -2.437518937   0.957405588   5.775523886

ATOMIC_POSITIONS (angstrom)
Mg              -4.3422062042        5.1821266977        5.5588907909
Mg              -3.0809274336        4.8030706460        2.7303566664
Mg               3.3536724166        1.9896957031        3.0412491884
Mg               4.5092588508        1.3450302140        0.1553201570
Mg               0.7366872820        6.3655092890        4.1894746788
Mg              -0.5407353736        0.2911131373        1.4096515001
Mg              -0.5757402002        3.5442809978        4.2923150531
Mg               0.7407404294        3.1975407720        1.3760142704
Co              -1.7979062708        5.8882925371        5.1089435506
Ni              -1.9390062665        2.4361642618        2.3105143460
Ni               2.1533889021        4.2947937803        3.2909253205
Ni               1.9640991402        0.7751103973        0.4957013650
H               -0.5428364271        5.1196645893        5.5911568239
H               -0.4414614522        2.1616615318        2.5874104044
H                0.6413608219        4.5387599536        3.0577789224
H                0.7147394104        1.6211506233        0.1878588357
H                5.1956914010        1.0721459516        2.1871618956
H                4.0936315428        1.5495767066        4.9849734913
H               -3.8063548363        5.0428436555        0.5521858899
H               -4.9957690142        5.6617062230        3.4660936573
H               -2.9613884883        6.3293848410        4.1927982050
H               -2.7764458135        3.1755631243        1.2423273875
H                2.7197121302        3.4845458284        4.4862872334
H                3.0276417951        0.6356251573        1.6088238007
H                0.3526273774        1.8671533079        4.9538625230
H                2.7140082125        3.6349876305        2.0045385230
H               -2.4831947511        3.0057397892        3.6551149500
H               -0.1905983894        4.8680477166        0.6476312968



     Writing config-only to output data dir ./outdir/mg2nih4_co_nisite.save/ :
     XML data file
     NEW-OLD atomic charge density approx. for the potential
     New effective cutoffs (rho, wfc):  529.98   66.27

     Check: negative core charge=   -0.000001

     total cpu time spent up to now is    18293.8 secs

     Self-consistent Calculation

     iteration #  1     ecut=    60.00 Ry     beta= 0.30
     Davidson diagonalization with overlap
     ethr =  1.00E-06,  avg # of iterations =  4.0

     total cpu time spent up to now is    18336.6 secs

     total energy              =   -1616.72734958 Ry
     estimated scf accuracy    <       0.00024296 Ry

     iteration #  2     ecut=    60.00 Ry     beta= 0.30
     Davidson diagonalization with overlap
     ethr =  2.36E-07,  avg # of iterations =  2.0

     total cpu time spent up to now is    18360.5 secs

     total energy              =   -1616.72734929 Ry
     estimated scf accuracy    <       0.00016392 Ry

     iteration #  3     ecut=    60.00 Ry     beta= 0.30
     Davidson diagonalization with overlap
     ethr =  1.59E-07,  avg # of iterations =  2.1

     total cpu time spent up to now is    18384.8 secs

     total energy              =   -1616.72736433 Ry
     estimated scf accuracy    <       0.00010480 Ry

     iteration #  4     ecut=    60.00 Ry     beta= 0.30
     Davidson diagonalization with overlap
     ethr =  1.02E-07,  avg # of iterations =  1.3

     total cpu time spent up to now is    18406.9 secs

     total energy              =   -1616.72736875 Ry
     estimated scf accuracy    <       0.00002458 Ry

     iteration #  5     ecut=    60.00 Ry     beta= 0.30
     Davidson diagonalization with overlap
     ethr =  2.39E-08,  avg # of iterations =  2.1

     total cpu time spent up to now is    18430.6 secs

     total energy              =   -1616.72737061 Ry
     estimated scf accuracy    <       0.00002550 Ry

     iteration #  6     ecut=    60.00 Ry     beta= 0.30
     Davidson diagonalization with overlap
     ethr =  2.39E-08,  avg # of iterations =  1.4

     total cpu time spent up to now is    18453.2 secs

     total energy              =   -1616.72737190 Ry
     estimated scf accuracy    <       0.00000380 Ry

     iteration #  7     ecut=    60.00 Ry     beta= 0.30
     Davidson diagonalization with overlap
     ethr =  3.69E-09,  avg # of iterations =  2.0

     total cpu time spent up to now is    18475.9 secs

     total energy              =   -1616.72737232 Ry
     estimated scf accuracy    <       0.00000068 Ry

     iteration #  8     ecut=    60.00 Ry     beta= 0.30
     Davidson diagonalization with overlap
     ethr =  6.59E-10,  avg # of iterations =  3.8

     total cpu time spent up to now is    18515.1 secs

     total energy              =   -1616.72737241 Ry
     estimated scf accuracy    <       0.00000009 Ry

     iteration #  9     ecut=    60.00 Ry     beta= 0.30
     Davidson diagonalization with overlap
     ethr =  9.08E-11,  avg # of iterations =  4.1

     total cpu time spent up to now is    18558.0 secs

     total energy              =   -1616.72737248 Ry
     estimated scf accuracy    <       0.00000004 Ry

     iteration # 10     ecut=    60.00 Ry     beta= 0.30
     Davidson diagonalization with overlap
     ethr =  4.30E-11,  avg # of iterations =  1.1

     total cpu time spent up to now is    18577.1 secs

     total energy              =   -1616.72737249 Ry
     estimated scf accuracy    <          9.4E-09 Ry

     iteration # 11     ecut=    60.00 Ry     beta= 0.30
     Davidson diagonalization with overlap
     ethr =  9.08E-12,  avg # of iterations =  2.0

     total cpu time spent up to now is    18600.8 secs

     total energy              =   -1616.72737249 Ry
     estimated scf accuracy    <          2.2E-09 Ry

     iteration # 12     ecut=    60.00 Ry     beta= 0.30
     Davidson diagonalization with overlap
     ethr =  2.17E-12,  avg # of iterations =  1.0

     total cpu time spent up to now is    18619.3 secs

     total energy              =   -1616.72737249 Ry
     estimated scf accuracy    <          1.8E-10 Ry

     iteration # 13     ecut=    60.00 Ry     beta= 0.30
     Davidson diagonalization with overlap
     ethr =  1.71E-13,  avg # of iterations =  2.8

     total cpu time spent up to now is    18649.5 secs

     End of self-consistent calculation

     Number of k-points >= 100: set verbosity='high' to print the bands.

     the Fermi energy is     5.8655 ev

!    total energy              =   -1616.72737249 Ry
     estimated scf accuracy    <          1.1E-11 Ry
     smearing contrib. (-TS)   =       0.00063750 Ry
     internal energy E=F+TS    =   -1616.72800999 Ry

     The total energy is F=E-TS. E is the sum of the following terms:
     one-electron contribution =   -1362.14900280 Ry
     hartree contribution      =     709.78683400 Ry
     xc contribution           =    -164.41233417 Ry
     ewald contribution        =    -549.26941639 Ry
     DFT-D3 Dispersion         =      -0.35987549 Ry
     one-center paw contrib.   =    -250.32421515 Ry

     convergence has been achieved in  13 iterations

     Forces acting on atoms (cartesian axes, Ry/au):

     atom    1 type  1   force =     0.00017385    0.00046869    0.00014052
     atom    2 type  1   force =     0.00002318    0.00009260   -0.00001708
     atom    3 type  1   force =     0.00042406   -0.00085949   -0.00052749
     atom    4 type  1   force =     0.00136482   -0.00060307   -0.00026836
     atom    5 type  1   force =    -0.00060044    0.00024200    0.00101921
     atom    6 type  1   force =    -0.00017071   -0.00035882   -0.00172541
     atom    7 type  1   force =    -0.00032733    0.00013878   -0.00095553
     atom    8 type  1   force =    -0.00036725    0.00106156   -0.00022488
     atom    9 type  2   force =    -0.00011379    0.00007730   -0.00088486
     atom   10 type  3   force =    -0.00074487   -0.00047688   -0.00054393
     atom   11 type  3   force =    -0.00038341   -0.00022670    0.00157112
     atom   12 type  3   force =     0.00021652   -0.00032217    0.00188247
     atom   13 type  4   force =    -0.00119389    0.00114145   -0.00088034
     atom   14 type  4   force =    -0.00045200   -0.00000596    0.00044230
     atom   15 type  4   force =     0.00042214    0.00097848    0.00035557
     atom   16 type  4   force =    -0.00093428    0.00047763    0.00008692
     atom   17 type  4   force =     0.00042736   -0.00057182   -0.00039404
     atom   18 type  4   force =     0.00013123   -0.00023260   -0.00008138
     atom   19 type  4   force =     0.00038546   -0.00057777    0.00005026
     atom   20 type  4   force =    -0.00049679   -0.00086841    0.00026331
     atom   21 type  4   force =     0.00057869   -0.00070487    0.00076416
     atom   22 type  4   force =     0.00073538   -0.00089625    0.00011213
     atom   23 type  4   force =     0.00156445    0.00082208   -0.00109088
     atom   24 type  4   force =     0.00009698    0.00033168    0.00031144
     atom   25 type  4   force =    -0.00056346    0.00033795    0.00040098
     atom   26 type  4   force =    -0.00082447    0.00036587    0.00013992
     atom   27 type  4   force =    -0.00028562    0.00024163    0.00006410
     atom   28 type  4   force =     0.00091418   -0.00007290   -0.00001020

     Total force =     0.006103     Total SCF correction =     0.000016


     Computing stress (Cartesian axis) and pressure

          total   stress  (Ry/bohr**3)                   (kbar)     P=       -0.32
  -0.00000346   0.00000842   0.00000461           -0.51        1.24        0.68
   0.00000842   0.00000002   0.00000201            1.24        0.00        0.30
   0.00000461   0.00000201  -0.00000302            0.68        0.30       -0.44

     Energy error            =      8.2E-05 Ry
     Gradient error          =      1.9E-03 Ry/Bohr
     Cell gradient error     =      1.2E+00 kbar

     number of scf cycles    =  48
     number of bfgs steps    =  47

     enthalpy           old  =   -1616.7272906310 Ry
     enthalpy           new  =   -1616.7273724888 Ry

     CASE: enthalpy          _new < enthalpy          _old

     new trust radius        =       0.0351836791 bohr
     new conv_thr            =            8.2E-11 Ry

     new unit-cell volume =   1719.64442 a.u.^3 (   254.82501 Ang^3 )
     density =      2.90358 g/cm^3

CELL_PARAMETERS (angstrom)
   7.763710337   0.055280659  -0.170772485
  -5.151939597   5.695176418   0.067407680
  -2.438433501   0.961640559   5.772134058

ATOMIC_POSITIONS (angstrom)
Mg              -4.3405671468        5.1839078152        5.5697834920
Mg              -3.0830284667        4.8065078632        2.7379864285
Mg               3.3517010022        1.9893387263        3.0317633453
Mg               4.5072324698        1.3473236790        0.1462447685
Mg               0.7365136565        6.3703963150        4.1902832031
Mg              -0.5423880141        0.2943979567        1.4079162589
Mg              -0.5791480417        3.5491339978        4.2922634617
Mg               0.7398197944        3.2016917316        1.3777819925
Co              -1.7977341754        5.8951180928        5.1103717681
Ni              -1.9405347594        2.4399562870        2.3054896648
Ni               2.1510073267        4.2970539991        3.2954011001
Ni               1.9641277898        0.7769423747        0.4975669656
H               -0.5425196224        5.1267733677        5.5906801670
H               -0.4448939163        2.1660251086        2.5837198849
H                0.6405415717        4.5423820288        3.0598763586
H                0.7170054536        1.6246985214        0.1884632395
H                5.1999713810        1.0714547094        2.1785814547
H                4.0892736248        1.5527985201        4.9798959213
H               -3.8041836873        5.0453921918        0.5574506397
H               -4.9982388992        5.6646733673        3.4733444257
H               -2.9637155589        6.3350662796        4.1945567359
H               -2.7938759469        3.1755677840        1.2477992512
H                2.7357078171        3.4893716497        4.4818678703
H                3.0336974679        0.6291789032        1.6041830214
H                0.3450572027        1.8716949141        4.9462980548
H                2.7125941538        3.6426811334        2.0069644100
H               -2.4849281312        3.0026563080        3.6542049496
H               -0.1817730053        4.8771832819        0.6520307138



     Writing config-only to output data dir ./outdir/mg2nih4_co_nisite.save/ :
     XML data file
     NEW-OLD atomic charge density approx. for the potential
     New effective cutoffs (rho, wfc):  530.68   66.37

     Check: negative core charge=   -0.000001

     total cpu time spent up to now is    18662.9 secs

     Self-consistent Calculation

     iteration #  1     ecut=    60.00 Ry     beta= 0.30
     Davidson diagonalization with overlap
     ethr =  1.00E-06,  avg # of iterations =  4.0

     total cpu time spent up to now is    18705.3 secs

     total energy              =   -1616.72742072 Ry
     estimated scf accuracy    <       0.00039054 Ry

     iteration #  2     ecut=    60.00 Ry     beta= 0.30
     Davidson diagonalization with overlap
     ethr =  3.79E-07,  avg # of iterations =  2.0

     total cpu time spent up to now is    18729.3 secs

     total energy              =   -1616.72741524 Ry
     estimated scf accuracy    <       0.00035224 Ry

     iteration #  3     ecut=    60.00 Ry     beta= 0.30
     Davidson diagonalization with overlap
     ethr =  3.42E-07,  avg # of iterations =  2.0

     total cpu time spent up to now is    18752.1 secs

     total energy              =   -1616.72744258 Ry
     estimated scf accuracy    <       0.00022720 Ry

     iteration #  4     ecut=    60.00 Ry     beta= 0.30
     Davidson diagonalization with overlap
     ethr =  2.21E-07,  avg # of iterations =  2.0

     total cpu time spent up to now is    18774.9 secs

     total energy              =   -1616.72744853 Ry
     estimated scf accuracy    <       0.00020363 Ry

     iteration #  5     ecut=    60.00 Ry     beta= 0.30
     Davidson diagonalization with overlap
     ethr =  1.98E-07,  avg # of iterations =  1.7

     total cpu time spent up to now is    18798.7 secs

     total energy              =   -1616.72746209 Ry
     estimated scf accuracy    <       0.00000966 Ry

     iteration #  6     ecut=    60.00 Ry     beta= 0.30
     Davidson diagonalization with overlap
     ethr =  9.37E-09,  avg # of iterations =  3.0

     total cpu time spent up to now is    18827.1 secs

     total energy              =   -1616.72746267 Ry
     estimated scf accuracy    <       0.00000834 Ry

     iteration #  7     ecut=    60.00 Ry     beta= 0.30
     Davidson diagonalization with overlap
     ethr =  8.09E-09,  avg # of iterations =  1.6

     total cpu time spent up to now is    18851.7 secs

     total energy              =   -1616.72746317 Ry
     estimated scf accuracy    <       0.00000181 Ry

     iteration #  8     ecut=    60.00 Ry     beta= 0.30
     Davidson diagonalization with overlap
     ethr =  1.76E-09,  avg # of iterations =  2.0

     total cpu time spent up to now is    18874.9 secs

     total energy              =   -1616.72746340 Ry
     estimated scf accuracy    <       0.00000037 Ry

     iteration #  9     ecut=    60.00 Ry     beta= 0.30
     Davidson diagonalization with overlap
     ethr =  3.62E-10,  avg # of iterations =  4.4

     total cpu time spent up to now is    18912.1 secs

     total energy              =   -1616.72746355 Ry
     estimated scf accuracy    <       0.00000003 Ry

     iteration # 10     ecut=    60.00 Ry     beta= 0.30
     Davidson diagonalization with overlap
     ethr =  2.67E-11,  avg # of iterations =  2.0

     total cpu time spent up to now is    18936.3 secs

     total energy              =   -1616.72746355 Ry
     estimated scf accuracy    <       0.00000005 Ry

     iteration # 11     ecut=    60.00 Ry     beta= 0.30
     Davidson diagonalization with overlap
     ethr =  2.67E-11,  avg # of iterations =  1.9

     total cpu time spent up to now is    18959.7 secs

     total energy              =   -1616.72746355 Ry
     estimated scf accuracy    <          2.1E-09 Ry

     iteration # 12     ecut=    60.00 Ry     beta= 0.30
     Davidson diagonalization with overlap
     ethr =  2.09E-12,  avg # of iterations =  2.4

     total cpu time spent up to now is    18987.6 secs

     total energy              =   -1616.72746355 Ry
     estimated scf accuracy    <          8.6E-10 Ry

     iteration # 13     ecut=    60.00 Ry     beta= 0.30
     Davidson diagonalization with overlap
     ethr =  8.32E-13,  avg # of iterations =  1.1

     total cpu time spent up to now is    19006.6 secs

     End of self-consistent calculation

     Number of k-points >= 100: set verbosity='high' to print the bands.

     the Fermi energy is     5.8715 ev

!    total energy              =   -1616.72746355 Ry
     estimated scf accuracy    <          5.0E-11 Ry
     smearing contrib. (-TS)   =       0.00061969 Ry
     internal energy E=F+TS    =   -1616.72808324 Ry

     The total energy is F=E-TS. E is the sum of the following terms:
     one-electron contribution =   -1361.71983574 Ry
     hartree contribution      =     709.58990126 Ry
     xc contribution           =    -164.41378890 Ry
     ewald contribution        =    -549.49985032 Ry
     DFT-D3 Dispersion         =      -0.36017019 Ry
     one-center paw contrib.   =    -250.32433935 Ry

     convergence has been achieved in  13 iterations

     Forces acting on atoms (cartesian axes, Ry/au):

     atom    1 type  1   force =     0.00027281    0.00062915   -0.00008528
     atom    2 type  1   force =     0.00005190   -0.00003781    0.00008856
     atom    3 type  1   force =     0.00020456   -0.00057262   -0.00046386
     atom    4 type  1   force =     0.00126920   -0.00042813   -0.00050198
     atom    5 type  1   force =    -0.00052572    0.00023296    0.00109853
     atom    6 type  1   force =    -0.00002151   -0.00055420   -0.00140901
     atom    7 type  1   force =    -0.00049801    0.00057030   -0.00117366
     atom    8 type  1   force =    -0.00008813    0.00082939   -0.00021164
     atom    9 type  2   force =    -0.00049309   -0.00122931   -0.00320695
     atom   10 type  3   force =    -0.00134622   -0.00046275   -0.00013750
     atom   11 type  3   force =    -0.00019411   -0.00008050    0.00143721
     atom   12 type  3   force =     0.00066374   -0.00060854    0.00182225
     atom   13 type  4   force =    -0.00117502    0.00102883   -0.00085687
     atom   14 type  4   force =     0.00003988   -0.00011053    0.00064358
     atom   15 type  4   force =     0.00017284    0.00091367    0.00033854
     atom   16 type  4   force =    -0.00118345    0.00048169    0.00025054
     atom   17 type  4   force =     0.00053061   -0.00005897   -0.00035184
     atom   18 type  4   force =     0.00085178    0.00098259   -0.00017458
     atom   19 type  4   force =     0.00031506   -0.00035895    0.00008945
     atom   20 type  4   force =    -0.00058522   -0.00078166    0.00014370
     atom   21 type  4   force =     0.00100768   -0.00077912    0.00132356
     atom   22 type  4   force =     0.00094863   -0.00112977    0.00025777
     atom   23 type  4   force =     0.00161543    0.00066885   -0.00087275
     atom   24 type  4   force =    -0.00014836    0.00032193   -0.00007818
     atom   25 type  4   force =    -0.00047775    0.00010334    0.00098152
     atom   26 type  4   force =    -0.00090383    0.00027239   -0.00004269
     atom   27 type  4   force =    -0.00009697    0.00017205   -0.00021058
     atom   28 type  4   force =    -0.00020671   -0.00001426    0.00130214

     Total force =     0.007285     Total SCF correction =     0.000020


     Computing stress (Cartesian axis) and pressure

          total   stress  (Ry/bohr**3)                   (kbar)     P=       -0.07
  -0.00000106   0.00000815   0.00000264           -0.16        1.20        0.39
   0.00000815   0.00000155   0.00000230            1.20        0.23        0.34
   0.00000264   0.00000230  -0.00000201            0.39        0.34       -0.30

     Energy error            =      9.1E-05 Ry
     Gradient error          =      3.2E-03 Ry/Bohr
     Cell gradient error     =      1.2E+00 kbar

     number of scf cycles    =  49
     number of bfgs steps    =  48

     enthalpy           old  =   -1616.7273724888 Ry
     enthalpy           new  =   -1616.7274635518 Ry

     CASE: enthalpy          _new < enthalpy          _old

     new trust radius        =       0.0487809271 bohr
     new conv_thr            =            9.1E-11 Ry

     new unit-cell volume =   1717.48690 a.u.^3 (   254.50530 Ang^3 )
     density =      2.90722 g/cm^3

CELL_PARAMETERS (angstrom)
   7.759871976   0.057916447  -0.173373308
  -5.147508835   5.696250109   0.074787593
  -2.438831225   0.967324604   5.766759243

ATOMIC_POSITIONS (angstrom)
Mg              -4.3366954436        5.1868438494        5.5842142926
Mg              -3.0840401693        4.8114497611        2.7491670859
Mg               3.3493696325        1.9895966978        3.0180156029
Mg               4.5055846555        1.3508948930        0.1336061285
Mg               0.7369302381        6.3781899455        4.1922106048
Mg              -0.5443981380        0.2986610840        1.4045045694
Mg              -0.5830335672        3.5564136349        4.2907938390
Mg               0.7396237847        3.2084747305        1.3798132168
Co              -1.7964070112        5.9041412985        5.1094585386
Ni              -1.9424118750        2.4449252939        2.2982796486
Ni               2.1484647124        4.3011789605        3.3023926536
Ni               1.9646762813        0.7793699042        0.5018134074
H               -0.5419492726        5.1371236200        5.5877634778
H               -0.4486109471        2.1720042745        2.5787213116
H                0.6404601677        4.5484123760        3.0628218626
H                0.7200986965        1.6300093997        0.1898617372
H                5.2066517711        1.0718152126        2.1665525849
H                4.0851671101        1.5584739233        4.9716741675
H               -3.7998845149        5.0483441455        0.5647770981
H               -5.0002281526        5.6680016235        3.4833643219
H               -2.9658425773        6.3444137978        4.1984711678
H               -2.8164653647        3.1746195879        1.2554268556
H                2.7594580415        3.4968238087        4.4747107848
H                3.0425446444        0.6205094125        1.5980319129
H                0.3350555256        1.8781035789        4.9366492791
H                2.7104171282        3.6549319447        2.0100728690
H               -2.4859828351        2.9981518772        3.6525439050
H               -0.1691057074        4.8889975967        0.6587164694



     Writing config-only to output data dir ./outdir/mg2nih4_co_nisite.save/ :
     XML data file
     NEW-OLD atomic charge density approx. for the potential
     New effective cutoffs (rho, wfc):  532.03   66.52

     Check: negative core charge=   -0.000001

     total cpu time spent up to now is    19019.9 secs

     Self-consistent Calculation

     iteration #  1     ecut=    60.00 Ry     beta= 0.30
     Davidson diagonalization with overlap
     ethr =  1.00E-06,  avg # of iterations =  4.2

     total cpu time spent up to now is    19065.5 secs

     total energy              =   -1616.72748249 Ry
     estimated scf accuracy    <       0.00084302 Ry

     iteration #  2     ecut=    60.00 Ry     beta= 0.30
     Davidson diagonalization with overlap
     ethr =  8.18E-07,  avg # of iterations =  2.1

     total cpu time spent up to now is    19090.7 secs

     total energy              =   -1616.72746413 Ry
     estimated scf accuracy    <       0.00088432 Ry

     iteration #  3     ecut=    60.00 Ry     beta= 0.30
     Davidson diagonalization with overlap
     ethr =  8.18E-07,  avg # of iterations =  2.0

     total cpu time spent up to now is    19113.8 secs

     total energy              =   -1616.72753228 Ry
     estimated scf accuracy    <       0.00056839 Ry

     iteration #  4     ecut=    60.00 Ry     beta= 0.30
     Davidson diagonalization with overlap
     ethr =  5.52E-07,  avg # of iterations =  2.0

     total cpu time spent up to now is    19136.6 secs

     total energy              =   -1616.72755249 Ry
     estimated scf accuracy    <       0.00042364 Ry

     iteration #  5     ecut=    60.00 Ry     beta= 0.30
     Davidson diagonalization with overlap
     ethr =  4.11E-07,  avg # of iterations =  1.7

     total cpu time spent up to now is    19160.3 secs

     total energy              =   -1616.72758060 Ry
     estimated scf accuracy    <       0.00002003 Ry

     iteration #  6     ecut=    60.00 Ry     beta= 0.30
     Davidson diagonalization with overlap
     ethr =  1.94E-08,  avg # of iterations =  3.0

     total cpu time spent up to now is    19188.8 secs

     total energy              =   -1616.72758180 Ry
     estimated scf accuracy    <       0.00001945 Ry

     iteration #  7     ecut=    60.00 Ry     beta= 0.30
     Davidson diagonalization with overlap
     ethr =  1.89E-08,  avg # of iterations =  1.3

     total cpu time spent up to now is    19210.8 secs

     total energy              =   -1616.72758302 Ry
     estimated scf accuracy    <       0.00000329 Ry

     iteration #  8     ecut=    60.00 Ry     beta= 0.30
     Davidson diagonalization with overlap
     ethr =  3.19E-09,  avg # of iterations =  2.0

     total cpu time spent up to now is    19234.4 secs

     total energy              =   -1616.72758346 Ry
     estimated scf accuracy    <       0.00000083 Ry

     iteration #  9     ecut=    60.00 Ry     beta= 0.30
     Davidson diagonalization with overlap
     ethr =  8.05E-10,  avg # of iterations =  5.0

     total cpu time spent up to now is    19273.3 secs

     total energy              =   -1616.72758374 Ry
     estimated scf accuracy    <       0.00000020 Ry

     iteration # 10     ecut=    60.00 Ry     beta= 0.30
     Davidson diagonalization with overlap
     ethr =  1.90E-10,  avg # of iterations =  1.9

     total cpu time spent up to now is    19297.5 secs

     total energy              =   -1616.72758376 Ry
     estimated scf accuracy    <       0.00000006 Ry

     iteration # 11     ecut=    60.00 Ry     beta= 0.30
     Davidson diagonalization with overlap
     ethr =  6.12E-11,  avg # of iterations =  1.0

     total cpu time spent up to now is    19315.9 secs

     total energy              =   -1616.72758376 Ry
     estimated scf accuracy    <          2.5E-09 Ry

     iteration # 12     ecut=    60.00 Ry     beta= 0.30
     Davidson diagonalization with overlap
     ethr =  2.47E-12,  avg # of iterations =  2.4

     total cpu time spent up to now is    19343.7 secs

     total energy              =   -1616.72758376 Ry
     estimated scf accuracy    <          9.5E-10 Ry

     iteration # 13     ecut=    60.00 Ry     beta= 0.30
     Davidson diagonalization with overlap
     ethr =  9.18E-13,  avg # of iterations =  1.1

     total cpu time spent up to now is    19362.6 secs

     total energy              =   -1616.72758376 Ry
     estimated scf accuracy    <          9.4E-11 Ry

     iteration # 14     ecut=    60.00 Ry     beta= 0.30
     Davidson diagonalization with overlap
     ethr =  1.00E-13,  avg # of iterations =  3.4

     total cpu time spent up to now is    19395.6 secs

     End of self-consistent calculation

     Number of k-points >= 100: set verbosity='high' to print the bands.

     the Fermi energy is     5.8809 ev

!    total energy              =   -1616.72758376 Ry
     estimated scf accuracy    <          1.1E-11 Ry
     smearing contrib. (-TS)   =       0.00059866 Ry
     internal energy E=F+TS    =   -1616.72818242 Ry

     The total energy is F=E-TS. E is the sum of the following terms:
     one-electron contribution =   -1361.07567076 Ry
     hartree contribution      =     709.29486020 Ry
     xc contribution           =    -164.41611853 Ry
     ewald contribution        =    -549.84612439 Ry
     DFT-D3 Dispersion         =      -0.36061039 Ry
     one-center paw contrib.   =    -250.32451855 Ry

     convergence has been achieved in  14 iterations

     Forces acting on atoms (cartesian axes, Ry/au):

     atom    1 type  1   force =     0.00031317    0.00070527   -0.00039085
     atom    2 type  1   force =     0.00002768   -0.00023588    0.00022441
     atom    3 type  1   force =    -0.00017951   -0.00007492   -0.00047733
     atom    4 type  1   force =     0.00089868   -0.00003003   -0.00086885
     atom    5 type  1   force =    -0.00018666    0.00018227    0.00096756
     atom    6 type  1   force =     0.00022263   -0.00078541   -0.00071214
     atom    7 type  1   force =    -0.00064114    0.00095220   -0.00132429
     atom    8 type  1   force =     0.00023656    0.00029381   -0.00008387
     atom    9 type  2   force =    -0.00069928   -0.00225087   -0.00483607
     atom   10 type  3   force =    -0.00150633   -0.00055722    0.00049373
     atom   11 type  3   force =    -0.00001414    0.00001138    0.00089806
     atom   12 type  3   force =     0.00069373   -0.00066959    0.00127710
     atom   13 type  4   force =    -0.00071045    0.00054885   -0.00064855
     atom   14 type  4   force =     0.00049076   -0.00016376    0.00083147
     atom   15 type  4   force =    -0.00021775    0.00086265    0.00027211
     atom   16 type  4   force =    -0.00123976    0.00032236    0.00055115
     atom   17 type  4   force =     0.00060438    0.00048602   -0.00026782
     atom   18 type  4   force =     0.00133037    0.00202786   -0.00022392
     atom   19 type  4   force =     0.00020867    0.00000240    0.00017989
     atom   20 type  4   force =    -0.00068966   -0.00056148   -0.00003643
     atom   21 type  4   force =     0.00102986   -0.00069823    0.00149271
     atom   22 type  4   force =     0.00107704   -0.00127859    0.00021222
     atom   23 type  4   force =     0.00175274    0.00039541   -0.00039094
     atom   24 type  4   force =    -0.00032106    0.00024771   -0.00044949
     atom   25 type  4   force =    -0.00028569   -0.00016274    0.00166692
     atom   26 type  4   force =    -0.00099908    0.00016214   -0.00023245
     atom   27 type  4   force =     0.00007413    0.00005339   -0.00048169
     atom   28 type  4   force =    -0.00126986    0.00021500    0.00235734

     Total force =     0.008802     Total SCF correction =     0.000010


     Computing stress (Cartesian axis) and pressure

          total   stress  (Ry/bohr**3)                   (kbar)     P=        0.32
   0.00000323   0.00000548   0.00000069            0.47        0.81        0.10
   0.00000548   0.00000335   0.00000230            0.81        0.49        0.34
   0.00000069   0.00000230  -0.00000000            0.10        0.34       -0.00

     Energy error            =      1.2E-04 Ry
     Gradient error          =      4.8E-03 Ry/Bohr
     Cell gradient error     =      8.1E-01 kbar

     number of scf cycles    =  50
     number of bfgs steps    =  49

     enthalpy           old  =   -1616.7274635518 Ry
     enthalpy           new  =   -1616.7275837631 Ry

     CASE: enthalpy          _new < enthalpy          _old

     new trust radius        =       0.0624415701 bohr
     new conv_thr            =       0.0000000001 Ry

     new unit-cell volume =   1715.07527 a.u.^3 (   254.14793 Ang^3 )
     density =      2.91131 g/cm^3

CELL_PARAMETERS (angstrom)
   7.755268226   0.061810467  -0.176497590
  -5.141651489   5.697964849   0.084047618
  -2.439193661   0.974540937   5.760086505

ATOMIC_POSITIONS (angstrom)
Mg              -4.3316331659        5.1920073781        5.6018332913
Mg              -3.0846069501        4.8182082661        2.7638781692
Mg               3.3464675612        1.9908851035        3.0005344404
Mg               4.5045957837        1.3557912124        0.1175309485
Mg               0.7375041203        6.3893588840        4.1957055686
Mg              -0.5468292676        0.3035932006        1.4000064412
Mg              -0.5876346163        3.5665188508        4.2881386962
Mg               0.7399032849        3.2175879309        1.3822356222
Co              -1.7948353328        5.9151126802        5.1055441628
Ni              -1.9451635675        2.4510284432        2.2900261745
Ni               2.1453647785        4.3073160814        3.3117407001
Ni               1.9658301263        0.7821547875        0.5082033351
H               -0.5416022949        5.1507486375        5.5824503946
H               -0.4525284031        2.1793337199        2.5732147233
H                0.6403095088        4.5576992563        3.0666859136
H                0.7237915186        1.6368998270        0.1922532938
H                5.2161342322        1.0732575441        2.1513040729
H                4.0820148639        1.5669553011        4.9601478554
H               -3.7936431920        5.0522556199        0.5743295496
H               -5.0024826261        5.6721412034        3.4964796569
H               -2.9687950595        6.3580326084        4.2053555108
H               -2.8425346276        3.1727484155        1.2648726381
H                2.7902180372        3.5066934814        4.4651396065
H                3.0534459192        0.6101056051        1.5907098421
H                0.3227430826        1.8865535313        4.9264743416
H                2.7067673581        3.6715488917        2.0137468929
H               -2.4868484795        2.9929743311        3.6502808188
H               -0.1540295226        4.9029167384        0.6680887978



     Writing config-only to output data dir ./outdir/mg2nih4_co_nisite.save/ :
     XML data file
     NEW-OLD atomic charge density approx. for the potential
     New effective cutoffs (rho, wfc):  533.86   66.74

     Check: negative core charge=   -0.000001

     total cpu time spent up to now is    19408.9 secs

     Self-consistent Calculation

     iteration #  1     ecut=    60.00 Ry     beta= 0.30
     Davidson diagonalization with overlap
     ethr =  1.00E-06,  avg # of iterations =  4.3

     total cpu time spent up to now is    19457.5 secs

     total energy              =   -1616.72756306 Ry
     estimated scf accuracy    <       0.00136664 Ry

     iteration #  2     ecut=    60.00 Ry     beta= 0.30
     Davidson diagonalization with overlap
     ethr =  1.33E-06,  avg # of iterations =  2.3

     total cpu time spent up to now is    19485.4 secs

     total energy              =   -1616.72753271 Ry
     estimated scf accuracy    <       0.00139588 Ry

     iteration #  3     ecut=    60.00 Ry     beta= 0.30
     Davidson diagonalization with overlap
     ethr =  1.33E-06,  avg # of iterations =  2.0

     total cpu time spent up to now is    19508.2 secs

     total energy              =   -1616.72763719 Ry
     estimated scf accuracy    <       0.00103120 Ry

     iteration #  4     ecut=    60.00 Ry     beta= 0.30
     Davidson diagonalization with overlap
     ethr =  1.00E-06,  avg # of iterations =  2.0

     total cpu time spent up to now is    19530.8 secs

     total energy              =   -1616.72767940 Ry
     estimated scf accuracy    <       0.00062426 Ry

     iteration #  5     ecut=    60.00 Ry     beta= 0.30
     Davidson diagonalization with overlap
     ethr =  6.06E-07,  avg # of iterations =  1.8

     total cpu time spent up to now is    19555.0 secs

     total energy              =   -1616.72772213 Ry
     estimated scf accuracy    <       0.00003359 Ry

     iteration #  6     ecut=    60.00 Ry     beta= 0.30
     Davidson diagonalization with overlap
     ethr =  3.26E-08,  avg # of iterations =  2.9

     total cpu time spent up to now is    19584.3 secs

     total energy              =   -1616.72772405 Ry
     estimated scf accuracy    <       0.00002240 Ry

     iteration #  7     ecut=    60.00 Ry     beta= 0.30
     Davidson diagonalization with overlap
     ethr =  2.18E-08,  avg # of iterations =  1.6

     total cpu time spent up to now is    19608.3 secs

     total energy              =   -1616.72772565 Ry
     estimated scf accuracy    <       0.00000507 Ry

     iteration #  8     ecut=    60.00 Ry     beta= 0.30
     Davidson diagonalization with overlap
     ethr =  4.92E-09,  avg # of iterations =  2.0

     total cpu time spent up to now is    19631.2 secs

     total energy              =   -1616.72772625 Ry
     estimated scf accuracy    <       0.00000111 Ry

     iteration #  9     ecut=    60.00 Ry     beta= 0.30
     Davidson diagonalization with overlap
     ethr =  1.08E-09,  avg # of iterations =  4.1

     total cpu time spent up to now is    19667.8 secs

     total energy              =   -1616.72772668 Ry
     estimated scf accuracy    <       0.00000051 Ry

     iteration # 10     ecut=    60.00 Ry     beta= 0.30
     Davidson diagonalization with overlap
     ethr =  4.91E-10,  avg # of iterations =  1.3

     total cpu time spent up to now is    19689.9 secs

     total energy              =   -1616.72772673 Ry
     estimated scf accuracy    <       0.00000007 Ry

     iteration # 11     ecut=    60.00 Ry     beta= 0.30
     Davidson diagonalization with overlap
     ethr =  6.86E-11,  avg # of iterations =  2.0

     total cpu time spent up to now is    19712.7 secs

     total energy              =   -1616.72772673 Ry
     estimated scf accuracy    <          8.1E-09 Ry

     iteration # 12     ecut=    60.00 Ry     beta= 0.30
     Davidson diagonalization with overlap
     ethr =  7.89E-12,  avg # of iterations =  2.0

     total cpu time spent up to now is    19735.3 secs

     total energy              =   -1616.72772673 Ry
     estimated scf accuracy    <          1.4E-09 Ry

     iteration # 13     ecut=    60.00 Ry     beta= 0.30
     Davidson diagonalization with overlap
     ethr =  1.38E-12,  avg # of iterations =  1.9

     total cpu time spent up to now is    19758.9 secs

     End of self-consistent calculation

     Number of k-points >= 100: set verbosity='high' to print the bands.

     the Fermi energy is     5.8923 ev

!    total energy              =   -1616.72772674 Ry
     estimated scf accuracy    <          1.0E-10 Ry
     smearing contrib. (-TS)   =       0.00057788 Ry
     internal energy E=F+TS    =   -1616.72830462 Ry

     The total energy is F=E-TS. E is the sum of the following terms:
     one-electron contribution =   -1360.29514112 Ry
     hartree contribution      =     708.93313710 Ry
     xc contribution           =    -164.41709589 Ry
     ewald contribution        =    -550.26355509 Ry
     DFT-D3 Dispersion         =      -0.36110477 Ry
     one-center paw contrib.   =    -250.32454484 Ry

     convergence has been achieved in  13 iterations

     Forces acting on atoms (cartesian axes, Ry/au):

     atom    1 type  1   force =     0.00025085    0.00068311   -0.00075707
     atom    2 type  1   force =    -0.00000881   -0.00047260    0.00035650
     atom    3 type  1   force =    -0.00066016    0.00051394   -0.00057364
     atom    4 type  1   force =     0.00033912    0.00050277   -0.00128245
     atom    5 type  1   force =     0.00035205    0.00009883    0.00058915
     atom    6 type  1   force =     0.00050744   -0.00101442    0.00021536
     atom    7 type  1   force =    -0.00076391    0.00118092   -0.00136450
     atom    8 type  1   force =     0.00056742   -0.00049194    0.00009022
     atom    9 type  2   force =    -0.00061892   -0.00233627   -0.00460253
     atom   10 type  3   force =    -0.00089079   -0.00073322    0.00112191
     atom   11 type  3   force =     0.00011393   -0.00011016    0.00018001
     atom   12 type  3   force =     0.00018093   -0.00038616    0.00038792
     atom   13 type  4   force =     0.00008566   -0.00025918   -0.00029527
     atom   14 type  4   force =     0.00072287   -0.00010464    0.00096003
     atom   15 type  4   force =    -0.00053274    0.00077562    0.00017548
     atom   16 type  4   force =    -0.00104751   -0.00004817    0.00098718
     atom   17 type  4   force =     0.00054648    0.00089918   -0.00013687
     atom   18 type  4   force =     0.00122586    0.00230831   -0.00014888
     atom   19 type  4   force =    -0.00000390    0.00040397    0.00030637
     atom   20 type  4   force =    -0.00079582   -0.00019284   -0.00026202
     atom   21 type  4   force =     0.00051515   -0.00043311    0.00107900
     atom   22 type  4   force =     0.00107881   -0.00129182   -0.00003778
     atom   23 type  4   force =     0.00183773    0.00021066    0.00009073
     atom   24 type  4   force =    -0.00035715    0.00011909   -0.00074245
     atom   25 type  4   force =     0.00005426   -0.00042453    0.00224135
     atom   26 type  4   force =    -0.00108715    0.00004852   -0.00041872
     atom   27 type  4   force =     0.00017720   -0.00008297   -0.00060187
     atom   28 type  4   force =    -0.00178890    0.00063710    0.00244284

     Total force =     0.008912     Total SCF correction =     0.000035


     Computing stress (Cartesian axis) and pressure

          total   stress  (Ry/bohr**3)                   (kbar)     P=        0.55
   0.00000695   0.00000083  -0.00000054            1.02        0.12       -0.08
   0.00000083   0.00000334   0.00000214            0.12        0.49        0.32
  -0.00000054   0.00000214   0.00000098           -0.08        0.32        0.14

     Energy error            =      1.4E-04 Ry
     Gradient error          =      4.6E-03 Ry/Bohr
     Cell gradient error     =      1.0E+00 kbar

     number of scf cycles    =  51
     number of bfgs steps    =  50

     enthalpy           old  =   -1616.7275837631 Ry
     enthalpy           new  =   -1616.7277267351 Ry

     CASE: enthalpy          _new < enthalpy          _old

     new trust radius        =       0.0564075011 bohr
     new conv_thr            =       0.0000000001 Ry

     new unit-cell volume =   1713.39944 a.u.^3 (   253.89960 Ang^3 )
     density =      2.91416 g/cm^3

CELL_PARAMETERS (angstrom)
   7.751901250   0.065237454  -0.178815611
  -5.136957391   5.700046517   0.092211604
  -2.439369201   0.981316057   5.754561548

ATOMIC_POSITIONS (angstrom)
Mg              -4.3271197683        5.1985625490        5.6162526552
Mg              -3.0853268469        4.8243017038        2.7765685026
Mg               3.3438522306        1.9930007632        2.9858185748
Mg               4.5045623450        1.3607543998        0.1035525232
Mg               0.7383509609        6.4005004899        4.2002316808
Mg              -0.5489704937        0.3072975861        1.3963828397
Mg              -0.5916802065        3.5767225706        4.2854786516
Mg               0.7402546654        3.2255849622        1.3847679194
Co              -1.7935902840        5.9245493919        5.1003673804
Ni              -1.9479993289        2.4560653234        2.2842324084
Ni               2.1424716208        4.3131700564        3.3207850961
Ni               1.9669850585        0.7843797658        0.5143529225
H               -0.5410154583        5.1636039288        5.5774074180
H               -0.4554487839        2.1854845729        2.5698614505
H                0.6397123108        4.5680044456        3.0705350837
H                0.7264780920        1.6428504740        0.1951354585
H                5.2257081533        1.0752094183        2.1382958776
H                4.0808512524        1.5762124490        4.9499138492
H               -3.7873414963        5.0559572699        0.5830031806
H               -5.0047278753        5.6758243276        3.5083346762
H               -2.9714055740        6.3701492072        4.2125925300
H               -2.8620083117        3.1701960546        1.2724553867
H                2.8185003412        3.5161636925        4.4569040913
H                3.0619393102        0.6022803536        1.5850060918
H                0.3125710685        1.8948719308        4.9200915431
H                2.7021902322        3.6864308383        2.0173756122
H               -2.4876620100        2.9896310362        3.6480118084
H               -0.1420860042        4.9146408355        0.6776903547



     Writing config-only to output data dir ./outdir/mg2nih4_co_nisite.save/ :
     XML data file
     NEW-OLD atomic charge density approx. for the potential
     New effective cutoffs (rho, wfc):  535.35   66.92

     Check: negative core charge=   -0.000001

     total cpu time spent up to now is    19772.3 secs

     Self-consistent Calculation

     iteration #  1     ecut=    60.00 Ry     beta= 0.30
     Davidson diagonalization with overlap
     ethr =  1.00E-06,  avg # of iterations =  4.2

     total cpu time spent up to now is    19819.1 secs

     total energy              =   -1616.72773679 Ry
     estimated scf accuracy    <       0.00101941 Ry

     iteration #  2     ecut=    60.00 Ry     beta= 0.30
     Davidson diagonalization with overlap
     ethr =  9.90E-07,  avg # of iterations =  2.1

     total cpu time spent up to now is    19844.3 secs

     total energy              =   -1616.72771599 Ry
     estimated scf accuracy    <       0.00091385 Ry

     iteration #  3     ecut=    60.00 Ry     beta= 0.30
     Davidson diagonalization with overlap
     ethr =  8.87E-07,  avg # of iterations =  2.0

     total cpu time spent up to now is    19867.6 secs

     total energy              =   -1616.72777663 Ry
     estimated scf accuracy    <       0.00089797 Ry

     iteration #  4     ecut=    60.00 Ry     beta= 0.30
     Davidson diagonalization with overlap
     ethr =  8.72E-07,  avg # of iterations =  2.0

     total cpu time spent up to now is    19890.4 secs

     total energy              =   -1616.72781724 Ry
     estimated scf accuracy    <       0.00041343 Ry

     iteration #  5     ecut=    60.00 Ry     beta= 0.30
     Davidson diagonalization with overlap
     ethr =  4.01E-07,  avg # of iterations =  1.9

     total cpu time spent up to now is    19914.4 secs

     total energy              =   -1616.72784731 Ry
     estimated scf accuracy    <       0.00002683 Ry

     iteration #  6     ecut=    60.00 Ry     beta= 0.30
     Davidson diagonalization with overlap
     ethr =  2.60E-08,  avg # of iterations =  2.2

     total cpu time spent up to now is    19939.3 secs

     total energy              =   -1616.72784876 Ry
     estimated scf accuracy    <       0.00000703 Ry

     iteration #  7     ecut=    60.00 Ry     beta= 0.30
     Davidson diagonalization with overlap
     ethr =  6.82E-09,  avg # of iterations =  2.0

     total cpu time spent up to now is    19962.3 secs

     total energy              =   -1616.72784936 Ry
     estimated scf accuracy    <       0.00000579 Ry

     iteration #  8     ecut=    60.00 Ry     beta= 0.30
     Davidson diagonalization with overlap
     ethr =  5.62E-09,  avg # of iterations =  1.1

     total cpu time spent up to now is    19981.3 secs

     total energy              =   -1616.72784987 Ry
     estimated scf accuracy    <       0.00000040 Ry

     iteration #  9     ecut=    60.00 Ry     beta= 0.30
     Davidson diagonalization with overlap
     ethr =  3.88E-10,  avg # of iterations =  4.0

     total cpu time spent up to now is    20023.6 secs

     total energy              =   -1616.72785023 Ry
     estimated scf accuracy    <       0.00000015 Ry

     iteration # 10     ecut=    60.00 Ry     beta= 0.30
     Davidson diagonalization with overlap
     ethr =  1.46E-10,  avg # of iterations =  1.9

     total cpu time spent up to now is    20047.4 secs

     total energy              =   -1616.72785024 Ry
     estimated scf accuracy    <       0.00000006 Ry

     iteration # 11     ecut=    60.00 Ry     beta= 0.30
     Davidson diagonalization with overlap
     ethr =  6.21E-11,  avg # of iterations =  1.2

     total cpu time spent up to now is    20068.6 secs

     total energy              =   -1616.72785024 Ry
     estimated scf accuracy    <          9.6E-09 Ry

     iteration # 12     ecut=    60.00 Ry     beta= 0.30
     Davidson diagonalization with overlap
     ethr =  9.31E-12,  avg # of iterations =  2.0

     total cpu time spent up to now is    20092.2 secs

     total energy              =   -1616.72785025 Ry
     estimated scf accuracy    <          9.4E-10 Ry

     iteration # 13     ecut=    60.00 Ry     beta= 0.30
     Davidson diagonalization with overlap
     ethr =  9.14E-13,  avg # of iterations =  1.3

     total cpu time spent up to now is    20113.6 secs

     End of self-consistent calculation

     Number of k-points >= 100: set verbosity='high' to print the bands.

     the Fermi energy is     5.9010 ev

!    total energy              =   -1616.72785025 Ry
     estimated scf accuracy    <          8.5E-11 Ry
     smearing contrib. (-TS)   =       0.00056197 Ry
     internal energy E=F+TS    =   -1616.72841221 Ry

     The total energy is F=E-TS. E is the sum of the following terms:
     one-electron contribution =   -1359.68896169 Ry
     hartree contribution      =     708.64736112 Ry
     xc contribution           =    -164.41591592 Ry
     ewald contribution        =    -550.58511462 Ry
     DFT-D3 Dispersion         =      -0.36144963 Ry
     one-center paw contrib.   =    -250.32433147 Ry

     convergence has been achieved in  13 iterations

     Forces acting on atoms (cartesian axes, Ry/au):

     atom    1 type  1   force =     0.00013804    0.00061280   -0.00101545
     atom    2 type  1   force =     0.00001967   -0.00062854    0.00043971
     atom    3 type  1   force =    -0.00098480    0.00086706   -0.00069250
     atom    4 type  1   force =    -0.00014052    0.00088958   -0.00152984
     atom    5 type  1   force =     0.00079372    0.00004149    0.00010801
     atom    6 type  1   force =     0.00067354   -0.00113100    0.00093440
     atom    7 type  1   force =    -0.00084710    0.00114214   -0.00124608
     atom    8 type  1   force =     0.00076554   -0.00119365    0.00017868
     atom    9 type  2   force =    -0.00016560   -0.00129777   -0.00218158
     atom   10 type  3   force =     0.00044357   -0.00086816    0.00144696
     atom   11 type  3   force =     0.00010293   -0.00037941   -0.00037134
     atom   12 type  3   force =    -0.00068362    0.00015343   -0.00040486
     atom   13 type  4   force =     0.00076483   -0.00103857    0.00001356
     atom   14 type  4   force =     0.00065812    0.00004856    0.00099378
     atom   15 type  4   force =    -0.00049422    0.00061417    0.00010065
     atom   16 type  4   force =    -0.00069981   -0.00050322    0.00137564
     atom   17 type  4   force =     0.00029469    0.00089635    0.00000900
     atom   18 type  4   force =     0.00048763    0.00153196    0.00004525
     atom   19 type  4   force =    -0.00031252    0.00061282    0.00041974
     atom   20 type  4   force =    -0.00085126    0.00021897   -0.00044717
     atom   21 type  4   force =    -0.00043650   -0.00002203    0.00019501
     atom   22 type  4   force =     0.00083432   -0.00105603   -0.00046897
     atom   23 type  4   force =     0.00173986    0.00023367    0.00030499
     atom   24 type  4   force =    -0.00015883   -0.00002238   -0.00079999
     atom   25 type  4   force =     0.00047905   -0.00057874    0.00232181
     atom   26 type  4   force =    -0.00109092   -0.00004003   -0.00060277
     atom   27 type  4   force =     0.00014381   -0.00017191   -0.00042288
     atom   28 type  4   force =    -0.00147363    0.00106843    0.00129626

     Total force =     0.007549     Total SCF correction =     0.000027


     Computing stress (Cartesian axis) and pressure

          total   stress  (Ry/bohr**3)                   (kbar)     P=        0.54
   0.00000824  -0.00000372  -0.00000047            1.21       -0.55       -0.07
  -0.00000372   0.00000177   0.00000176           -0.55        0.26        0.26
  -0.00000047   0.00000176   0.00000090           -0.07        0.26        0.13

     Energy error            =      1.2E-04 Ry
     Gradient error          =      2.3E-03 Ry/Bohr
     Cell gradient error     =      1.2E+00 kbar

     number of scf cycles    =  52
     number of bfgs steps    =  51

     enthalpy           old  =   -1616.7277267351 Ry
     enthalpy           new  =   -1616.7278502461 Ry

     CASE: enthalpy          _new < enthalpy          _old

     new trust radius        =       0.0336039790 bohr
     new conv_thr            =       0.0000000001 Ry

     new unit-cell volume =   1713.06045 a.u.^3 (   253.84937 Ang^3 )
     density =      2.91474 g/cm^3

CELL_PARAMETERS (angstrom)
   7.751784249   0.066637693  -0.180309813
  -5.135912856   5.702113738   0.097281197
  -2.440181955   0.985739031   5.751744302

ATOMIC_POSITIONS (angstrom)
Mg              -4.3262151465        5.2042371922        5.6238271478
Mg              -3.0867187494        4.8282263837        2.7845397196
Mg               3.3424047277        1.9952069496        2.9771521209
Mg               4.5058342794        1.3640069034        0.0948636787
Mg               0.7389811243        6.4077656083        4.2035691595
Mg              -0.5498669689        0.3086410485        1.3949111423
Mg              -0.5945513410        3.5837034242        4.2833276456
Mg               0.7406306960        3.2295698934        1.3864379524
Co              -1.7940344744        5.9302258516        5.0963815070
Ni              -1.9500238013        2.4585516764        2.2825385478
Ni               2.1406630914        4.3166076670        3.3260986273
Ni               1.9675256071        0.7856212289        0.5180513965
H               -0.5412726387        5.1709951326        5.5740348944
H               -0.4569457075        2.1890694505        2.5692589350
H                0.6386719848        4.5755669461        3.0730904928
H                0.7272822825        1.6458261163        0.1979049548
H                5.2326818742        1.0767289914        2.1309060205
H                4.0819339231        1.5825914019        4.9434364259
H               -3.7847557294        5.0590468258        0.5887344898
H               -5.0080970822        5.6786405455        3.5156005248
H               -2.9750367280        6.3786363627        4.2182626556
H               -2.8715564780        3.1683084344        1.2763389645
H                2.8356630042        3.5220030232        4.4521215047
H                3.0668570901        0.5981881375        1.5817538852
H                0.3070369201        1.8999413012        4.9190714711
H                2.6984572924        3.6952919820        2.0190879346
H               -2.4888870791        2.9885237164        3.6467508140
H               -0.1370098387        4.9211442775        0.6839669946



     Writing config-only to output data dir ./outdir/mg2nih4_co_nisite.save/ :
     XML data file
     NEW-OLD atomic charge density approx. for the potential
     New effective cutoffs (rho, wfc):  536.13   67.01

     Check: negative core charge=   -0.000001

     total cpu time spent up to now is    20126.9 secs

     Self-consistent Calculation

     iteration #  1     ecut=    60.00 Ry     beta= 0.30
     Davidson diagonalization with overlap
     ethr =  1.00E-06,  avg # of iterations =  4.0

     total cpu time spent up to now is    20169.5 secs

     total energy              =   -1616.72791730 Ry
     estimated scf accuracy    <       0.00029010 Ry

     iteration #  2     ecut=    60.00 Ry     beta= 0.30
     Davidson diagonalization with overlap
     ethr =  2.82E-07,  avg # of iterations =  2.0

     total cpu time spent up to now is    20192.6 secs

     total energy              =   -1616.72791609 Ry
     estimated scf accuracy    <       0.00015111 Ry

     iteration #  3     ecut=    60.00 Ry     beta= 0.30
     Davidson diagonalization with overlap
     ethr =  1.47E-07,  avg # of iterations =  2.2

     total cpu time spent up to now is    20218.9 secs

     total energy              =   -1616.72791784 Ry
     estimated scf accuracy    <       0.00028059 Ry

     iteration #  4     ecut=    60.00 Ry     beta= 0.30
     Davidson diagonalization with overlap
     ethr =  1.47E-07,  avg # of iterations =  2.1

     total cpu time spent up to now is    20242.1 secs

     total energy              =   -1616.72793147 Ry
     estimated scf accuracy    <       0.00010005 Ry

     iteration #  5     ecut=    60.00 Ry     beta= 0.30
     Davidson diagonalization with overlap
     ethr =  9.71E-08,  avg # of iterations =  2.0

     total cpu time spent up to now is    20265.7 secs

     total energy              =   -1616.72793928 Ry
     estimated scf accuracy    <       0.00001081 Ry

     iteration #  6     ecut=    60.00 Ry     beta= 0.30
     Davidson diagonalization with overlap
     ethr =  1.05E-08,  avg # of iterations =  2.0

     total cpu time spent up to now is    20288.3 secs

     total energy              =   -1616.72793982 Ry
     estimated scf accuracy    <       0.00000173 Ry

     iteration #  7     ecut=    60.00 Ry     beta= 0.30
     Davidson diagonalization with overlap
     ethr =  1.68E-09,  avg # of iterations =  2.0

     total cpu time spent up to now is    20312.2 secs

     total energy              =   -1616.72793996 Ry
     estimated scf accuracy    <       0.00000211 Ry

     iteration #  8     ecut=    60.00 Ry     beta= 0.30
     Davidson diagonalization with overlap
     ethr =  1.68E-09,  avg # of iterations =  1.8

     total cpu time spent up to now is    20336.0 secs

     total energy              =   -1616.72794014 Ry
     estimated scf accuracy    <       0.00000018 Ry

     iteration #  9     ecut=    60.00 Ry     beta= 0.30
     Davidson diagonalization with overlap
     ethr =  1.74E-10,  avg # of iterations =  4.0

     total cpu time spent up to now is    20377.1 secs

     total energy              =   -1616.72794026 Ry
     estimated scf accuracy    <       0.00000005 Ry

     iteration # 10     ecut=    60.00 Ry     beta= 0.30
     Davidson diagonalization with overlap
     ethr =  4.72E-11,  avg # of iterations =  1.2

     total cpu time spent up to now is    20397.2 secs

     total energy              =   -1616.72794026 Ry
     estimated scf accuracy    <       0.00000002 Ry

     iteration # 11     ecut=    60.00 Ry     beta= 0.30
     Davidson diagonalization with overlap
     ethr =  2.13E-11,  avg # of iterations =  1.0

     total cpu time spent up to now is    20415.7 secs

     total energy              =   -1616.72794026 Ry
     estimated scf accuracy    <          2.7E-09 Ry

     iteration # 12     ecut=    60.00 Ry     beta= 0.30
     Davidson diagonalization with overlap
     ethr =  2.64E-12,  avg # of iterations =  2.0

     total cpu time spent up to now is    20439.3 secs

     total energy              =   -1616.72794026 Ry
     estimated scf accuracy    <          2.1E-10 Ry

     iteration # 13     ecut=    60.00 Ry     beta= 0.30
     Davidson diagonalization with overlap
     ethr =  2.02E-13,  avg # of iterations =  1.8

     total cpu time spent up to now is    20463.6 secs

     End of self-consistent calculation

     Number of k-points >= 100: set verbosity='high' to print the bands.

     the Fermi energy is     5.9038 ev

!    total energy              =   -1616.72794026 Ry
     estimated scf accuracy    <          8.1E-11 Ry
     smearing contrib. (-TS)   =       0.00055359 Ry
     internal energy E=F+TS    =   -1616.72849385 Ry

     The total energy is F=E-TS. E is the sum of the following terms:
     one-electron contribution =   -1359.45644215 Ry
     hartree contribution      =     708.52950577 Ry
     xc contribution           =    -164.41230351 Ry
     ewald contribution        =    -550.70386959 Ry
     DFT-D3 Dispersion         =      -0.36152105 Ry
     one-center paw contrib.   =    -250.32386331 Ry

     convergence has been achieved in  13 iterations

     Forces acting on atoms (cartesian axes, Ry/au):

     atom    1 type  1   force =     0.00007410    0.00058496   -0.00101588
     atom    2 type  1   force =     0.00009890   -0.00064530    0.00039764
     atom    3 type  1   force =    -0.00100642    0.00080098   -0.00073973
     atom    4 type  1   force =    -0.00036266    0.00096961   -0.00147203
     atom    5 type  1   force =     0.00088516    0.00005741   -0.00022271
     atom    6 type  1   force =     0.00058989   -0.00109524    0.00116472
     atom    7 type  1   force =    -0.00086965    0.00087489   -0.00098788
     atom    8 type  1   force =     0.00072919   -0.00144937    0.00012639
     atom    9 type  2   force =     0.00024886    0.00004826    0.00058646
     atom   10 type  3   force =     0.00144961   -0.00063094    0.00115152
     atom   11 type  3   force =    -0.00003530   -0.00053987   -0.00055342
     atom   12 type  3   force =    -0.00115376    0.00057031   -0.00054698
     atom   13 type  4   force =     0.00092049   -0.00135589    0.00011798
     atom   14 type  4   force =     0.00048246    0.00017822    0.00096444
     atom   15 type  4   force =    -0.00012424    0.00041807    0.00008117
     atom   16 type  4   force =    -0.00040738   -0.00080056    0.00151208
     atom   17 type  4   force =    -0.00001891    0.00047747    0.00010313
     atom   18 type  4   force =    -0.00037607    0.00034401    0.00024373
     atom   19 type  4   force =    -0.00056420    0.00053790    0.00047298
     atom   20 type  4   force =    -0.00083066    0.00046863   -0.00052747
     atom   21 type  4   force =    -0.00101443    0.00023129   -0.00051782
     atom   22 type  4   force =     0.00066800   -0.00082928   -0.00070472
     atom   23 type  4   force =     0.00155342    0.00038811    0.00024111
     atom   24 type  4   force =    -0.00002035   -0.00009373   -0.00076438
     atom   25 type  4   force =     0.00079671   -0.00052888    0.00185601
     atom   26 type  4   force =    -0.00100810   -0.00007289   -0.00070549
     atom   27 type  4   force =     0.00002371   -0.00018508   -0.00009790
     atom   28 type  4   force =    -0.00072838    0.00127692   -0.00016295

     Total force =     0.006866     Total SCF correction =     0.000019


     Computing stress (Cartesian axis) and pressure

          total   stress  (Ry/bohr**3)                   (kbar)     P=        0.16
   0.00000498  -0.00000546  -0.00000024            0.73       -0.80       -0.04
  -0.00000546  -0.00000097   0.00000156           -0.80       -0.14        0.23
  -0.00000024   0.00000156  -0.00000075           -0.04        0.23       -0.11

     Energy error            =      9.0E-05 Ry
     Gradient error          =      1.9E-03 Ry/Bohr
     Cell gradient error     =      8.0E-01 kbar

     number of scf cycles    =  53
     number of bfgs steps    =  52

     enthalpy           old  =   -1616.7278502461 Ry
     enthalpy           new  =   -1616.7279402630 Ry

     CASE: enthalpy          _new < enthalpy          _old

     new trust radius        =       0.0296315573 bohr
     new conv_thr            =            9.0E-11 Ry

     new unit-cell volume =   1713.20988 a.u.^3 (   253.87151 Ang^3 )
     density =      2.91448 g/cm^3

CELL_PARAMETERS (angstrom)
   7.753203988   0.066818446  -0.180781305
  -5.136806195   5.704325861   0.101682616
  -2.440824307   0.990381873   5.749742703

ATOMIC_POSITIONS (angstrom)
Mg              -4.3258340193        5.2110582849        5.6284966738
Mg              -3.0892877691        4.8308590622        2.7900648256
Mg               3.3411689239        1.9975863676        2.9712110293
Mg               4.5073493409        1.3673687026        0.0878842358
Mg               0.7403476089        6.4142318609        4.2075671622
Mg              -0.5503575853        0.3088758893        1.3947036085
Mg              -0.5979015031        3.5909012488        4.2814810472
Mg               0.7410370754        3.2316159536        1.3886718097
Co              -1.7945085351        5.9356030780        5.0945145103
Ni              -1.9513522444        2.4601791062        2.2828216487
Ni               2.1391115366        4.3188623091        3.3311769597
Ni               1.9673313072        0.7867705273        0.5208302433
H               -0.5407141666        5.1774161644        5.5728750101
H               -0.4580336225        2.1921184497        2.5707015071
H                0.6375246721        4.5829477053        3.0760834238
H                0.7267902799        1.6473393625        0.2015434485
H                5.2391915769        1.0780050096        2.1260365018
H                4.0831088215        1.5895035860        4.9401308242
H               -3.7836278840        5.0620843298        0.5937355970
H               -5.0126106227        5.6816041231        3.5210962812
H               -2.9779495312        6.3834162291        4.2223936773
H               -2.8769847366        3.1658960798        1.2784259725
H                2.8514604845        3.5279744443        4.4494579093
H                3.0698596621        0.5963008737        1.5792944861
H                0.3038522936        1.9047638099        4.9206447922
H                2.6941854405        3.7013564208        2.0212492135
H               -2.4906299685        2.9890941555        3.6455981055
H               -0.1344980272        4.9276333880        0.6903257105



     Writing config-only to output data dir ./outdir/mg2nih4_co_nisite.save/ :
     XML data file
     NEW-OLD atomic charge density approx. for the potential
     New effective cutoffs (rho, wfc):  536.56   67.06

     Check: negative core charge=   -0.000001

     total cpu time spent up to now is    20477.0 secs

     Self-consistent Calculation

     iteration #  1     ecut=    60.00 Ry     beta= 0.30
     Davidson diagonalization with overlap
     ethr =  1.00E-06,  avg # of iterations =  4.0

     total cpu time spent up to now is    20520.8 secs

     total energy              =   -1616.72802992 Ry
     estimated scf accuracy    <       0.00014263 Ry

     iteration #  2     ecut=    60.00 Ry     beta= 0.30
     Davidson diagonalization with overlap
     ethr =  1.38E-07,  avg # of iterations =  2.0

     total cpu time spent up to now is    20543.3 secs

     total energy              =   -1616.72802941 Ry
     estimated scf accuracy    <       0.00004756 Ry

     iteration #  3     ecut=    60.00 Ry     beta= 0.30
     Davidson diagonalization with overlap
     ethr =  4.62E-08,  avg # of iterations =  2.2

     total cpu time spent up to now is    20569.1 secs

     total energy              =   -1616.72802785 Ry
     estimated scf accuracy    <       0.00008880 Ry

     iteration #  4     ecut=    60.00 Ry     beta= 0.30
     Davidson diagonalization with overlap
     ethr =  4.62E-08,  avg # of iterations =  2.0

     total cpu time spent up to now is    20592.3 secs

     total energy              =   -1616.72803420 Ry
     estimated scf accuracy    <       0.00000787 Ry

     iteration #  5     ecut=    60.00 Ry     beta= 0.30
     Davidson diagonalization with overlap
     ethr =  7.64E-09,  avg # of iterations =  2.2

     total cpu time spent up to now is    20618.2 secs

     total energy              =   -1616.72803430 Ry
     estimated scf accuracy    <       0.00001488 Ry

     iteration #  6     ecut=    60.00 Ry     beta= 0.30
     Davidson diagonalization with overlap
     ethr =  7.64E-09,  avg # of iterations =  2.0

     total cpu time spent up to now is    20640.9 secs

     total energy              =   -1616.72803538 Ry
     estimated scf accuracy    <       0.00000026 Ry

     iteration #  7     ecut=    60.00 Ry     beta= 0.30
     Davidson diagonalization with overlap
     ethr =  2.52E-10,  avg # of iterations =  4.0

     total cpu time spent up to now is    20682.0 secs

     total energy              =   -1616.72803550 Ry
     estimated scf accuracy    <       0.00000092 Ry

     iteration #  8     ecut=    60.00 Ry     beta= 0.30
     Davidson diagonalization with overlap
     ethr =  2.52E-10,  avg # of iterations =  2.5

     total cpu time spent up to now is    20709.2 secs

     total energy              =   -1616.72803554 Ry
     estimated scf accuracy    <       0.00000006 Ry

     iteration #  9     ecut=    60.00 Ry     beta= 0.30
     Davidson diagonalization with overlap
     ethr =  5.63E-11,  avg # of iterations =  2.0

     total cpu time spent up to now is    20732.2 secs

     total energy              =   -1616.72803554 Ry
     estimated scf accuracy    <       0.00000006 Ry

     iteration # 10     ecut=    60.00 Ry     beta= 0.30
     Davidson diagonalization with overlap
     ethr =  5.63E-11,  avg # of iterations =  1.0

     total cpu time spent up to now is    20750.9 secs

     total energy              =   -1616.72803555 Ry
     estimated scf accuracy    <          8.0E-09 Ry

     iteration # 11     ecut=    60.00 Ry     beta= 0.30
     Davidson diagonalization with overlap
     ethr =  7.79E-12,  avg # of iterations =  2.0

     total cpu time spent up to now is    20774.6 secs

     total energy              =   -1616.72803555 Ry
     estimated scf accuracy    <          1.0E-09 Ry

     iteration # 12     ecut=    60.00 Ry     beta= 0.30
     Davidson diagonalization with overlap
     ethr =  1.01E-12,  avg # of iterations =  1.6

     total cpu time spent up to now is    20797.9 secs

     total energy              =   -1616.72803555 Ry
     estimated scf accuracy    <          1.0E-10 Ry

     iteration # 13     ecut=    60.00 Ry     beta= 0.30
     Davidson diagonalization with overlap
     ethr =  1.00E-13,  avg # of iterations =  4.0

     total cpu time spent up to now is    20830.6 secs

     End of self-consistent calculation

     Number of k-points >= 100: set verbosity='high' to print the bands.

     the Fermi energy is     5.9042 ev

!    total energy              =   -1616.72803555 Ry
     estimated scf accuracy    <          1.1E-11 Ry
     smearing contrib. (-TS)   =       0.00054171 Ry
     internal energy E=F+TS    =   -1616.72857726 Ry

     The total energy is F=E-TS. E is the sum of the following terms:
     one-electron contribution =   -1359.38118439 Ry
     hartree contribution      =     708.48242217 Ry
     xc contribution           =    -164.40807248 Ry
     ewald contribution        =    -550.73697435 Ry
     DFT-D3 Dispersion         =      -0.36149121 Ry
     one-center paw contrib.   =    -250.32327698 Ry

     convergence has been achieved in  13 iterations

     Forces acting on atoms (cartesian axes, Ry/au):

     atom    1 type  1   force =     0.00005031    0.00063603   -0.00080201
     atom    2 type  1   force =     0.00029216   -0.00053040    0.00032397
     atom    3 type  1   force =    -0.00076940    0.00042555   -0.00071622
     atom    4 type  1   force =    -0.00039337    0.00085674   -0.00120511
     atom    5 type  1   force =     0.00066126    0.00013548   -0.00043159
     atom    6 type  1   force =     0.00031101   -0.00094845    0.00107582
     atom    7 type  1   force =    -0.00081243    0.00048723   -0.00056287
     atom    8 type  1   force =     0.00051573   -0.00140577   -0.00005027
     atom    9 type  2   force =     0.00063733    0.00119472    0.00311597
     atom   10 type  3   force =     0.00210584   -0.00010681    0.00046643
     atom   11 type  3   force =    -0.00018181   -0.00060571   -0.00042196
     atom   12 type  3   force =    -0.00131571    0.00081889   -0.00031363
     atom   13 type  4   force =     0.00068542   -0.00137461    0.00007643
     atom   14 type  4   force =     0.00038427    0.00024776    0.00095257
     atom   15 type  4   force =     0.00041862    0.00015661    0.00007835
     atom   16 type  4   force =    -0.00022802   -0.00097882    0.00145790
     atom   17 type  4   force =    -0.00038630   -0.00017946    0.00019315
     atom   18 type  4   force =    -0.00114376   -0.00086165    0.00041705
     atom   19 type  4   force =    -0.00079835    0.00026282    0.00050997
     atom   20 type  4   force =    -0.00074876    0.00064660   -0.00055259
     atom   21 type  4   force =    -0.00148604    0.00050161   -0.00108628
     atom   22 type  4   force =     0.00052155   -0.00053400   -0.00086436
     atom   23 type  4   force =     0.00125907    0.00060536   -0.00002567
     atom   24 type  4   force =     0.00020198   -0.00014411   -0.00057593
     atom   25 type  4   force =     0.00106410   -0.00035469    0.00100203
     atom   26 type  4   force =    -0.00081886   -0.00009218   -0.00083283
     atom   27 type  4   force =    -0.00015448   -0.00016625    0.00032668
     atom   28 type  4   force =     0.00012864    0.00130751   -0.00155498

     Total force =     0.007578     Total SCF correction =     0.000011


     Computing stress (Cartesian axis) and pressure

          total   stress  (Ry/bohr**3)                   (kbar)     P=       -0.23
   0.00000007  -0.00000543  -0.00000017            0.01       -0.80       -0.03
  -0.00000543  -0.00000299   0.00000131           -0.80       -0.44        0.19
  -0.00000017   0.00000131  -0.00000180           -0.03        0.19       -0.27

     Energy error            =      9.5E-05 Ry
     Gradient error          =      3.1E-03 Ry/Bohr
     Cell gradient error     =      8.0E-01 kbar

     number of scf cycles    =  54
     number of bfgs steps    =  53

     enthalpy           old  =   -1616.7279402630 Ry
     enthalpy           new  =   -1616.7280355486 Ry

     CASE: enthalpy          _new < enthalpy          _old

     new trust radius        =       0.0437102593 bohr
     new conv_thr            =            9.5E-11 Ry

     new unit-cell volume =   1712.92863 a.u.^3 (   253.82983 Ang^3 )
     density =      2.91496 g/cm^3

CELL_PARAMETERS (angstrom)
   7.755702051   0.066172922  -0.183402190
  -5.139094752   5.707412108   0.109285509
  -2.443492472   0.997153103   5.746222279

ATOMIC_POSITIONS (angstrom)
Mg              -4.3280422345        5.2196213484        5.6369490022
Mg              -3.0937188431        4.8350339761        2.8005262242
Mg               3.3386443969        2.0001790404        2.9596138585
Mg               4.5091689073        1.3713742446        0.0752168645
Mg               0.7410456916        6.4221884335        4.2109725355
Mg              -0.5507930553        0.3090742235        1.3947307931
Mg              -0.6045207774        3.6007113817        4.2781460185
Mg               0.7416738724        3.2333341081        1.3911239509
Co              -1.7971457487        5.9435192980        5.0931240364
Ni              -1.9529789022        2.4631111683        2.2821208135
Ni               2.1364428216        4.3212557457        3.3366377052
Ni               1.9665207063        0.7888654306        0.5241039399
H               -0.5419577944        5.1847165330        5.5710494063
H               -0.4602767998        2.1973100257        2.5716101055
H                0.6355475316        4.5911857765        3.0796486822
H                0.7260143444        1.6488932825        0.2070525645
H                5.2476525164        1.0788962550        2.1171568535
H                4.0831898885        1.5970996304        4.9334480598
H               -3.7854055045        5.0673297739        0.6023344679
H               -5.0220078317        5.6872042219        3.5294484839
H               -2.9861977569        6.3932738044        4.2284700300
H               -2.8907091005        3.1633774736        1.2828831998
H                2.8734112436        3.5355134227        4.4442297979
H                3.0767497988        0.5905136900        1.5730880871
H                0.2976791653        1.9100926435        4.9207863819
H                2.6887187046        3.7102823108        2.0223131449
H               -2.4943025252        2.9879557195        3.6445816273
H               -0.1307951298        4.9384209063        0.6981117399



     Writing config-only to output data dir ./outdir/mg2nih4_co_nisite.save/ :
     XML data file
     NEW-OLD atomic charge density approx. for the potential
     New effective cutoffs (rho, wfc):  537.58   67.19

     Check: negative core charge=   -0.000001

     total cpu time spent up to now is    20843.9 secs

     Self-consistent Calculation

     iteration #  1     ecut=    60.00 Ry     beta= 0.30
     Davidson diagonalization with overlap
     ethr =  1.00E-06,  avg # of iterations =  4.0

     total cpu time spent up to now is    20886.3 secs

     total energy              =   -1616.72813262 Ry
     estimated scf accuracy    <       0.00026649 Ry

     iteration #  2     ecut=    60.00 Ry     beta= 0.30
     Davidson diagonalization with overlap
     ethr =  2.59E-07,  avg # of iterations =  2.0

     total cpu time spent up to now is    20908.9 secs

     total energy              =   -1616.72812192 Ry
     estimated scf accuracy    <       0.00018499 Ry

     iteration #  3     ecut=    60.00 Ry     beta= 0.30
     Davidson diagonalization with overlap
     ethr =  1.80E-07,  avg # of iterations =  2.1

     total cpu time spent up to now is    20934.0 secs

     total energy              =   -1616.72812949 Ry
     estimated scf accuracy    <       0.00016263 Ry

     iteration #  4     ecut=    60.00 Ry     beta= 0.30
     Davidson diagonalization with overlap
     ethr =  1.58E-07,  avg # of iterations =  2.1

     total cpu time spent up to now is    20957.8 secs

     total energy              =   -1616.72813307 Ry
     estimated scf accuracy    <       0.00015216 Ry

     iteration #  5     ecut=    60.00 Ry     beta= 0.30
     Davidson diagonalization with overlap
     ethr =  1.48E-07,  avg # of iterations =  1.0

     total cpu time spent up to now is    20976.5 secs

     total energy              =   -1616.72814301 Ry
     estimated scf accuracy    <       0.00000750 Ry

     iteration #  6     ecut=    60.00 Ry     beta= 0.30
     Davidson diagonalization with overlap
     ethr =  7.28E-09,  avg # of iterations =  2.5

     total cpu time spent up to now is    21005.0 secs

     total energy              =   -1616.72814314 Ry
     estimated scf accuracy    <       0.00001570 Ry

     iteration #  7     ecut=    60.00 Ry     beta= 0.30
     Davidson diagonalization with overlap
     ethr =  7.28E-09,  avg # of iterations =  2.0

     total cpu time spent up to now is    21027.5 secs

     total energy              =   -1616.72814424 Ry
     estimated scf accuracy    <       0.00000095 Ry

     iteration #  8     ecut=    60.00 Ry     beta= 0.30
     Davidson diagonalization with overlap
     ethr =  9.18E-10,  avg # of iterations =  4.5

     total cpu time spent up to now is    21067.2 secs

     total energy              =   -1616.72814444 Ry
     estimated scf accuracy    <       0.00000020 Ry

     iteration #  9     ecut=    60.00 Ry     beta= 0.30
     Davidson diagonalization with overlap
     ethr =  1.96E-10,  avg # of iterations =  4.3

     total cpu time spent up to now is    21107.4 secs

     total energy              =   -1616.72814450 Ry
     estimated scf accuracy    <       0.00000022 Ry

     iteration # 10     ecut=    60.00 Ry     beta= 0.30
     Davidson diagonalization with overlap
     ethr =  1.96E-10,  avg # of iterations =  1.0

     total cpu time spent up to now is    21126.1 secs

     total energy              =   -1616.72814452 Ry
     estimated scf accuracy    <       0.00000002 Ry

     iteration # 11     ecut=    60.00 Ry     beta= 0.30
     Davidson diagonalization with overlap
     ethr =  1.98E-11,  avg # of iterations =  2.5

     total cpu time spent up to now is    21153.6 secs

     total energy              =   -1616.72814452 Ry
     estimated scf accuracy    <          3.7E-09 Ry

     iteration # 12     ecut=    60.00 Ry     beta= 0.30
     Davidson diagonalization with overlap
     ethr =  3.58E-12,  avg # of iterations =  1.3

     total cpu time spent up to now is    21174.3 secs

     total energy              =   -1616.72814453 Ry
     estimated scf accuracy    <          1.5E-10 Ry

     iteration # 13     ecut=    60.00 Ry     beta= 0.30
     Davidson diagonalization with overlap
     ethr =  1.49E-13,  avg # of iterations =  3.7

     total cpu time spent up to now is    21210.2 secs

     End of self-consistent calculation

     Number of k-points >= 100: set verbosity='high' to print the bands.

     the Fermi energy is     5.9074 ev

!    total energy              =   -1616.72814453 Ry
     estimated scf accuracy    <          1.8E-11 Ry
     smearing contrib. (-TS)   =       0.00052761 Ry
     internal energy E=F+TS    =   -1616.72867214 Ry

     The total energy is F=E-TS. E is the sum of the following terms:
     one-electron contribution =   -1359.09676498 Ry
     hartree contribution      =     708.33565969 Ry
     xc contribution           =    -164.40189657 Ry
     ewald contribution        =    -550.88148049 Ry
     DFT-D3 Dispersion         =      -0.36155318 Ry
     one-center paw contrib.   =    -250.32263662 Ry

     convergence has been achieved in  13 iterations

     Forces acting on atoms (cartesian axes, Ry/au):

     atom    1 type  1   force =     0.00001826    0.00081895   -0.00044260
     atom    2 type  1   force =     0.00047745   -0.00037995    0.00009144
     atom    3 type  1   force =    -0.00037245   -0.00012640   -0.00060900
     atom    4 type  1   force =    -0.00034617    0.00073422   -0.00073946
     atom    5 type  1   force =     0.00018881    0.00025015   -0.00051586
     atom    6 type  1   force =    -0.00014008   -0.00072580    0.00078626
     atom    7 type  1   force =    -0.00062709   -0.00001170    0.00004392
     atom    8 type  1   force =     0.00013832   -0.00106819   -0.00030465
     atom    9 type  2   force =     0.00037906    0.00206714    0.00454259
     atom   10 type  3   force =     0.00165510    0.00081650   -0.00066298
     atom   11 type  3   force =     0.00001361   -0.00074803    0.00011019
     atom   12 type  3   force =    -0.00065855    0.00069999    0.00035268
     atom   13 type  4   force =     0.00006389   -0.00109864   -0.00010210
     atom   14 type  4   force =     0.00041523    0.00023642    0.00099144
     atom   15 type  4   force =     0.00096876   -0.00016109    0.00006614
     atom   16 type  4   force =    -0.00020688   -0.00104777    0.00123950
     atom   17 type  4   force =    -0.00068586   -0.00074132    0.00025493
     atom   18 type  4   force =    -0.00163629   -0.00171565    0.00055727
     atom   19 type  4   force =    -0.00096462   -0.00009876    0.00054399
     atom   20 type  4   force =    -0.00062612    0.00066838   -0.00053688
     atom   21 type  4   force =    -0.00104325    0.00043134   -0.00109724
     atom   22 type  4   force =     0.00099684   -0.00062640   -0.00051335
     atom   23 type  4   force =     0.00074775    0.00109134   -0.00069224
     atom   24 type  4   force =     0.00005085   -0.00012797   -0.00061159
     atom   25 type  4   force =     0.00116169   -0.00004954    0.00000043
     atom   26 type  4   force =    -0.00062154   -0.00005669   -0.00084366
     atom   27 type  4   force =    -0.00024906   -0.00017102    0.00060095
     atom   28 type  4   force =     0.00090235    0.00114050   -0.00251011

     Total force =     0.008379     Total SCF correction =     0.000021


     Computing stress (Cartesian axis) and pressure

          total   stress  (Ry/bohr**3)                   (kbar)     P=       -0.85
  -0.00000834  -0.00000290  -0.00000163           -1.23       -0.43       -0.24
  -0.00000290  -0.00000537   0.00000217           -0.43       -0.79        0.32
  -0.00000163   0.00000217  -0.00000371           -0.24        0.32       -0.55

     Energy error            =      1.1E-04 Ry
     Gradient error          =      4.5E-03 Ry/Bohr
     Cell gradient error     =      1.2E+00 kbar

     number of scf cycles    =  55
     number of bfgs steps    =  54

     enthalpy           old  =   -1616.7280355486 Ry
     enthalpy           new  =   -1616.7281445252 Ry

     CASE: enthalpy          _new < enthalpy          _old

     new trust radius        =       0.0337890811 bohr
     new conv_thr            =       0.0000000001 Ry

     new unit-cell volume =   1713.27653 a.u.^3 (   253.88139 Ang^3 )
     density =      2.91437 g/cm^3

CELL_PARAMETERS (angstrom)
   7.756533036   0.065261644  -0.179149820
  -5.140399918   5.708854535   0.112377749
  -2.440486915   1.003724537   5.745553350

ATOMIC_POSITIONS (angstrom)
Mg              -4.3220382421        5.2315792917        5.6349401094
Mg              -3.0963792343        4.8336313177        2.7988755382
Mg               3.3372188082        2.0029099169        2.9608743820
Mg               4.5095328794        1.3770191691        0.0726119854
Mg               0.7460206064        6.4294512892        4.2198414691
Mg              -0.5510081675        0.3061689123        1.3963873299
Mg              -0.6084360849        3.6105571152        4.2775698113
Mg               0.7417749716        3.2320098890        1.3961920694
Co              -1.7931694623        5.9506671012        5.0999482720
Ni              -1.9506464807        2.4634387784        2.2858717712
Ni               2.1352746495        4.3211410036        3.3454593089
Ni               1.9634460140        0.7905310259        0.5270875730
H               -0.5356078424        5.1922861743        5.5768769106
H               -0.4597028789        2.1997538311        2.5798906588
H                0.6363697752        4.6014042661        3.0856464930
H                0.7216231943        1.6472733379        0.2141952389
H                5.2519399296        1.0796043379        2.1191811471
H                4.0811265447        1.6072513274        4.9408654372
H               -3.7828099733        5.0683056422        0.6062557120
H               -5.0251666469        5.6894620432        3.5309089495
H               -2.9813737707        6.3852140366        4.2272340016
H               -2.8817086501        3.1569555778        1.2798236002
H                2.8926291731        3.5466459616        4.4469464057
H                3.0730221690        0.5964008381        1.5736598302
H                0.3015988595        1.9176700938        4.9285062358
H                2.6809810350        3.7105855433        2.0283445693
H               -2.4955840117        2.9938174421        3.6435167565
H               -0.1298803183        4.9480347573        0.7054263306



     Writing config-only to output data dir ./outdir/mg2nih4_co_nisite.save/ :
     XML data file
     NEW-OLD atomic charge density approx. for the potential
     New effective cutoffs (rho, wfc):  537.10   67.14

     Check: negative core charge=   -0.000001

     total cpu time spent up to now is    21223.6 secs

     Self-consistent Calculation

     iteration #  1     ecut=    60.00 Ry     beta= 0.30
     Davidson diagonalization with overlap
     ethr =  1.00E-06,  avg # of iterations =  4.0

     total cpu time spent up to now is    21266.4 secs

     total energy              =   -1616.72823447 Ry
     estimated scf accuracy    <       0.00030801 Ry

     iteration #  2     ecut=    60.00 Ry     beta= 0.30
     Davidson diagonalization with overlap
     ethr =  2.99E-07,  avg # of iterations =  2.0

     total cpu time spent up to now is    21289.9 secs

     total energy              =   -1616.72823354 Ry
     estimated scf accuracy    <       0.00010865 Ry

     iteration #  3     ecut=    60.00 Ry     beta= 0.30
     Davidson diagonalization with overlap
     ethr =  1.05E-07,  avg # of iterations =  2.7

     total cpu time spent up to now is    21319.4 secs

     total energy              =   -1616.72821908 Ry
     estimated scf accuracy    <       0.00045694 Ry

     iteration #  4     ecut=    60.00 Ry     beta= 0.30
     Davidson diagonalization with overlap
     ethr =  1.05E-07,  avg # of iterations =  2.9

     total cpu time spent up to now is    21348.2 secs

     total energy              =   -1616.72824527 Ry
     estimated scf accuracy    <       0.00003791 Ry

     iteration #  5     ecut=    60.00 Ry     beta= 0.30
     Davidson diagonalization with overlap
     ethr =  3.68E-08,  avg # of iterations =  2.2

     total cpu time spent up to now is    21373.3 secs

     total energy              =   -1616.72824745 Ry
     estimated scf accuracy    <       0.00004377 Ry

     iteration #  6     ecut=    60.00 Ry     beta= 0.30
     Davidson diagonalization with overlap
     ethr =  3.68E-08,  avg # of iterations =  1.0

     total cpu time spent up to now is    21391.8 secs

     total energy              =   -1616.72824992 Ry
     estimated scf accuracy    <       0.00000265 Ry

     iteration #  7     ecut=    60.00 Ry     beta= 0.30
     Davidson diagonalization with overlap
     ethr =  2.57E-09,  avg # of iterations =  2.0

     total cpu time spent up to now is    21416.1 secs

     total energy              =   -1616.72825045 Ry
     estimated scf accuracy    <       0.00000092 Ry

     iteration #  8     ecut=    60.00 Ry     beta= 0.30
     Davidson diagonalization with overlap
     ethr =  8.97E-10,  avg # of iterations =  4.5

     total cpu time spent up to now is    21459.2 secs

     total energy              =   -1616.72825058 Ry
     estimated scf accuracy    <       0.00000010 Ry

     iteration #  9     ecut=    60.00 Ry     beta= 0.30
     Davidson diagonalization with overlap
     ethr =  1.02E-10,  avg # of iterations =  4.5

     total cpu time spent up to now is    21505.9 secs

     total energy              =   -1616.72825066 Ry
     estimated scf accuracy    <       0.00000003 Ry

     iteration # 10     ecut=    60.00 Ry     beta= 0.30
     Davidson diagonalization with overlap
     ethr =  3.16E-11,  avg # of iterations =  2.0

     total cpu time spent up to now is    21528.5 secs

     total energy              =   -1616.72825066 Ry
     estimated scf accuracy    <       0.00000003 Ry

     iteration # 11     ecut=    60.00 Ry     beta= 0.30
     Davidson diagonalization with overlap
     ethr =  2.95E-11,  avg # of iterations =  1.0

     total cpu time spent up to now is    21547.4 secs

     total energy              =   -1616.72825067 Ry
     estimated scf accuracy    <          8.4E-10 Ry

     iteration # 12     ecut=    60.00 Ry     beta= 0.30
     Davidson diagonalization with overlap
     ethr =  8.19E-13,  avg # of iterations =  3.3

     total cpu time spent up to now is    21578.8 secs

     total energy              =   -1616.72825067 Ry
     estimated scf accuracy    <          3.6E-10 Ry

     iteration # 13     ecut=    60.00 Ry     beta= 0.30
     Davidson diagonalization with overlap
     ethr =  3.49E-13,  avg # of iterations =  1.1

     total cpu time spent up to now is    21598.0 secs

     End of self-consistent calculation

     Number of k-points >= 100: set verbosity='high' to print the bands.

     the Fermi energy is     5.9059 ev

!    total energy              =   -1616.72825067 Ry
     estimated scf accuracy    <          3.2E-11 Ry
     smearing contrib. (-TS)   =       0.00049683 Ry
     internal energy E=F+TS    =   -1616.72874750 Ry

     The total energy is F=E-TS. E is the sum of the following terms:
     one-electron contribution =   -1359.27979464 Ry
     hartree contribution      =     708.41213813 Ry
     xc contribution           =    -164.40153575 Ry
     ewald contribution        =    -550.77588406 Ry
     DFT-D3 Dispersion         =      -0.36147380 Ry
     one-center paw contrib.   =    -250.32219738 Ry

     convergence has been achieved in  13 iterations

     Forces acting on atoms (cartesian axes, Ry/au):

     atom    1 type  1   force =     0.00001568    0.00091951    0.00022915
     atom    2 type  1   force =     0.00087523    0.00008633    0.00015571
     atom    3 type  1   force =     0.00030928   -0.00096169   -0.00036036
     atom    4 type  1   force =    -0.00003407    0.00047931   -0.00018482
     atom    5 type  1   force =    -0.00052477    0.00032564   -0.00052010
     atom    6 type  1   force =    -0.00076710   -0.00028154    0.00037758
     atom    7 type  1   force =    -0.00021581   -0.00051884    0.00096757
     atom    8 type  1   force =    -0.00043051   -0.00054241   -0.00063848
     atom    9 type  2   force =     0.00049966    0.00163974    0.00427762
     atom   10 type  3   force =     0.00187542    0.00109402   -0.00104613
     atom   11 type  3   force =     0.00004058   -0.00027226    0.00041092
     atom   12 type  3   force =    -0.00040048    0.00039164    0.00042408
     atom   13 type  4   force =    -0.00063854   -0.00075882   -0.00022130
     atom   14 type  4   force =     0.00074232    0.00007515    0.00110766
     atom   15 type  4   force =     0.00133128   -0.00062129    0.00000339
     atom   16 type  4   force =    -0.00042894   -0.00090573    0.00070434
     atom   17 type  4   force =    -0.00097119   -0.00127570    0.00039115
     atom   18 type  4   force =    -0.00155092   -0.00180349    0.00056840
     atom   19 type  4   force =    -0.00108887   -0.00056335    0.00055540
     atom   20 type  4   force =    -0.00038664    0.00074914   -0.00047864
     atom   21 type  4   force =    -0.00141472    0.00086543   -0.00115966
     atom   22 type  4   force =    -0.00003069    0.00050819   -0.00126233
     atom   23 type  4   force =     0.00041227    0.00093019   -0.00086014
     atom   24 type  4   force =     0.00103875   -0.00031653    0.00032061
     atom   25 type  4   force =     0.00115750    0.00025102   -0.00136215
     atom   26 type  4   force =    -0.00011055   -0.00006189   -0.00095940
     atom   27 type  4   force =    -0.00044690   -0.00026397    0.00089210
     atom   28 type  4   force =     0.00114273    0.00083220   -0.00233218

     Total force =     0.008610     Total SCF correction =     0.000015


     Computing stress (Cartesian axis) and pressure

          total   stress  (Ry/bohr**3)                   (kbar)     P=       -0.75
  -0.00001049  -0.00000176  -0.00000105           -1.54       -0.26       -0.15
  -0.00000176  -0.00000391   0.00000031           -0.26       -0.57        0.04
  -0.00000105   0.00000031  -0.00000082           -0.15        0.04       -0.12

     Energy error            =      1.1E-04 Ry
     Gradient error          =      4.3E-03 Ry/Bohr
     Cell gradient error     =      1.5E+00 kbar

     number of scf cycles    =  56
     number of bfgs steps    =  55

     enthalpy           old  =   -1616.7281445252 Ry
     enthalpy           new  =   -1616.7282506681 Ry

     CASE: enthalpy          _new < enthalpy          _old

     new trust radius        =       0.0713416409 bohr
     new conv_thr            =       0.0000000001 Ry

     new unit-cell volume =   1710.39322 a.u.^3 (   253.45413 Ang^3 )
     density =      2.91928 g/cm^3

CELL_PARAMETERS (angstrom)
   7.756356897   0.064437897  -0.187015577
  -5.141129126   5.711805946   0.126680423
  -2.446371014   1.013841965   5.737961859

ATOMIC_POSITIONS (angstrom)
Mg              -4.3266769287        5.2405922127        5.6535194224
Mg              -3.1013619413        4.8408072488        2.8202822715
Mg               3.3311450618        2.0040254986        2.9362850888
Mg               4.5094878952        1.3815271941        0.0482139745
Mg               0.7437335398        6.4389509595        4.2203418919
Mg              -0.5520142263        0.3077286206        1.3954094763
Mg              -0.6208592670        3.6233878396        4.2718683120
Mg               0.7427462311        3.2345854469        1.3978086110
Co              -1.7992847323        5.9627043194        5.0992405608
Ni              -1.9525029418        2.4702707391        2.2796949135
Ni               2.1305244689        4.3239728115        3.3513821220
Ni               1.9619919560        0.7943322285        0.5318055340
H               -0.5414466546        5.2004463113        5.5722514701
H               -0.4640022870        2.2094308383        2.5770653621
H                0.6338953750        4.6079757427        3.0895262164
H                0.7214007246        1.6497923040        0.2220889099
H                5.2606668343        1.0794554668        2.1007755398
H                4.0755848077        1.6143889695        4.9261486225
H               -3.7887888700        5.0762588014        0.6220809302
H               -5.0404777199        5.6994118503        3.5451496454
H               -2.9975980849        6.4057471092        4.2367210419
H               -2.9159239852        3.1548496684        1.2909160963
H                2.9247396562        3.5568224553        4.4345646369
H                3.0886051831        0.5804274478        1.5587328348
H                0.2878516045        1.9230460367        4.9205403945
H                2.6744554735        3.7262227658        2.0264628962
H               -2.5012897043        2.9866355348        3.6429830395
H               -0.1206068688        4.9674048945        0.7149140576



     Writing config-only to output data dir ./outdir/mg2nih4_co_nisite.save/ :
     XML data file
     NEW-OLD atomic charge density approx. for the potential
     New effective cutoffs (rho, wfc):  539.81   67.51

     Check: negative core charge=   -0.000001

     total cpu time spent up to now is    21611.3 secs

     Self-consistent Calculation

     Maximum CPU time exceeded

     max_seconds     =   21600.00
     elapsed seconds =   21611.72
     Calculation stopped in scf loop at iteration #     0

     Writing config to output data dir ./outdir/mg2nih4_co_nisite.save/ :
     XML data file, charge density
 
     init_run     :     40.89s CPU     16.14s WALL (       1 calls)
     electrons    :  21528.17s CPU  20813.89s WALL (      57 calls)
     update_pot   :     47.26s CPU     10.36s WALL (      56 calls)
     forces       :    234.64s CPU    228.25s WALL (      56 calls)
     force_dftd3  :     39.26s CPU     38.99s WALL (      56 calls)
     stress       :    486.09s CPU    452.22s WALL (      56 calls)
     stres_dftd3  :     39.45s CPU     38.07s WALL (      56 calls)

     Called by init_run:
     wfcinit      :     12.15s CPU     13.32s WALL (       1 calls)
     potinit      :     27.42s CPU      1.52s WALL (       1 calls)
     hinit0       :      0.74s CPU      0.61s WALL (       1 calls)

     Called by electrons:
     c_bands      :  18492.80s CPU  18385.85s WALL (     726 calls)
     sum_band     :   2296.70s CPU   2153.86s WALL (     726 calls)
     v_of_rho     :      4.95s CPU      4.49s WALL (     779 calls)
     newd         :    130.35s CPU    125.90s WALL (     779 calls)
     PAW_pot      :    540.67s CPU    103.09s WALL (     835 calls)
     mix_rho      :      7.47s CPU      6.56s WALL (     726 calls)
     energy_dftd3 :     34.55s CPU     35.53s WALL (      57 calls)

     Called by c_bands:
     init_us_2    :    424.29s CPU    382.96s WALL (  622464 calls)
     cegterg      :  17318.89s CPU  17179.37s WALL (  278784 calls)

     Called by *egterg:
     cdiaghg      :   4881.13s CPU   5291.71s WALL (  930533 calls)
                                     5283.52s GPU  (  930533 calls)
     h_psi        :   6826.65s CPU   6477.82s WALL (  953573 calls)
     s_psi        :   1457.07s CPU   1503.38s WALL (  953573 calls)
     g_psi        :     29.71s CPU     30.12s WALL (  674405 calls)

     Called by h_psi:
     h_psi:calbec :     27.97s CPU     25.50s WALL (  953573 calls)
     vloc_psi     :   5375.66s CPU   4978.91s WALL (  953573 calls)
                                     4976.24s GPU  (  953573 calls)
     add_vuspsi   :   1387.90s CPU   1446.10s WALL (  953573 calls)

     General routines
     calbec       :     34.54s CPU     32.14s WALL ( 1619429 calls)
     fft          :     61.90s CPU      9.07s WALL (   11475 calls)
                                        1.80s GPU  (   10696 calls)
     ffts         :     21.85s CPU      5.16s WALL (    1505 calls)
                                        0.08s GPU  (     726 calls)
     fftw         :     64.84s CPU   5212.00s WALL ( 6970662 calls)
                                     5137.03s GPU  ( 6970662 calls)
     interpolate  :     88.18s CPU     14.08s WALL (     779 calls)
     davcio       :      0.02s CPU      0.83s WALL (     384 calls)
 
 
     PWSCF        :      6h13m CPU      6h 0m WALL

 
   This run was terminated on:   4:46:50  12Jun2026            

=------------------------------------------------------------------------------=
   JOB DONE.
=------------------------------------------------------------------------------=
