
     Program PWSCF v.7.5 starts on 11Jun2026 at 10:12:45 

     This program is part of the open-source Quantum ESPRESSO suite
     for quantum simulation of materials; please cite
         "P. Giannozzi et al., J. Phys.:Condens. Matter 21 395502 (2009);
         "P. Giannozzi et al., J. Phys.:Condens. Matter 29 465901 (2017);
         "P. Giannozzi et al., J. Chem. Phys. 152 154105 (2020);
          URL http://www.quantum-espresso.org", 
     in publications or presentations arising from this work. More details at
     http://www.quantum-espresso.org/quote

     Serial multi-threaded version, running on   32 processor cores
     17780 MiB available memory on the printing compute node when the environment starts
 
     Reading input from inputs/mg2ni_co.in

     Current dimensions of program PWSCF are:
     Max number of different atomic species (ntypx) = 10
     Max number of k-points (npk) =  40000
     Max angular momentum in pseudopotentials (lmaxx) =  4

     File ./outdir/mg2ni_co.update deleted, as requested

     File ./outdir/mg2ni_co.bfgs deleted, as requested
     file Mg.pbe-n-kjpaw_psl.0.3.0.UPF: wavefunction(s)  3S renormalized
 
 
     G-vector sticks info
     --------------------
     sticks:   dense  smooth     PW     G-vecs:    dense   smooth      PW
     Sum        3029    1511    439               339989   120265   19273
 
     Using Slab Decomposition
 


     bravais-lattice index     =            0
     lattice parameter (alat)  =       9.5487  a.u.
     unit-cell volume          =    1914.2524 (a.u.)^3
     number of atoms/cell      =           18
     number of atomic types    =            3
     number of electrons       =       147.00
     number of Kohn-Sham states=           89
     kinetic-energy cutoff     =      60.0000  Ry
     charge density cutoff     =     480.0000  Ry
     scf convergence threshold =      1.0E-09
     mixing beta               =       0.3000
     number of iterations used =           12  plain     mixing
     energy convergence thresh.=      1.0E-05
     force convergence thresh. =      1.0E-04
     press convergence thresh. =      5.0E-01
     Exchange-correlation=  SLA  PW   PBX  PBC
                           (   1   4   3   4   0   0   0)
     nstep                     =          200


     GPU acceleration is ACTIVE.  1 visible GPUs per MPI rank


     celldm(1)=   9.548680  celldm(2)=   0.000000  celldm(3)=   0.000000
     celldm(4)=   0.000000  celldm(5)=   0.000000  celldm(6)=   0.000000

     crystal axes: (cart. coord. in units of alat)
               a(1) = (   0.999888   0.001660  -0.014904 )  
               a(2) = (  -0.498507   0.866759  -0.014900 )  
               a(3) = (  -0.038112  -0.065999   2.536840 )  

     reciprocal axes: (cart. coord. in units 2 pi/alat)
               b(1) = (  0.999604  0.575426  0.029988 )  
               b(2) = ( -0.001468  1.153394  0.029985 )  
               b(3) = (  0.005864  0.010155  0.394544 )  


     PseudoPot. # 1 for Co read from file:
     /home/x/Workspace/3-hEspesso/pseudo/Co_pbe_v1.2.uspp.F.UPF
     MD5 check sum: 5f91765df6ddd3222702df6e7b74a16d
     Pseudo is Ultrasoft + core correction, Zval = 17.0
     Generated by new atomic code, or converted to UPF format
     Using radial grid of  863 points,  6 beta functions with: 
                l(1) =   0
                l(2) =   0
                l(3) =   1
                l(4) =   1
                l(5) =   2
                l(6) =   2
     Q(r) pseudized with  8 coefficients,  rinner =    1.200   1.200   1.200
                                                       1.200   1.200

     PseudoPot. # 2 for Mg read from file:
     /home/x/Workspace/3-hEspesso/pseudo/Mg.pbe-n-kjpaw_psl.0.3.0.UPF
     MD5 check sum: 24ecedc7f3e3cbe212e682f4413594e4
     Pseudo is Projector augmented-wave + core cor, Zval =  2.0
     Generated using "atomic" code by A. Dal Corso  v.5.0.99 svn rev. 10869
     Shape of augmentation charge: PSQ
     Using radial grid of 1129 points,  4 beta functions with: 
                l(1) =   0
                l(2) =   0
                l(3) =   1
                l(4) =   1
     Q(r) pseudized with 0 coefficients 


     PseudoPot. # 3 for Ni read from file:
     /home/x/Workspace/3-hEspesso/pseudo/ni_pbe_v1.4.uspp.F.UPF
     MD5 check sum: 1ee80287db30b12d2bc1f57a5b5d6409
     Pseudo is Ultrasoft + core correction, Zval = 18.0
     Generated by new atomic code, or converted to UPF format
     Using radial grid of  865 points,  6 beta functions with: 
                l(1) =   0
                l(2) =   0
                l(3) =   1
                l(4) =   1
                l(5) =   2
                l(6) =   2
     Q(r) pseudized with 10 coefficients,  rinner =    0.980   0.980   0.980
                                                       0.980   0.980

     atomic species   valence    mass     pseudopotential
     Co               17.00    58.93320     Co( 1.00)
     Mg                2.00    24.30500     Mg( 1.00)
     Ni               18.00    58.69340     Ni( 1.00)

     No symmetry found



   Cartesian axes

     site n.     atom                  positions (alat units)
         1        Co     tau(   1) = (  -0.3066817   0.6826631   2.0991370  )
         2        Mg     tau(   2) = (  -0.0034160   0.2701520   1.2696382  )
         3        Mg     tau(   3) = (   0.6883022   0.1082123   2.0991290  )
         4        Mg     tau(   4) = (   0.4982753   0.5685992   1.2573922  )
         5        Mg     tau(   5) = (   0.2403113   0.6923001   0.3917855  )
         6        Mg     tau(   6) = (   0.2326944   0.1086002   0.4040313  )
         7        Mg     tau(   7) = (   0.2453300   0.4362827   1.8281808  )
         8        Mg     tau(   8) = (   0.4941477  -0.0078438   1.5559279  )
         9        Mg     tau(   9) = (   0.1826974   0.3278174   2.3700736  )
        10        Mg     tau(  10) = (   0.5003469  -0.0245076   0.9724638  )
        11        Mg     tau(  11) = (   0.7473746   0.4033579   0.6889550  )
        12        Mg     tau(  12) = (   0.7298435   0.4003962   0.1054874  )
        13        Ni     tau(  13) = (   0.2496186   0.4054949   0.8307109  )
        14        Ni     tau(  14) = (   0.4765366  -0.0367449  -0.0299206  )
        15        Ni     tau(  15) = (   0.7460695   0.4300974   1.6913435  )
        16        Ni     tau(  16) = (  -0.0002026  -0.0292171   0.8456128  )
        17        Ni     tau(  17) = (  -0.0198288  -0.0426644  -0.0294470  )
        18        Ni     tau(  18) = (   0.0016333  -0.0054960   1.7206787  )

     --------------------------------------------
     DFT-D3 Dispersion Correction (3-body terms):
     --------------------------------------------
       Reference C6 values for interpolation: 

         atom   Coordination number   C6
         Mg         0.000          1366.75
         Mg         0.963           902.54
         Mg         1.950           351.12
         Co         0.000          1065.56
         Co         1.715           373.09
         Co         2.926           296.13
         Co         7.779           236.57
         Ni         0.000          1149.49
         Ni         1.794           356.66
         Ni         6.546           257.56
         Ni         6.292           283.75

       Values used:

         atom   Coordination number  R0_AB[au]  C6      C8
         Co         7.503            3.243    236.57  20800.86
         Mg        11.195            3.292    351.12  31436.69
         Mg        11.110            3.292    351.12  31436.69
         Mg        11.172            3.292    351.12  31436.69
         Mg        11.195            3.292    351.12  31436.69
         Mg        11.172            3.292    351.12  31436.69
         Mg        10.708            3.292    351.12  31436.69
         Mg        11.053            3.292    351.12  31436.69
         Mg        10.708            3.292    351.12  31436.69
         Mg        11.160            3.292    351.12  31436.69
         Mg        11.160            3.292    351.12  31436.69
         Mg        11.053            3.292    351.12  31436.69
         Ni         8.631            3.162    257.83  21604.63
         Ni         8.597            3.162    257.85  21606.25
         Ni         8.597            3.162    257.85  21606.25
         Ni         8.678            3.162    257.81  21602.59
         Ni         8.605            3.162    257.85  21605.86
         Ni         8.605            3.162    257.85  21605.86

         Molecular C6 ( Ry / a.u.^6 ) =    100131.84


     number of k points=   256  Marzari-Vanderbilt smearing, width (Ry)=  0.0100

     Number of k-points >= 100: set verbosity='high' to print them.

     Dense  grid:   339989 G-vectors     FFT dimensions: (  72,  72, 180)

     Smooth grid:   120265 G-vectors     FFT dimensions: (  48,  48, 120)

     Estimated max dynamical RAM per process >       6.54 GB

     Check: negative core charge=   -0.000003

     Initial potential from superposition of free atoms

     starting charge     133.9898, renormalised to     147.0000
     Starting wfcs are  135 randomized atomic wfcs

     total cpu time spent up to now is       13.5 secs

     Self-consistent Calculation

     iteration #  1     ecut=    60.00 Ry     beta= 0.30
     Davidson diagonalization with overlap
     ethr =  1.00E-02,  avg # of iterations =  5.5

     total cpu time spent up to now is       59.0 secs

     total energy              =   -2565.41021741 Ry
     estimated scf accuracy    <     479.29989737 Ry

     iteration #  2     ecut=    60.00 Ry     beta= 0.30
     Davidson diagonalization with overlap
     ethr =  1.00E-02,  avg # of iterations =  5.2

     total cpu time spent up to now is      101.0 secs

     total energy              =   -2634.52271840 Ry
     estimated scf accuracy    <     882.41707508 Ry

     iteration #  3     ecut=    60.00 Ry     beta= 0.30
     Davidson diagonalization with overlap
     ethr =  1.00E-02,  avg # of iterations =  7.1

     total cpu time spent up to now is      150.6 secs

     total energy              =   -2712.81141451 Ry
     estimated scf accuracy    <     425.15757174 Ry

     iteration #  4     ecut=    60.00 Ry     beta= 0.30
     Davidson diagonalization with overlap
     ethr =  1.00E-02,  avg # of iterations =  4.1

     total cpu time spent up to now is      183.4 secs

     total energy              =   -2735.96293840 Ry
     estimated scf accuracy    <      80.39364457 Ry

     iteration #  5     ecut=    60.00 Ry     beta= 0.30
     Davidson diagonalization with overlap
     ethr =  1.00E-02,  avg # of iterations =  2.0

     total cpu time spent up to now is      202.5 secs

     total energy              =   -2728.79559181 Ry
     estimated scf accuracy    <      40.30592110 Ry

     iteration #  6     ecut=    60.00 Ry     beta= 0.30
     Davidson diagonalization with overlap
     ethr =  1.00E-02,  avg # of iterations =  2.0

     total cpu time spent up to now is      221.7 secs

     total energy              =   -2730.60099718 Ry
     estimated scf accuracy    <      10.43133560 Ry

     iteration #  7     ecut=    60.00 Ry     beta= 0.30
     Davidson diagonalization with overlap
     ethr =  7.10E-03,  avg # of iterations =  1.0

     total cpu time spent up to now is      237.0 secs

     total energy              =   -2731.58015062 Ry
     estimated scf accuracy    <      12.07223363 Ry

     iteration #  8     ecut=    60.00 Ry     beta= 0.30
     Davidson diagonalization with overlap
     ethr =  7.10E-03,  avg # of iterations =  1.0

     total cpu time spent up to now is      252.2 secs

     total energy              =   -2727.45174309 Ry
     estimated scf accuracy    <      14.15423082 Ry

     iteration #  9     ecut=    60.00 Ry     beta= 0.30
     Davidson diagonalization with overlap
     ethr =  7.10E-03,  avg # of iterations =  2.2

     total cpu time spent up to now is      272.4 secs

     total energy              =   -2727.88697262 Ry
     estimated scf accuracy    <      11.22335705 Ry

     iteration # 10     ecut=    60.00 Ry     beta= 0.30
     Davidson diagonalization with overlap
     ethr =  7.10E-03,  avg # of iterations =  2.0

     total cpu time spent up to now is      291.0 secs

     total energy              =   -2728.30230003 Ry
     estimated scf accuracy    <      53.85943857 Ry

     iteration # 11     ecut=    60.00 Ry     beta= 0.30
     Davidson diagonalization with overlap
     ethr =  7.10E-03,  avg # of iterations =  1.0

     total cpu time spent up to now is      306.4 secs

     total energy              =   -2728.87925462 Ry
     estimated scf accuracy    <      17.00930943 Ry

     iteration # 12     ecut=    60.00 Ry     beta= 0.30
     Davidson diagonalization with overlap
     ethr =  7.10E-03,  avg # of iterations =  1.0

     total cpu time spent up to now is      321.7 secs

     total energy              =   -2728.79563545 Ry
     estimated scf accuracy    <       9.23908590 Ry

     iteration # 13     ecut=    60.00 Ry     beta= 0.30
     Davidson diagonalization with overlap
     ethr =  6.29E-03,  avg # of iterations =  1.0

     total cpu time spent up to now is      337.0 secs

     total energy              =   -2728.61639223 Ry
     estimated scf accuracy    <       5.52367708 Ry

     iteration # 14     ecut=    60.00 Ry     beta= 0.30
     Davidson diagonalization with overlap
     ethr =  3.76E-03,  avg # of iterations =  1.0

     total cpu time spent up to now is      352.2 secs

     total energy              =   -2728.60266158 Ry
     estimated scf accuracy    <       2.07556766 Ry

     iteration # 15     ecut=    60.00 Ry     beta= 0.30
     Davidson diagonalization with overlap
     ethr =  1.41E-03,  avg # of iterations =  1.0

     total cpu time spent up to now is      367.5 secs

     total energy              =   -2728.54879991 Ry
     estimated scf accuracy    <       1.69526944 Ry

     iteration # 16     ecut=    60.00 Ry     beta= 0.30
     Davidson diagonalization with overlap
     ethr =  1.15E-03,  avg # of iterations =  1.0

     total cpu time spent up to now is      382.8 secs

     total energy              =   -2728.50822770 Ry
     estimated scf accuracy    <       2.02930059 Ry

     iteration # 17     ecut=    60.00 Ry     beta= 0.30
     Davidson diagonalization with overlap
     ethr =  1.15E-03,  avg # of iterations =  1.0

     total cpu time spent up to now is      398.0 secs

     total energy              =   -2728.49350517 Ry
     estimated scf accuracy    <       0.67481816 Ry

     iteration # 18     ecut=    60.00 Ry     beta= 0.30
     Davidson diagonalization with overlap
     ethr =  4.59E-04,  avg # of iterations =  1.0

     total cpu time spent up to now is      413.4 secs

     total energy              =   -2728.52373816 Ry
     estimated scf accuracy    <       0.25801465 Ry

     iteration # 19     ecut=    60.00 Ry     beta= 0.30
     Davidson diagonalization with overlap
     ethr =  1.76E-04,  avg # of iterations =  1.2

     total cpu time spent up to now is      429.9 secs

     total energy              =   -2728.52732623 Ry
     estimated scf accuracy    <       0.05323769 Ry

     iteration # 20     ecut=    60.00 Ry     beta= 0.30
     Davidson diagonalization with overlap
     ethr =  3.62E-05,  avg # of iterations =  3.8

     total cpu time spent up to now is      467.8 secs

     total energy              =   -2728.52572969 Ry
     estimated scf accuracy    <       0.03224971 Ry

     iteration # 21     ecut=    60.00 Ry     beta= 0.30
     Davidson diagonalization with overlap
     ethr =  2.19E-05,  avg # of iterations =  2.0

     total cpu time spent up to now is      491.8 secs

     total energy              =   -2728.52497978 Ry
     estimated scf accuracy    <       0.01601544 Ry

     iteration # 22     ecut=    60.00 Ry     beta= 0.30
     Davidson diagonalization with overlap
     ethr =  1.09E-05,  avg # of iterations =  2.4

     total cpu time spent up to now is      517.0 secs

     total energy              =   -2728.52515498 Ry
     estimated scf accuracy    <       0.00975824 Ry

     iteration # 23     ecut=    60.00 Ry     beta= 0.30
     Davidson diagonalization with overlap
     ethr =  6.64E-06,  avg # of iterations =  1.4

     total cpu time spent up to now is      535.3 secs

     total energy              =   -2728.52538933 Ry
     estimated scf accuracy    <       0.00189775 Ry

     iteration # 24     ecut=    60.00 Ry     beta= 0.30
     Davidson diagonalization with overlap
     ethr =  1.29E-06,  avg # of iterations =  4.6

     total cpu time spent up to now is      571.2 secs

     total energy              =   -2728.52588378 Ry
     estimated scf accuracy    <       0.00119237 Ry

     iteration # 25     ecut=    60.00 Ry     beta= 0.30
     Davidson diagonalization with overlap
     ethr =  8.11E-07,  avg # of iterations =  1.0

     total cpu time spent up to now is      586.6 secs

     total energy              =   -2728.52585244 Ry
     estimated scf accuracy    <       0.00049861 Ry

     iteration # 26     ecut=    60.00 Ry     beta= 0.30
     Davidson diagonalization with overlap
     ethr =  3.39E-07,  avg # of iterations =  1.0

     total cpu time spent up to now is      602.0 secs

     total energy              =   -2728.52587219 Ry
     estimated scf accuracy    <       0.00002619 Ry

     iteration # 27     ecut=    60.00 Ry     beta= 0.30
     Davidson diagonalization with overlap
     ethr =  1.78E-08,  avg # of iterations =  1.3

     total cpu time spent up to now is      618.9 secs

     total energy              =   -2728.52587357 Ry
     estimated scf accuracy    <       0.00000601 Ry

     iteration # 28     ecut=    60.00 Ry     beta= 0.30
     Davidson diagonalization with overlap
     ethr =  4.09E-09,  avg # of iterations =  1.1

     total cpu time spent up to now is      634.9 secs

     total energy              =   -2728.52587379 Ry
     estimated scf accuracy    <       0.00000108 Ry

     iteration # 29     ecut=    60.00 Ry     beta= 0.30
     Davidson diagonalization with overlap
     ethr =  7.37E-10,  avg # of iterations =  1.9

     total cpu time spent up to now is      655.1 secs

     total energy              =   -2728.52587388 Ry
     estimated scf accuracy    <       0.00000023 Ry

     iteration # 30     ecut=    60.00 Ry     beta= 0.30
     Davidson diagonalization with overlap
     ethr =  1.58E-10,  avg # of iterations =  2.1

     total cpu time spent up to now is      675.9 secs

     total energy              =   -2728.52587388 Ry
     estimated scf accuracy    <       0.00000013 Ry

     iteration # 31     ecut=    60.00 Ry     beta= 0.30
     Davidson diagonalization with overlap
     ethr =  9.06E-11,  avg # of iterations =  2.5

     total cpu time spent up to now is      697.4 secs

     total energy              =   -2728.52587389 Ry
     estimated scf accuracy    <       0.00000021 Ry

     iteration # 32     ecut=    60.00 Ry     beta= 0.30
     Davidson diagonalization with overlap
     ethr =  9.06E-11,  avg # of iterations =  1.2

     total cpu time spent up to now is      714.0 secs

     total energy              =   -2728.52587390 Ry
     estimated scf accuracy    <          8.6E-09 Ry

     iteration # 33     ecut=    60.00 Ry     beta= 0.30
     Davidson diagonalization with overlap
     ethr =  5.83E-12,  avg # of iterations =  4.1

     total cpu time spent up to now is      751.6 secs

     total energy              =   -2728.52587391 Ry
     estimated scf accuracy    <          2.5E-09 Ry

     iteration # 34     ecut=    60.00 Ry     beta= 0.30
     Davidson diagonalization with overlap
     ethr =  1.72E-12,  avg # of iterations =  1.0

     total cpu time spent up to now is      767.1 secs

     total energy              =   -2728.52587391 Ry
     estimated scf accuracy    <          1.7E-09 Ry

     iteration # 35     ecut=    60.00 Ry     beta= 0.30
     Davidson diagonalization with overlap
     ethr =  1.16E-12,  avg # of iterations =  1.1

     total cpu time spent up to now is      782.9 secs

     End of self-consistent calculation

     Number of k-points >= 100: set verbosity='high' to print the bands.

     the Fermi energy is     8.0066 ev

!    total energy              =   -2728.52587391 Ry
     estimated scf accuracy    <          3.6E-10 Ry
     smearing contrib. (-TS)   =       0.00037281 Ry
     internal energy E=F+TS    =   -2728.52624672 Ry

     The total energy is F=E-TS. E is the sum of the following terms:
     one-electron contribution =   -2549.72855609 Ry
     hartree contribution      =    1323.98280510 Ry
     xc contribution           =    -264.37831554 Ry
     ewald contribution        =    -893.50469962 Ry
     DFT-D3 Dispersion         =      -0.45132223 Ry
     one-center paw contrib.   =    -344.44615833 Ry

     convergence has been achieved in  35 iterations

     Forces acting on atoms (cartesian axes, Ry/au):

     atom    1 type  1   force =     0.00000811   -0.00000132    0.00000136
     atom    2 type  2   force =     0.00009961    0.00005653    0.00005780
     atom    3 type  2   force =     0.00013618   -0.00007884   -0.00000048
     atom    4 type  2   force =    -0.00009015    0.00009670    0.00003279
     atom    5 type  2   force =     0.00000029   -0.00011442   -0.00005924
     atom    6 type  2   force =    -0.00012864    0.00002952   -0.00003441
     atom    7 type  2   force =     0.00008046   -0.00005877   -0.00025938
     atom    8 type  2   force =     0.00001479    0.00001422    0.00005980
     atom    9 type  2   force =     0.00009079   -0.00004033    0.00025897
     atom   10 type  2   force =     0.00001932    0.00014341    0.00012504
     atom   11 type  2   force =    -0.00011460   -0.00008851   -0.00012585
     atom   12 type  2   force =    -0.00000509   -0.00001950   -0.00006008
     atom   13 type  3   force =    -0.00016196    0.00009367    0.00000735
     atom   14 type  3   force =    -0.00006737   -0.00004103    0.00017478
     atom   15 type  3   force =     0.00000275    0.00007457   -0.00018066
     atom   16 type  3   force =     0.00003135   -0.00001826    0.00000944
     atom   17 type  3   force =     0.00002569   -0.00005399   -0.00003539
     atom   18 type  3   force =     0.00005845    0.00000635    0.00002816

     Total force =     0.000672     Total SCF correction =     0.000044


     Computing stress (Cartesian axis) and pressure

          total   stress  (Ry/bohr**3)                   (kbar)     P=       -0.25
  -0.00000168  -0.00000023   0.00000005           -0.25       -0.03        0.01
  -0.00000023  -0.00000194   0.00000009           -0.03       -0.29        0.01
   0.00000005   0.00000009  -0.00000149            0.01        0.01       -0.22


     BFGS Geometry Optimization
     Energy error            =      8.8E-07 Ry
     Gradient error          =      2.6E-04 Ry/Bohr
     Cell gradient error     =      2.9E-01 kbar

     number of scf cycles    =   1
     number of bfgs steps    =   0

     enthalpy           new  =   -2728.5258739104 Ry

     new trust radius        =       0.0004286394 bohr
     new conv_thr            =       0.0000000010 Ry

     new unit-cell volume =   1914.00757 a.u.^3 (   283.62666 Ang^3 )
     density =      3.97209 g/cm^3

CELL_PARAMETERS (angstrom)
   5.052163174   0.008357149  -0.075300557
  -2.518844311   4.379487978  -0.075278811
  -0.192552143  -0.333445954  12.818029085

ATOMIC_POSITIONS (angstrom)
Co              -1.5495820013        3.4493210446       10.6064325739
Mg              -0.0172068991        1.3650402382        6.4152051863
Mg               3.4778885663        0.5467252236       10.6063910789
Mg               2.5175953235        2.8730106024        6.3533223421
Mg               1.2142114501        3.4979204981        1.9795737708
Mg               1.1756736554        0.5487376042        2.0414559451
Mg               1.2396283570        2.2043866523        9.2372195913
Mg               2.4968136537       -0.0396223430        7.8617582479
Mg               0.9231748341        1.6563612412       11.9755446027
Mg               2.5281354365       -0.1237575095        4.9136912347
Mg               3.7762151981        2.0379852982        3.4810637526
Mg               3.6876899792        2.0230511103        0.5329793554
Ni               1.2611637858        2.0488949855        4.1973891848
Ni               2.4077768354       -0.1856963591       -0.1510861366
Ni               3.7696890127        2.1731889218        8.5458588943
Ni              -0.0010010526       -0.1476258410        4.2726794512
Ni              -0.1001750000       -0.2155988576       -0.1488079597
Ni               0.0082944289       -0.0277479294        8.6941836828



     Writing config-only to output data dir ./outdir/mg2ni_co.save/ :
     XML data file
     NEW-OLD atomic charge density approx. for the potential
     New effective cutoffs (rho, wfc):  480.04   60.01

     Check: negative core charge=   -0.000003

     total cpu time spent up to now is      796.7 secs

     Self-consistent Calculation

     iteration #  1     ecut=    60.00 Ry     beta= 0.30
     Davidson diagonalization with overlap
     ethr =  1.00E-06,  avg # of iterations =  2.0

     Threshold (ethr) on eigenvalues was too large:
     Diagonalizing with lowered threshold

     Davidson diagonalization with overlap
     ethr =  5.25E-09,  avg # of iterations =  1.0

     total cpu time spent up to now is      833.2 secs

     total energy              =   -2728.52587110 Ry
     estimated scf accuracy    <       0.00000777 Ry

     iteration #  2     ecut=    60.00 Ry     beta= 0.30
     Davidson diagonalization with overlap
     ethr =  5.29E-09,  avg # of iterations =  3.0

     total cpu time spent up to now is      858.3 secs

     total energy              =   -2728.52584889 Ry
     estimated scf accuracy    <       0.00130423 Ry

     iteration #  3     ecut=    60.00 Ry     beta= 0.30
     Davidson diagonalization with overlap
     ethr =  5.29E-09,  avg # of iterations =  3.0

     total cpu time spent up to now is      882.6 secs

     total energy              =   -2728.52587419 Ry
     estimated scf accuracy    <       0.00000786 Ry

     iteration #  4     ecut=    60.00 Ry     beta= 0.30
     Davidson diagonalization with overlap
     ethr =  5.29E-09,  avg # of iterations =  1.0

     total cpu time spent up to now is      897.8 secs

     total energy              =   -2728.52587460 Ry
     estimated scf accuracy    <       0.00000061 Ry

     iteration #  5     ecut=    60.00 Ry     beta= 0.30
     Davidson diagonalization with overlap
     ethr =  4.16E-10,  avg # of iterations =  2.0

     total cpu time spent up to now is      916.9 secs

     total energy              =   -2728.52587466 Ry
     estimated scf accuracy    <       0.00000017 Ry

     iteration #  6     ecut=    60.00 Ry     beta= 0.30
     Davidson diagonalization with overlap
     ethr =  1.14E-10,  avg # of iterations =  1.0

     total cpu time spent up to now is      932.1 secs

     total energy              =   -2728.52587466 Ry
     estimated scf accuracy    <       0.00000024 Ry

     iteration #  7     ecut=    60.00 Ry     beta= 0.30
     Davidson diagonalization with overlap
     ethr =  1.14E-10,  avg # of iterations =  1.0

     total cpu time spent up to now is      947.4 secs

     total energy              =   -2728.52587467 Ry
     estimated scf accuracy    <       0.00000004 Ry

     iteration #  8     ecut=    60.00 Ry     beta= 0.30
     Davidson diagonalization with overlap
     ethr =  2.48E-11,  avg # of iterations =  1.0

     total cpu time spent up to now is      962.7 secs

     total energy              =   -2728.52587467 Ry
     estimated scf accuracy    <          6.7E-09 Ry

     iteration #  9     ecut=    60.00 Ry     beta= 0.30
     Davidson diagonalization with overlap
     ethr =  4.54E-12,  avg # of iterations =  1.4

     total cpu time spent up to now is      980.7 secs

     total energy              =   -2728.52587467 Ry
     estimated scf accuracy    <          2.0E-09 Ry

     iteration # 10     ecut=    60.00 Ry     beta= 0.30
     Davidson diagonalization with overlap
     ethr =  1.35E-12,  avg # of iterations =  2.1

     total cpu time spent up to now is      999.8 secs

     total energy              =   -2728.52587467 Ry
     estimated scf accuracy    <          1.3E-09 Ry

     iteration # 11     ecut=    60.00 Ry     beta= 0.30
     Davidson diagonalization with overlap
     ethr =  8.85E-13,  avg # of iterations =  1.6

     total cpu time spent up to now is     1018.6 secs

     End of self-consistent calculation

     Number of k-points >= 100: set verbosity='high' to print the bands.

     the Fermi energy is     8.0080 ev

!    total energy              =   -2728.52587467 Ry
     estimated scf accuracy    <          3.5E-10 Ry
     smearing contrib. (-TS)   =       0.00037272 Ry
     internal energy E=F+TS    =   -2728.52624738 Ry

     The total energy is F=E-TS. E is the sum of the following terms:
     one-electron contribution =   -2549.64681695 Ry
     hartree contribution      =    1323.94912716 Ry
     xc contribution           =    -264.37931868 Ry
     ewald contribution        =    -893.55151349 Ry
     DFT-D3 Dispersion         =      -0.45137709 Ry
     one-center paw contrib.   =    -344.44634833 Ry

     convergence has been achieved in  11 iterations

     Forces acting on atoms (cartesian axes, Ry/au):

     atom    1 type  1   force =     0.00002186   -0.00001359    0.00000136
     atom    2 type  2   force =     0.00008606    0.00006038    0.00004926
     atom    3 type  2   force =     0.00012200   -0.00007059   -0.00000057
     atom    4 type  2   force =    -0.00007820    0.00008751    0.00002342
     atom    5 type  2   force =    -0.00000963   -0.00010434   -0.00004989
     atom    6 type  2   force =    -0.00011464    0.00002398   -0.00002408
     atom    7 type  2   force =     0.00007126   -0.00006130   -0.00021365
     atom    8 type  2   force =     0.00002099    0.00001409    0.00004574
     atom    9 type  2   force =     0.00008840   -0.00003069    0.00021300
     atom   10 type  2   force =     0.00001046    0.00013117    0.00012429
     atom   11 type  2   force =    -0.00010830   -0.00007451   -0.00012408
     atom   12 type  2   force =    -0.00000180   -0.00002492   -0.00004623
     atom   13 type  3   force =    -0.00016498    0.00009490   -0.00000918
     atom   14 type  3   force =    -0.00005158   -0.00004540    0.00018634
     atom   15 type  3   force =     0.00001420    0.00006805   -0.00017600
     atom   16 type  3   force =     0.00002148   -0.00001287   -0.00000912
     atom   17 type  3   force =     0.00001546   -0.00005689   -0.00001298
     atom   18 type  3   force =     0.00005698    0.00001501    0.00002238

     Total force =     0.000613     Total SCF correction =     0.000068
     SCF correction compared to forces is large: reduce conv_thr to get better values


     Computing stress (Cartesian axis) and pressure

          total   stress  (Ry/bohr**3)                   (kbar)     P=       -0.10
  -0.00000064  -0.00000019   0.00000004           -0.09       -0.03        0.01
  -0.00000019  -0.00000086   0.00000008           -0.03       -0.13        0.01
   0.00000004   0.00000008  -0.00000052            0.01        0.01       -0.08

     Energy error            =      7.6E-07 Ry
     Gradient error          =      2.1E-04 Ry/Bohr
     Cell gradient error     =      1.3E-01 kbar

     number of scf cycles    =   2
     number of bfgs steps    =   1

     enthalpy           old  =   -2728.5258739104 Ry
     enthalpy           new  =   -2728.5258746677 Ry

     CASE: enthalpy          _new < enthalpy          _old

     new trust radius        =       0.0004714967 bohr
     new conv_thr            =            1.0E-11 Ry

     new unit-cell volume =   1913.76763 a.u.^3 (   283.59110 Ang^3 )
     density =      3.97259 g/cm^3

CELL_PARAMETERS (angstrom)
   5.051959400   0.008307553  -0.075286960
  -2.518785375   4.379287291  -0.075265097
  -0.192513193  -0.333378190  12.817594763

ATOMIC_POSITIONS (angstrom)
Co              -1.5495096327        3.4491874978       10.6060857394
Mg              -0.0171139128        1.3650565804        6.4150463368
Mg               3.4778951313        0.5466293364       10.6060421902
Mg               2.5173968800        2.8729552043        6.3531502527
Mg               1.2141248149        3.4976269484        1.9794696042
Mg               1.1755042657        0.5487316521        2.0413649211
Mg               1.2396526551        2.2042336742        9.2366895830
Mg               2.4967512263       -0.0395999360        7.8615480591
Mg               0.9232396877        1.6562793927       11.9753774229
Mg               2.5280579136       -0.1236189481        4.9136592312
Mg               3.7759377101        2.0377777905        3.4808334941
Mg               3.6875205548        2.0228887979        0.5329267835
Ni               1.2609320668        2.0488916272        4.1972515122
Ni               2.4076250935       -0.1857569179       -0.1508856560
Ni               3.7695474241        2.1731450423        8.5454039250
Ni              -0.0009662630       -0.1476162720        4.2725285446
Ni              -0.1001513770       -0.2156457644       -0.1488214140
Ni               0.0083725756       -0.0276995023        8.6939143476



     Writing config-only to output data dir ./outdir/mg2ni_co.save/ :
     XML data file
     NEW-OLD atomic charge density approx. for the potential
     New effective cutoffs (rho, wfc):  480.09   60.01

     Check: negative core charge=   -0.000003

     total cpu time spent up to now is     1032.4 secs

     Self-consistent Calculation

     iteration #  1     ecut=    60.00 Ry     beta= 0.30
     Davidson diagonalization with overlap
     ethr =  1.00E-06,  avg # of iterations =  2.0

     Threshold (ethr) on eigenvalues was too large:
     Diagonalizing with lowered threshold

     Davidson diagonalization with overlap
     ethr =  1.79E-08,  avg # of iterations =  1.0

     total cpu time spent up to now is     1069.1 secs

     total energy              =   -2728.52586296 Ry
     estimated scf accuracy    <       0.00002648 Ry

     iteration #  2     ecut=    60.00 Ry     beta= 0.30
     Davidson diagonalization with overlap
     ethr =  1.80E-08,  avg # of iterations =  3.0

     total cpu time spent up to now is     1093.8 secs

     total energy              =   -2728.52577995 Ry
     estimated scf accuracy    <       0.00499842 Ry

     iteration #  3     ecut=    60.00 Ry     beta= 0.30
     Davidson diagonalization with overlap
     ethr =  1.80E-08,  avg # of iterations =  3.0

     total cpu time spent up to now is     1118.1 secs

     total energy              =   -2728.52587465 Ry
     estimated scf accuracy    <       0.00000974 Ry

     iteration #  4     ecut=    60.00 Ry     beta= 0.30
     Davidson diagonalization with overlap
     ethr =  6.62E-09,  avg # of iterations =  1.0

     total cpu time spent up to now is     1133.4 secs

     total energy              =   -2728.52587521 Ry
     estimated scf accuracy    <       0.00000214 Ry

     iteration #  5     ecut=    60.00 Ry     beta= 0.30
     Davidson diagonalization with overlap
     ethr =  1.46E-09,  avg # of iterations =  1.5

     total cpu time spent up to now is     1152.1 secs

     total energy              =   -2728.52587536 Ry
     estimated scf accuracy    <       0.00000048 Ry

     iteration #  6     ecut=    60.00 Ry     beta= 0.30
     Davidson diagonalization with overlap
     ethr =  3.29E-10,  avg # of iterations =  1.0

     total cpu time spent up to now is     1167.4 secs

     total energy              =   -2728.52587536 Ry
     estimated scf accuracy    <       0.00000084 Ry

     iteration #  7     ecut=    60.00 Ry     beta= 0.30
     Davidson diagonalization with overlap
     ethr =  3.29E-10,  avg # of iterations =  1.0

     total cpu time spent up to now is     1182.7 secs

     total energy              =   -2728.52587539 Ry
     estimated scf accuracy    <       0.00000005 Ry

     iteration #  8     ecut=    60.00 Ry     beta= 0.30
     Davidson diagonalization with overlap
     ethr =  3.10E-11,  avg # of iterations =  1.9

     total cpu time spent up to now is     1201.6 secs

     total energy              =   -2728.52587539 Ry
     estimated scf accuracy    <       0.00000005 Ry

     iteration #  9     ecut=    60.00 Ry     beta= 0.30
     Davidson diagonalization with overlap
     ethr =  3.09E-11,  avg # of iterations =  1.0

     total cpu time spent up to now is     1216.8 secs

     total energy              =   -2728.52587540 Ry
     estimated scf accuracy    <          4.2E-09 Ry

     iteration # 10     ecut=    60.00 Ry     beta= 0.30
     Davidson diagonalization with overlap
     ethr =  2.88E-12,  avg # of iterations =  5.1

     total cpu time spent up to now is     1251.4 secs

     total energy              =   -2728.52587540 Ry
     estimated scf accuracy    <          1.5E-09 Ry

     iteration # 11     ecut=    60.00 Ry     beta= 0.30
     Davidson diagonalization with overlap
     ethr =  1.02E-12,  avg # of iterations =  4.3

     total cpu time spent up to now is     1280.9 secs

     total energy              =   -2728.52587540 Ry
     estimated scf accuracy    <          2.5E-09 Ry

     iteration # 12     ecut=    60.00 Ry     beta= 0.30
     Davidson diagonalization with overlap
     ethr =  1.02E-12,  avg # of iterations =  2.2

     total cpu time spent up to now is     1300.6 secs

     total energy              =   -2728.52587540 Ry
     estimated scf accuracy    <          3.0E-10 Ry

     iteration # 13     ecut=    60.00 Ry     beta= 0.30
     Davidson diagonalization with overlap
     ethr =  2.01E-13,  avg # of iterations =  2.6

     total cpu time spent up to now is     1322.8 secs

     total energy              =   -2728.52587540 Ry
     estimated scf accuracy    <          3.4E-11 Ry

     iteration # 14     ecut=    60.00 Ry     beta= 0.30
     Davidson diagonalization with overlap
     ethr =  1.00E-13,  avg # of iterations =  1.9

     total cpu time spent up to now is     1342.2 secs

     total energy              =   -2728.52587540 Ry
     estimated scf accuracy    <          3.2E-11 Ry

     iteration # 15     ecut=    60.00 Ry     beta= 0.30
     Davidson diagonalization with overlap
     ethr =  1.00E-13,  avg # of iterations =  1.0

     total cpu time spent up to now is     1357.5 secs

     total energy              =   -2728.52587540 Ry
     estimated scf accuracy    <          1.6E-11 Ry

     iteration # 16     ecut=    60.00 Ry     beta= 0.30
     Davidson diagonalization with overlap
     ethr =  1.00E-13,  avg # of iterations =  1.0

     total cpu time spent up to now is     1372.8 secs

     End of self-consistent calculation

     Number of k-points >= 100: set verbosity='high' to print the bands.

     the Fermi energy is     8.0093 ev

!    total energy              =   -2728.52587540 Ry
     estimated scf accuracy    <          3.6E-12 Ry
     smearing contrib. (-TS)   =       0.00037274 Ry
     internal energy E=F+TS    =   -2728.52624814 Ry

     The total energy is F=E-TS. E is the sum of the following terms:
     one-electron contribution =   -2549.54127480 Ry
     hartree contribution      =    1323.90289409 Ry
     xc contribution           =    -264.38022522 Ry
     ewald contribution        =    -893.60967330 Ry
     DFT-D3 Dispersion         =      -0.45143067 Ry
     one-center paw contrib.   =    -344.44653823 Ry

     convergence has been achieved in  16 iterations

     Forces acting on atoms (cartesian axes, Ry/au):

     atom    1 type  1   force =     0.00003657   -0.00002200    0.00000022
     atom    2 type  2   force =     0.00006206    0.00006382    0.00003225
     atom    3 type  2   force =     0.00009945   -0.00005794    0.00000029
     atom    4 type  2   force =    -0.00005928    0.00007525    0.00000590
     atom    5 type  2   force =    -0.00002478   -0.00008537   -0.00003308
     atom    6 type  2   force =    -0.00009442    0.00001391   -0.00000667
     atom    7 type  2   force =     0.00005796   -0.00006058   -0.00014236
     atom    8 type  2   force =     0.00003013    0.00001457    0.00003053
     atom    9 type  2   force =     0.00008113   -0.00001940    0.00014215
     atom   10 type  2   force =    -0.00000737    0.00011076    0.00011263
     atom   11 type  2   force =    -0.00009951   -0.00004892   -0.00011297
     atom   12 type  2   force =     0.00000238   -0.00003315   -0.00003049
     atom   13 type  3   force =    -0.00012025    0.00006953    0.00000080
     atom   14 type  3   force =    -0.00002317   -0.00003825    0.00012389
     atom   15 type  3   force =     0.00002207    0.00003929   -0.00012369
     atom   16 type  3   force =     0.00000329   -0.00000195    0.00000083
     atom   17 type  3   force =    -0.00000196   -0.00004184    0.00000444
     atom   18 type  3   force =     0.00003571    0.00002226   -0.00000466

     Total force =     0.000466     Total SCF correction =     0.000011


     Computing stress (Cartesian axis) and pressure

          total   stress  (Ry/bohr**3)                   (kbar)     P=       -0.05
  -0.00000027  -0.00000013   0.00000003           -0.04       -0.02        0.00
  -0.00000013  -0.00000042   0.00000006           -0.02       -0.06        0.01
   0.00000003   0.00000006  -0.00000025            0.00        0.01       -0.04

     Energy error            =      7.3E-07 Ry
     Gradient error          =      1.4E-04 Ry/Bohr
     Cell gradient error     =      6.1E-02 kbar

     number of scf cycles    =   3
     number of bfgs steps    =   2

     enthalpy           old  =   -2728.5258746677 Ry
     enthalpy           new  =   -2728.5258753966 Ry

     CASE: enthalpy          _new < enthalpy          _old

     new trust radius        =       0.0007072215 bohr
     new conv_thr            =            1.0E-11 Ry

     new unit-cell volume =   1913.44407 a.u.^3 (   283.54316 Ang^3 )
     density =      3.97326 g/cm^3

CELL_PARAMETERS (angstrom)
   5.051691303   0.008234495  -0.075266518
  -2.518714585   4.379018496  -0.075243906
  -0.192455401  -0.333275891  12.816994688

ATOMIC_POSITIONS (angstrom)
Co              -1.5493888728        3.4490025891       10.6056080488
Mg              -0.0169722927        1.3651153367        6.4148315051
Mg               3.4779460214        0.5464844431       10.6055626075
Mg               2.5171146442        2.8729103826        6.3529072858
Mg               1.2139859551        3.4972012477        1.9793244770
Mg               1.1752446701        0.5487244838        2.0412476846
Mg               1.2397077886        2.2040051702        9.2359407663
Mg               2.4966928528       -0.0395590951        7.8612629921
Mg               0.9233648991        1.6561744886       11.9751670954
Mg               2.5279450661       -0.1233907654        4.9136572913
Mg               3.7755257391        2.0374875223        3.4804761035
Mg               3.6872982136        2.0226451604        0.5328527897
Ni               1.2605919608        2.0489053283        4.1970713098
Ni               2.4074293028       -0.1858547323       -0.1505957432
Ni               3.7693766087        2.1730889603        8.5447583042
Ni              -0.0009263937       -0.1475943841        4.2723282556
Ni              -0.1001303364       -0.2157190511       -0.1488285221
Ni               0.0084851902       -0.0276127738        8.6935231600



     Writing config-only to output data dir ./outdir/mg2ni_co.save/ :
     XML data file
     NEW-OLD atomic charge density approx. for the potential
     New effective cutoffs (rho, wfc):  480.16   60.02

     Check: negative core charge=   -0.000003

     total cpu time spent up to now is     1386.6 secs

     Self-consistent Calculation

     iteration #  1     ecut=    60.00 Ry     beta= 0.30
     Davidson diagonalization with overlap
     ethr =  1.00E-06,  avg # of iterations =  2.0

     Threshold (ethr) on eigenvalues was too large:
     Diagonalizing with lowered threshold

     Davidson diagonalization with overlap
     ethr =  4.31E-08,  avg # of iterations =  1.0

     total cpu time spent up to now is     1423.2 secs

     total energy              =   -2728.52584608 Ry
     estimated scf accuracy    <       0.00006356 Ry

     iteration #  2     ecut=    60.00 Ry     beta= 0.30
     Davidson diagonalization with overlap
     ethr =  4.32E-08,  avg # of iterations =  3.0

     total cpu time spent up to now is     1447.6 secs

     total energy              =   -2728.52564422 Ry
     estimated scf accuracy    <       0.01220280 Ry

     iteration #  3     ecut=    60.00 Ry     beta= 0.30
     Davidson diagonalization with overlap
     ethr =  4.32E-08,  avg # of iterations =  3.0

     total cpu time spent up to now is     1472.0 secs

     total energy              =   -2728.52587481 Ry
     estimated scf accuracy    <       0.00001475 Ry

     iteration #  4     ecut=    60.00 Ry     beta= 0.30
     Davidson diagonalization with overlap
     ethr =  1.00E-08,  avg # of iterations =  1.0

     total cpu time spent up to now is     1487.4 secs

     total energy              =   -2728.52587578 Ry
     estimated scf accuracy    <       0.00000242 Ry

     iteration #  5     ecut=    60.00 Ry     beta= 0.30
     Davidson diagonalization with overlap
     ethr =  1.65E-09,  avg # of iterations =  2.0

     total cpu time spent up to now is     1506.0 secs

     total energy              =   -2728.52587601 Ry
     estimated scf accuracy    <       0.00000095 Ry

     iteration #  6     ecut=    60.00 Ry     beta= 0.30
     Davidson diagonalization with overlap
     ethr =  6.46E-10,  avg # of iterations =  1.0

     total cpu time spent up to now is     1521.3 secs

     total energy              =   -2728.52587604 Ry
     estimated scf accuracy    <       0.00000034 Ry

     iteration #  7     ecut=    60.00 Ry     beta= 0.30
     Davidson diagonalization with overlap
     ethr =  2.30E-10,  avg # of iterations =  1.0

     total cpu time spent up to now is     1536.5 secs

     total energy              =   -2728.52587605 Ry
     estimated scf accuracy    <       0.00000028 Ry

     iteration #  8     ecut=    60.00 Ry     beta= 0.30
     Davidson diagonalization with overlap
     ethr =  1.88E-10,  avg # of iterations =  1.0

     total cpu time spent up to now is     1551.8 secs

     total energy              =   -2728.52587606 Ry
     estimated scf accuracy    <       0.00000006 Ry

     iteration #  9     ecut=    60.00 Ry     beta= 0.30
     Davidson diagonalization with overlap
     ethr =  4.15E-11,  avg # of iterations =  1.0

     total cpu time spent up to now is     1567.1 secs

     total energy              =   -2728.52587606 Ry
     estimated scf accuracy    <       0.00000002 Ry

     iteration # 10     ecut=    60.00 Ry     beta= 0.30
     Davidson diagonalization with overlap
     ethr =  1.20E-11,  avg # of iterations =  1.0

     total cpu time spent up to now is     1582.4 secs

     total energy              =   -2728.52587607 Ry
     estimated scf accuracy    <          2.1E-09 Ry

     iteration # 11     ecut=    60.00 Ry     beta= 0.30
     Davidson diagonalization with overlap
     ethr =  1.44E-12,  avg # of iterations =  4.0

     total cpu time spent up to now is     1615.7 secs

     total energy              =   -2728.52587607 Ry
     estimated scf accuracy    <          7.5E-09 Ry

     iteration # 12     ecut=    60.00 Ry     beta= 0.30
     Davidson diagonalization with overlap
     ethr =  1.44E-12,  avg # of iterations =  2.5

     total cpu time spent up to now is     1636.8 secs

     total energy              =   -2728.52587607 Ry
     estimated scf accuracy    <          1.1E-10 Ry

     iteration # 13     ecut=    60.00 Ry     beta= 0.30
     Davidson diagonalization with overlap
     ethr =  1.00E-13,  avg # of iterations =  2.0

     total cpu time spent up to now is     1657.2 secs

     total energy              =   -2728.52587607 Ry
     estimated scf accuracy    <          1.7E-10 Ry

     iteration # 14     ecut=    60.00 Ry     beta= 0.30
     Davidson diagonalization with overlap
     ethr =  1.00E-13,  avg # of iterations =  1.6

     total cpu time spent up to now is     1676.3 secs

     total energy              =   -2728.52587607 Ry
     estimated scf accuracy    <          7.3E-11 Ry

     iteration # 15     ecut=    60.00 Ry     beta= 0.30
     Davidson diagonalization with overlap
     ethr =  1.00E-13,  avg # of iterations =  1.0

     total cpu time spent up to now is     1691.6 secs

     total energy              =   -2728.52587607 Ry
     estimated scf accuracy    <          1.8E-11 Ry

     iteration # 16     ecut=    60.00 Ry     beta= 0.30
     Davidson diagonalization with overlap
     ethr =  1.00E-13,  avg # of iterations =  1.0

     total cpu time spent up to now is     1706.8 secs

     total energy              =   -2728.52587607 Ry
     estimated scf accuracy    <          6.6E-11 Ry

     iteration # 17     ecut=    60.00 Ry     beta= 0.30
     Davidson diagonalization with overlap
     ethr =  1.00E-13,  avg # of iterations =  1.0

     total cpu time spent up to now is     1722.1 secs

     End of self-consistent calculation

     Number of k-points >= 100: set verbosity='high' to print the bands.

     the Fermi energy is     8.0111 ev

!    total energy              =   -2728.52587607 Ry
     estimated scf accuracy    <          9.1E-12 Ry
     smearing contrib. (-TS)   =       0.00037287 Ry
     internal energy E=F+TS    =   -2728.52624894 Ry

     The total energy is F=E-TS. E is the sum of the following terms:
     one-electron contribution =   -2549.38568977 Ry
     hartree contribution      =    1323.83429719 Ry
     xc contribution           =    -264.38150076 Ry
     ewald contribution        =    -893.69505905 Ry
     DFT-D3 Dispersion         =      -0.45150307 Ry
     one-center paw contrib.   =    -344.44679348 Ry

     convergence has been achieved in  17 iterations

     Forces acting on atoms (cartesian axes, Ry/au):

     atom    1 type  1   force =     0.00005357   -0.00003195    0.00000018
     atom    2 type  2   force =     0.00002624    0.00006603    0.00000615
     atom    3 type  2   force =     0.00006822   -0.00004005    0.00000048
     atom    4 type  2   force =    -0.00002827    0.00005630   -0.00001725
     atom    5 type  2   force =    -0.00004438   -0.00005555   -0.00000663
     atom    6 type  2   force =    -0.00006278   -0.00000337    0.00001701
     atom    7 type  2   force =     0.00004106   -0.00005504   -0.00004010
     atom    8 type  2   force =     0.00004133    0.00001253    0.00001124
     atom    9 type  2   force =     0.00006779   -0.00000746    0.00003978
     atom   10 type  2   force =    -0.00003211    0.00007588    0.00008839
     atom   11 type  2   force =    -0.00008170   -0.00001010   -0.00008883
     atom   12 type  2   force =     0.00000971   -0.00004200   -0.00001128
     atom   13 type  3   force =    -0.00008153    0.00004718    0.00000107
     atom   14 type  3   force =     0.00000510   -0.00003490    0.00006108
     atom   15 type  3   force =     0.00003312    0.00001369   -0.00006162
     atom   16 type  3   force =    -0.00002372    0.00001371    0.00000077
     atom   17 type  3   force =    -0.00001200   -0.00002942    0.00002456
     atom   18 type  3   force =     0.00002035    0.00002449   -0.00002499

     Total force =     0.000312     Total SCF correction =     0.000021


     Computing stress (Cartesian axis) and pressure

          total   stress  (Ry/bohr**3)                   (kbar)     P=        0.09
   0.00000066  -0.00000004   0.00000002            0.10       -0.01        0.00
  -0.00000004   0.00000061   0.00000003           -0.01        0.09        0.01
   0.00000002   0.00000003   0.00000057            0.00        0.01        0.08

     Energy error            =      6.7E-07 Ry
     Gradient error          =      8.9E-05 Ry/Bohr
     Cell gradient error     =      9.7E-02 kbar

     bfgs converged in   4 scf cycles and   3 bfgs steps
     (criteria: energy <  1.0E-05 Ry, force <  1.0E-04 Ry/Bohr, cell <  5.0E-01 kbar)

     End of BFGS Geometry Optimization

     Final enthalpy           =   -2728.5258760663 Ry

     File ./outdir/mg2ni_co.bfgs deleted, as requested
Begin final coordinates
     new unit-cell volume =   1913.44407 a.u.^3 (   283.54316 Ang^3 )
     density =      3.97326 g/cm^3

CELL_PARAMETERS (angstrom)
   5.051691303   0.008234495  -0.075266518
  -2.518714585   4.379018496  -0.075243906
  -0.192455401  -0.333275891  12.816994688

ATOMIC_POSITIONS (angstrom)
Co              -1.5493888728        3.4490025891       10.6056080488
Mg              -0.0169722927        1.3651153367        6.4148315051
Mg               3.4779460214        0.5464844431       10.6055626075
Mg               2.5171146442        2.8729103826        6.3529072858
Mg               1.2139859551        3.4972012477        1.9793244770
Mg               1.1752446701        0.5487244838        2.0412476846
Mg               1.2397077886        2.2040051702        9.2359407663
Mg               2.4966928528       -0.0395590951        7.8612629921
Mg               0.9233648991        1.6561744886       11.9751670954
Mg               2.5279450661       -0.1233907654        4.9136572913
Mg               3.7755257391        2.0374875223        3.4804761035
Mg               3.6872982136        2.0226451604        0.5328527897
Ni               1.2605919608        2.0489053283        4.1970713098
Ni               2.4074293028       -0.1858547323       -0.1505957432
Ni               3.7693766087        2.1730889603        8.5447583042
Ni              -0.0009263937       -0.1475943841        4.2723282556
Ni              -0.1001303364       -0.2157190511       -0.1488285221
Ni               0.0084851902       -0.0276127738        8.6935231600
End final coordinates



     Writing config-only to output data dir ./outdir/mg2ni_co.save/ :
     XML data file

     Final scf calculation at the relaxed structure.
     The G-vectors are recalculated for the final unit cell
     Results may differ from those at the preceding step.
 
     G-vector sticks info
     --------------------
     sticks:   dense  smooth     PW     G-vecs:    dense   smooth      PW
     Sum        3029    1511    439               339857   120211   19269
 
     Using Slab Decomposition
 


     bravais-lattice index     =            0
     lattice parameter (alat)  =       9.5487  a.u.
     unit-cell volume          =    1913.4441 (a.u.)^3
     number of atoms/cell      =           18
     number of atomic types    =            3
     number of electrons       =       147.00
     number of Kohn-Sham states=           89
     kinetic-energy cutoff     =      60.0000  Ry
     charge density cutoff     =     480.0000  Ry
     scf convergence threshold =      1.0E-11
     mixing beta               =       0.3000
     number of iterations used =           12  plain     mixing
     press convergence thresh. =      5.0E-01
     Exchange-correlation=  SLA  PW   PBX  PBC
                           (   1   4   3   4   0   0   0)

     GPU acceleration is ACTIVE.  1 visible GPUs per MPI rank


     celldm(1)=   9.548680  celldm(2)=   0.000000  celldm(3)=   0.000000
     celldm(4)=   0.000000  celldm(5)=   0.000000  celldm(6)=   0.000000

     crystal axes: (cart. coord. in units of alat)
               a(1) = (   0.999752   0.001630  -0.014896 )  
               a(2) = (  -0.498465   0.866627  -0.014891 )  
               a(3) = (  -0.038088  -0.065957   2.536540 )  

     reciprocal axes: (cart. coord. in units 2 pi/alat)
               b(1) = (  0.999756  0.575553  0.029978 )  
               b(2) = ( -0.001434  1.153589  0.029975 )  
               b(3) = (  0.005863  0.010152  0.394590 )  


     PseudoPot. # 1 for Co read from file:
     /home/x/Workspace/3-hEspesso/pseudo/Co_pbe_v1.2.uspp.F.UPF
     MD5 check sum: 5f91765df6ddd3222702df6e7b74a16d
     Pseudo is Ultrasoft + core correction, Zval = 17.0
     Generated by new atomic code, or converted to UPF format
     Using radial grid of  863 points,  6 beta functions with: 
                l(1) =   0
                l(2) =   0
                l(3) =   1
                l(4) =   1
                l(5) =   2
                l(6) =   2
     Q(r) pseudized with  8 coefficients,  rinner =    1.200   1.200   1.200
                                                       1.200   1.200

     PseudoPot. # 2 for Mg read from file:
     /home/x/Workspace/3-hEspesso/pseudo/Mg.pbe-n-kjpaw_psl.0.3.0.UPF
     MD5 check sum: 24ecedc7f3e3cbe212e682f4413594e4
     Pseudo is Projector augmented-wave + core cor, Zval =  2.0
     Generated using "atomic" code by A. Dal Corso  v.5.0.99 svn rev. 10869
     Shape of augmentation charge: PSQ
     Using radial grid of 1129 points,  4 beta functions with: 
                l(1) =   0
                l(2) =   0
                l(3) =   1
                l(4) =   1
     Q(r) pseudized with 0 coefficients 


     PseudoPot. # 3 for Ni read from file:
     /home/x/Workspace/3-hEspesso/pseudo/ni_pbe_v1.4.uspp.F.UPF
     MD5 check sum: 1ee80287db30b12d2bc1f57a5b5d6409
     Pseudo is Ultrasoft + core correction, Zval = 18.0
     Generated by new atomic code, or converted to UPF format
     Using radial grid of  865 points,  6 beta functions with: 
                l(1) =   0
                l(2) =   0
                l(3) =   1
                l(4) =   1
                l(5) =   2
                l(6) =   2
     Q(r) pseudized with 10 coefficients,  rinner =    0.980   0.980   0.980
                                                       0.980   0.980

     atomic species   valence    mass     pseudopotential
     Co               17.00    58.93320     Co( 1.00)
     Mg                2.00    24.30500     Mg( 1.00)
     Ni               18.00    58.69340     Ni( 1.00)

     No symmetry found



   Cartesian axes

     site n.     atom                  positions (alat units)
         1        Co     tau(   1) = (  -0.3066309   0.6825729   2.0988968  )
         2        Mg     tau(   2) = (  -0.0033589   0.2701624   1.2695236  )
         3        Mg     tau(   3) = (   0.6883009   0.1081517   2.0988878  )
         4        Mg     tau(   4) = (   0.4981481   0.5685617   1.2572685  )
         5        Mg     tau(   5) = (   0.2402532   0.6921116   0.3917171  )
         6        Mg     tau(   6) = (   0.2325861   0.1085950   0.4039720  )
         7        Mg     tau(   7) = (   0.2453437   0.4361824   1.8278336  )
         8        Mg     tau(   8) = (   0.4941066  -0.0078289   1.5557788  )
         9        Mg     tau(   9) = (   0.1827380   0.3277643   2.3699386  )
        10        Mg     tau(  10) = (   0.5002915  -0.0244196   0.9724346  )
        11        Mg     tau(  11) = (   0.7471933   0.4032278   0.6888016  )
        12        Mg     tau(  12) = (   0.7297327   0.4002904   0.1054539  )
        13        Ni     tau(  13) = (   0.2494767   0.4054874   0.8306190  )
        14        Ni     tau(  14) = (   0.4764409  -0.0367815  -0.0298036  )
        15        Ni     tau(  15) = (   0.7459763   0.4300639   1.6910455  )
        16        Ni     tau(  16) = (  -0.0001833  -0.0292096   0.8455127  )
        17        Ni     tau(  17) = (  -0.0198162  -0.0426918  -0.0294538  )
        18        Ni     tau(  18) = (   0.0016793  -0.0054647   1.7204868  )

     --------------------------------------------
     DFT-D3 Dispersion Correction (3-body terms):
     --------------------------------------------
       Reference C6 values for interpolation: 

         atom   Coordination number   C6
         Mg         0.000          1366.75
         Mg         0.963           902.54
         Mg         1.950           351.12
         Co         0.000          1065.56
         Co         1.715           373.09
         Co         2.926           296.13
         Co         7.779           236.57
         Ni         0.000          1149.49
         Ni         1.794           356.66
         Ni         6.546           257.56
         Ni         6.292           283.75

       Values used:

         atom   Coordination number  R0_AB[au]  C6      C8
         Co         7.507            3.243    236.57  20800.86
         Mg        11.203            3.292    351.12  31436.69
         Mg        11.114            3.292    351.12  31436.69
         Mg        11.179            3.292    351.12  31436.69
         Mg        11.203            3.292    351.12  31436.69
         Mg        11.179            3.292    351.12  31436.69
         Mg        10.714            3.292    351.12  31436.69
         Mg        11.060            3.292    351.12  31436.69
         Mg        10.714            3.292    351.12  31436.69
         Mg        11.166            3.292    351.12  31436.69
         Mg        11.166            3.292    351.12  31436.69
         Mg        11.060            3.292    351.12  31436.69
         Ni         8.634            3.162    257.83  21604.49
         Ni         8.600            3.162    257.85  21606.09
         Ni         8.600            3.162    257.85  21606.09
         Ni         8.681            3.162    257.81  21602.47
         Ni         8.608            3.162    257.85  21605.69
         Ni         8.608            3.162    257.85  21605.69

         Molecular C6 ( Ry / a.u.^6 ) =    100131.76


     number of k points=   256  Marzari-Vanderbilt smearing, width (Ry)=  0.0100

     Number of k-points >= 100: set verbosity='high' to print them.

     Dense  grid:   339857 G-vectors     FFT dimensions: (  72,  72, 180)

     Smooth grid:   120211 G-vectors     FFT dimensions: (  48,  48, 120)

     Estimated max dynamical RAM per process >       6.55 GB

     Check: negative core charge=   -0.000003

     Initial potential from superposition of free atoms

     starting charge     133.9898, renormalised to     147.0000
     Starting wfcs are  135 randomized atomic wfcs

     total cpu time spent up to now is     1743.4 secs

     Self-consistent Calculation

     iteration #  1     ecut=    60.00 Ry     beta= 0.30
     Davidson diagonalization with overlap
     c_bands:  1 eigenvalues not converged
     c_bands:  1 eigenvalues not converged
     c_bands:  1 eigenvalues not converged
     c_bands:  1 eigenvalues not converged
     c_bands:  1 eigenvalues not converged
     c_bands:  1 eigenvalues not converged
     c_bands:  1 eigenvalues not converged
     c_bands:  1 eigenvalues not converged
     c_bands:  1 eigenvalues not converged
     c_bands:  1 eigenvalues not converged
     c_bands:  1 eigenvalues not converged
     c_bands:  1 eigenvalues not converged
     c_bands:  1 eigenvalues not converged
     c_bands:  1 eigenvalues not converged
     c_bands:  1 eigenvalues not converged
     c_bands:  1 eigenvalues not converged
     c_bands:  1 eigenvalues not converged
     c_bands:  1 eigenvalues not converged
     c_bands:  1 eigenvalues not converged
     c_bands:  1 eigenvalues not converged
     c_bands:  1 eigenvalues not converged
     c_bands:  1 eigenvalues not converged
     c_bands:  1 eigenvalues not converged
     c_bands:  1 eigenvalues not converged
     c_bands:  1 eigenvalues not converged
     ethr =  1.00E-06,  avg # of iterations = 18.9

     total cpu time spent up to now is     1875.1 secs

     total energy              =   -2565.70651825 Ry
     estimated scf accuracy    <     478.73011111 Ry

     iteration #  2     ecut=    60.00 Ry     beta= 0.30
     Davidson diagonalization with overlap
     ethr =  1.00E-02,  avg # of iterations =  5.2

     total cpu time spent up to now is     1917.5 secs

     total energy              =   -2634.68936709 Ry
     estimated scf accuracy    <     882.91036142 Ry

     iteration #  3     ecut=    60.00 Ry     beta= 0.30
     Davidson diagonalization with overlap
     ethr =  1.00E-02,  avg # of iterations =  7.1

     total cpu time spent up to now is     1967.2 secs

     total energy              =   -2712.83350878 Ry
     estimated scf accuracy    <     423.18553851 Ry

     iteration #  4     ecut=    60.00 Ry     beta= 0.30
     Davidson diagonalization with overlap
     ethr =  1.00E-02,  avg # of iterations =  4.1

     total cpu time spent up to now is     1999.9 secs

     total energy              =   -2735.93281071 Ry
     estimated scf accuracy    <      80.33252061 Ry

     iteration #  5     ecut=    60.00 Ry     beta= 0.30
     Davidson diagonalization with overlap
     ethr =  1.00E-02,  avg # of iterations =  2.0

     total cpu time spent up to now is     2019.1 secs

     total energy              =   -2728.77163932 Ry
     estimated scf accuracy    <      40.25538498 Ry

     iteration #  6     ecut=    60.00 Ry     beta= 0.30
     Davidson diagonalization with overlap
     ethr =  1.00E-02,  avg # of iterations =  2.0

     total cpu time spent up to now is     2038.3 secs

     total energy              =   -2730.58109457 Ry
     estimated scf accuracy    <      10.37274779 Ry

     iteration #  7     ecut=    60.00 Ry     beta= 0.30
     Davidson diagonalization with overlap
     ethr =  7.06E-03,  avg # of iterations =  1.0

     total cpu time spent up to now is     2053.7 secs

     total energy              =   -2731.56737769 Ry
     estimated scf accuracy    <      11.98604287 Ry

     iteration #  8     ecut=    60.00 Ry     beta= 0.30
     Davidson diagonalization with overlap
     ethr =  7.06E-03,  avg # of iterations =  1.0

     total cpu time spent up to now is     2068.9 secs

     total energy              =   -2727.42448308 Ry
     estimated scf accuracy    <      14.12486629 Ry

     iteration #  9     ecut=    60.00 Ry     beta= 0.30
     Davidson diagonalization with overlap
     ethr =  7.06E-03,  avg # of iterations =  2.1

     total cpu time spent up to now is     2088.9 secs

     total energy              =   -2727.88796674 Ry
     estimated scf accuracy    <      11.09090992 Ry

     iteration # 10     ecut=    60.00 Ry     beta= 0.30
     Davidson diagonalization with overlap
     ethr =  7.06E-03,  avg # of iterations =  2.0

     total cpu time spent up to now is     2107.6 secs

     total energy              =   -2728.32128054 Ry
     estimated scf accuracy    <      53.75720170 Ry

     iteration # 11     ecut=    60.00 Ry     beta= 0.30
     Davidson diagonalization with overlap
     ethr =  7.06E-03,  avg # of iterations =  1.0

     total cpu time spent up to now is     2123.0 secs

     total energy              =   -2728.84876633 Ry
     estimated scf accuracy    <      16.22031506 Ry

     iteration # 12     ecut=    60.00 Ry     beta= 0.30
     Davidson diagonalization with overlap
     ethr =  7.06E-03,  avg # of iterations =  1.0

     total cpu time spent up to now is     2138.3 secs

     total energy              =   -2728.79477311 Ry
     estimated scf accuracy    <       8.52582758 Ry

     iteration # 13     ecut=    60.00 Ry     beta= 0.30
     Davidson diagonalization with overlap
     ethr =  5.80E-03,  avg # of iterations =  1.0

     total cpu time spent up to now is     2153.6 secs

     total energy              =   -2728.61083292 Ry
     estimated scf accuracy    <       5.30937147 Ry

     iteration # 14     ecut=    60.00 Ry     beta= 0.30
     Davidson diagonalization with overlap
     ethr =  3.61E-03,  avg # of iterations =  1.0

     total cpu time spent up to now is     2168.9 secs

     total energy              =   -2728.61465111 Ry
     estimated scf accuracy    <       1.95968391 Ry

     iteration # 15     ecut=    60.00 Ry     beta= 0.30
     Davidson diagonalization with overlap
     ethr =  1.33E-03,  avg # of iterations =  1.0

     total cpu time spent up to now is     2184.3 secs

     total energy              =   -2728.53638049 Ry
     estimated scf accuracy    <       1.88699345 Ry

     iteration # 16     ecut=    60.00 Ry     beta= 0.30
     Davidson diagonalization with overlap
     ethr =  1.28E-03,  avg # of iterations =  1.0

     total cpu time spent up to now is     2199.6 secs

     total energy              =   -2728.51259162 Ry
     estimated scf accuracy    <       1.75650764 Ry

     iteration # 17     ecut=    60.00 Ry     beta= 0.30
     Davidson diagonalization with overlap
     ethr =  1.19E-03,  avg # of iterations =  1.0

     total cpu time spent up to now is     2214.9 secs

     total energy              =   -2728.49530623 Ry
     estimated scf accuracy    <       0.63423501 Ry

     iteration # 18     ecut=    60.00 Ry     beta= 0.30
     Davidson diagonalization with overlap
     ethr =  4.31E-04,  avg # of iterations =  1.0

     total cpu time spent up to now is     2230.2 secs

     total energy              =   -2728.52446767 Ry
     estimated scf accuracy    <       0.23629216 Ry

     iteration # 19     ecut=    60.00 Ry     beta= 0.30
     Davidson diagonalization with overlap
     ethr =  1.61E-04,  avg # of iterations =  1.2

     total cpu time spent up to now is     2247.2 secs

     total energy              =   -2728.52706071 Ry
     estimated scf accuracy    <       0.05348902 Ry

     iteration # 20     ecut=    60.00 Ry     beta= 0.30
     Davidson diagonalization with overlap
     ethr =  3.64E-05,  avg # of iterations =  3.9

     total cpu time spent up to now is     2286.1 secs

     total energy              =   -2728.52563411 Ry
     estimated scf accuracy    <       0.02918353 Ry

     iteration # 21     ecut=    60.00 Ry     beta= 0.30
     Davidson diagonalization with overlap
     ethr =  1.99E-05,  avg # of iterations =  2.3

     total cpu time spent up to now is     2312.2 secs

     total energy              =   -2728.52497657 Ry
     estimated scf accuracy    <       0.01352013 Ry

     iteration # 22     ecut=    60.00 Ry     beta= 0.30
     Davidson diagonalization with overlap
     ethr =  9.20E-06,  avg # of iterations =  2.4

     total cpu time spent up to now is     2337.4 secs

     total energy              =   -2728.52518703 Ry
     estimated scf accuracy    <       0.00432969 Ry

     iteration # 23     ecut=    60.00 Ry     beta= 0.30
     Davidson diagonalization with overlap
     ethr =  2.95E-06,  avg # of iterations =  4.2

     total cpu time spent up to now is     2367.5 secs

     total energy              =   -2728.52550407 Ry
     estimated scf accuracy    <       0.00134957 Ry

     iteration # 24     ecut=    60.00 Ry     beta= 0.30
     Davidson diagonalization with overlap
     ethr =  9.18E-07,  avg # of iterations =  4.0

     total cpu time spent up to now is     2398.9 secs

     total energy              =   -2728.52588317 Ry
     estimated scf accuracy    <       0.00109063 Ry

     iteration # 25     ecut=    60.00 Ry     beta= 0.30
     Davidson diagonalization with overlap
     ethr =  7.42E-07,  avg # of iterations =  1.0

     total cpu time spent up to now is     2414.2 secs

     total energy              =   -2728.52585683 Ry
     estimated scf accuracy    <       0.00040664 Ry

     iteration # 26     ecut=    60.00 Ry     beta= 0.30
     Davidson diagonalization with overlap
     ethr =  2.77E-07,  avg # of iterations =  1.0

     total cpu time spent up to now is     2429.6 secs

     total energy              =   -2728.52587286 Ry
     estimated scf accuracy    <       0.00001454 Ry

     iteration # 27     ecut=    60.00 Ry     beta= 0.30
     Davidson diagonalization with overlap
     ethr =  9.89E-09,  avg # of iterations =  2.1

     total cpu time spent up to now is     2448.9 secs

     total energy              =   -2728.52587409 Ry
     estimated scf accuracy    <       0.00000514 Ry

     iteration # 28     ecut=    60.00 Ry     beta= 0.30
     Davidson diagonalization with overlap
     ethr =  3.50E-09,  avg # of iterations =  1.0

     total cpu time spent up to now is     2464.2 secs

     total energy              =   -2728.52587419 Ry
     estimated scf accuracy    <       0.00000116 Ry

     iteration # 29     ecut=    60.00 Ry     beta= 0.30
     Davidson diagonalization with overlap
     ethr =  7.92E-10,  avg # of iterations =  1.5

     total cpu time spent up to now is     2481.8 secs

     total energy              =   -2728.52587424 Ry
     estimated scf accuracy    <       0.00000079 Ry

     iteration # 30     ecut=    60.00 Ry     beta= 0.30
     Davidson diagonalization with overlap
     ethr =  5.40E-10,  avg # of iterations =  1.1

     total cpu time spent up to now is     2497.6 secs

     total energy              =   -2728.52587428 Ry
     estimated scf accuracy    <       0.00000045 Ry

     iteration # 31     ecut=    60.00 Ry     beta= 0.30
     Davidson diagonalization with overlap
     ethr =  3.04E-10,  avg # of iterations =  1.3

     total cpu time spent up to now is     2514.3 secs

     total energy              =   -2728.52587430 Ry
     estimated scf accuracy    <       0.00000010 Ry

     iteration # 32     ecut=    60.00 Ry     beta= 0.30
     Davidson diagonalization with overlap
     ethr =  6.55E-11,  avg # of iterations =  3.2

     total cpu time spent up to now is     2541.0 secs

     total energy              =   -2728.52587433 Ry
     estimated scf accuracy    <       0.00000004 Ry

     iteration # 33     ecut=    60.00 Ry     beta= 0.30
     Davidson diagonalization with overlap
     ethr =  2.77E-11,  avg # of iterations =  2.2

     total cpu time spent up to now is     2562.2 secs

     total energy              =   -2728.52587433 Ry
     estimated scf accuracy    <          2.1E-09 Ry

     iteration # 34     ecut=    60.00 Ry     beta= 0.30
     Davidson diagonalization with overlap
     ethr =  1.40E-12,  avg # of iterations =  3.1

     total cpu time spent up to now is     2591.3 secs

     total energy              =   -2728.52587433 Ry
     estimated scf accuracy    <          2.5E-09 Ry

     iteration # 35     ecut=    60.00 Ry     beta= 0.30
     Davidson diagonalization with overlap
     ethr =  1.40E-12,  avg # of iterations =  1.8

     total cpu time spent up to now is     2611.5 secs

     total energy              =   -2728.52587433 Ry
     estimated scf accuracy    <          1.3E-09 Ry

     iteration # 36     ecut=    60.00 Ry     beta= 0.30
     Davidson diagonalization with overlap
     ethr =  9.09E-13,  avg # of iterations =  1.0

     total cpu time spent up to now is     2626.7 secs

     total energy              =   -2728.52587433 Ry
     estimated scf accuracy    <          6.2E-10 Ry

     iteration # 37     ecut=    60.00 Ry     beta= 0.30
     Davidson diagonalization with overlap
     ethr =  4.20E-13,  avg # of iterations =  1.0

     total cpu time spent up to now is     2642.1 secs

     total energy              =   -2728.52587433 Ry
     estimated scf accuracy    <          6.3E-11 Ry

     iteration # 38     ecut=    60.00 Ry     beta= 0.30
     Davidson diagonalization with overlap
     ethr =  1.00E-13,  avg # of iterations =  1.3

     total cpu time spent up to now is     2658.8 secs

     End of self-consistent calculation

     Number of k-points >= 100: set verbosity='high' to print the bands.

     the Fermi energy is     8.0111 ev

!    total energy              =   -2728.52587433 Ry
     estimated scf accuracy    <          3.6E-12 Ry
     smearing contrib. (-TS)   =       0.00037287 Ry
     internal energy E=F+TS    =   -2728.52624720 Ry

     The total energy is F=E-TS. E is the sum of the following terms:
     one-electron contribution =   -2549.38579008 Ry
     hartree contribution      =    1323.83440509 Ry
     xc contribution           =    -264.38150756 Ry
     ewald contribution        =    -893.69505905 Ry
     DFT-D3 Dispersion         =      -0.45150307 Ry
     one-center paw contrib.   =    -344.44679255 Ry

     convergence has been achieved in  38 iterations

     Forces acting on atoms (cartesian axes, Ry/au):

     atom    1 type  1   force =     0.00005334   -0.00003199    0.00000128
     atom    2 type  2   force =     0.00002635    0.00006598    0.00000615
     atom    3 type  2   force =     0.00006835   -0.00004010    0.00000037
     atom    4 type  2   force =    -0.00002813    0.00005626   -0.00001724
     atom    5 type  2   force =    -0.00004428   -0.00005560   -0.00000676
     atom    6 type  2   force =    -0.00006265   -0.00000343    0.00001687
     atom    7 type  2   force =     0.00004119   -0.00005508   -0.00004016
     atom    8 type  2   force =     0.00004146    0.00001248    0.00001124
     atom    9 type  2   force =     0.00006790   -0.00000753    0.00003964
     atom   10 type  2   force =    -0.00003200    0.00007583    0.00008837
     atom   11 type  2   force =    -0.00008158   -0.00001015   -0.00008893
     atom   12 type  2   force =     0.00000984   -0.00004205   -0.00001143
     atom   13 type  3   force =    -0.00008387    0.00004853    0.00000020
     atom   14 type  3   force =     0.00000470   -0.00003572    0.00006533
     atom   15 type  3   force =     0.00003371    0.00001433   -0.00006513
     atom   16 type  3   force =    -0.00002353    0.00001359   -0.00000027
     atom   17 type  3   force =    -0.00001182   -0.00003034    0.00002728
     atom   18 type  3   force =     0.00002102    0.00002500   -0.00002679

     Total force =     0.000315     Total SCF correction =     0.000008


     Computing stress (Cartesian axis) and pressure

          total   stress  (Ry/bohr**3)                   (kbar)     P=        0.10
   0.00000071  -0.00000004   0.00000002            0.10       -0.01        0.00
  -0.00000004   0.00000067   0.00000003           -0.01        0.10        0.01
   0.00000002   0.00000003   0.00000062            0.00        0.01        0.09


     Writing all to output data dir ./outdir/mg2ni_co.save/ :
     XML data file, charge density, pseudopotentials, collected wavefunctions
 
     init_run     :     50.20s CPU     22.35s WALL (       2 calls)
     electrons    :   2887.02s CPU   2582.62s WALL (       5 calls)
     update_pot   :      3.52s CPU      0.26s WALL (       3 calls)
     forces       :     19.15s CPU     17.82s WALL (       5 calls)
     force_dftd3  :      1.26s CPU      1.13s WALL (       5 calls)
     stress       :     46.95s CPU     43.16s WALL (       5 calls)
     stres_dftd3  :      1.27s CPU      1.12s WALL (       5 calls)

     Called by init_run:
     wfcinit      :     18.47s CPU     18.86s WALL (       2 calls)
     potinit      :     29.97s CPU      1.83s WALL (       2 calls)
     hinit0       :      0.80s CPU      0.57s WALL (       2 calls)

     Called by electrons:
     c_bands      :   2418.38s CPU   2288.51s WALL (     120 calls)
     sum_band     :    311.37s CPU    264.21s WALL (     120 calls)
     v_of_rho     :      0.74s CPU      0.60s WALL (     122 calls)
     newd         :     21.52s CPU     19.99s WALL (     122 calls)
     PAW_pot      :    127.40s CPU      6.89s WALL (     125 calls)
     mix_rho      :      1.63s CPU      1.35s WALL (     120 calls)
     energy_dftd3 :      1.21s CPU      1.20s WALL (       5 calls)

     Called by c_bands:
     init_us_2    :     38.71s CPU     30.09s WALL (   65280 calls)
     cegterg      :   2257.40s CPU   2132.00s WALL (   30720 calls)

     Called by *egterg:
     cdiaghg      :    661.19s CPU    702.99s WALL (   93896 calls)
                                      702.57s GPU  (   93896 calls)
     h_psi        :    727.00s CPU    613.81s WALL (   95944 calls)
     s_psi        :    182.45s CPU    182.29s WALL (   95944 calls)
     g_psi        :      4.06s CPU      3.91s WALL (   64712 calls)

     Called by h_psi:
     h_psi:calbec :      3.15s CPU      2.64s WALL (   95944 calls)
     vloc_psi     :    524.10s CPU    412.54s WALL (   95944 calls)
                                      412.29s GPU  (   95944 calls)
     add_vuspsi   :    195.47s CPU    195.45s WALL (   95944 calls)

     General routines
     calbec       :      3.71s CPU      3.16s WALL (  149192 calls)
     fft          :     24.99s CPU      1.56s WALL (    1707 calls)
                                        0.20s GPU  (    1585 calls)
     ffts         :     11.42s CPU      0.69s WALL (     242 calls)
                                        0.01s GPU  (     120 calls)
     fftw         :      7.51s CPU    420.09s WALL ( 1077040 calls)
                                      416.93s GPU  ( 1077040 calls)
     interpolate  :     36.99s CPU      2.23s WALL (     122 calls)
 
 
     PWSCF        :  50m20.50s CPU  44m32.75s WALL

 
   This run was terminated on:  10:57:18  11Jun2026            

=------------------------------------------------------------------------------=
   JOB DONE.
=------------------------------------------------------------------------------=
