
     Program PWSCF v.7.5 starts on 10Jun2026 at 13:48:49 

     This program is part of the open-source Quantum ESPRESSO suite
     for quantum simulation of materials; please cite
         "P. Giannozzi et al., J. Phys.:Condens. Matter 21 395502 (2009);
         "P. Giannozzi et al., J. Phys.:Condens. Matter 29 465901 (2017);
         "P. Giannozzi et al., J. Chem. Phys. 152 154105 (2020);
          URL http://www.quantum-espresso.org", 
     in publications or presentations arising from this work. More details at
     http://www.quantum-espresso.org/quote

     Serial multi-threaded version, running on   32 processor cores
     16972 MiB available memory on the printing compute node when the environment starts
 
     Reading input from inputs/mg2nih4_ni.in

     Current dimensions of program PWSCF are:
     Max number of different atomic species (ntypx) = 10
     Max number of k-points (npk) =  40000
     Max angular momentum in pseudopotentials (lmaxx) =  4
     file Mg.pbe-n-kjpaw_psl.0.3.0.UPF: wavefunction(s)  3S renormalized
 
 
     G-vector sticks info
     --------------------
     sticks:   dense  smooth     PW     G-vecs:    dense   smooth      PW
     Sum        6253    3123    899               326697   115555   17991
 
     Using Slab Decomposition
 


     bravais-lattice index     =            0
     lattice parameter (alat)  =      14.8381  a.u.
     unit-cell volume          =    1839.4989 (a.u.)^3
     number of atoms/cell      =           28
     number of atomic types    =            3
     number of electrons       =       120.00
     number of Kohn-Sham states=           72
     kinetic-energy cutoff     =      60.0000  Ry
     charge density cutoff     =     480.0000  Ry
     scf convergence threshold =      1.0E-09
     mixing beta               =       0.3000
     number of iterations used =           12  plain     mixing
     energy convergence thresh.=      1.0E-05
     force convergence thresh. =      1.0E-04
     press convergence thresh. =      5.0E-01
     Exchange-correlation= PBE
                           (   1   4   3   4   0   0   0)
     nstep                     =          200


     GPU acceleration is ACTIVE.  1 visible GPUs per MPI rank


     celldm(1)=  14.838115  celldm(2)=   0.000000  celldm(3)=   0.000000
     celldm(4)=   0.000000  celldm(5)=   0.000000  celldm(6)=   0.000000

     crystal axes: (cart. coord. in units of alat)
               a(1) = (   1.000000   0.000000   0.000000 )  
               a(2) = (  -0.668677   0.743553   0.000000 )  
               a(3) = (  -0.298371   0.132953   0.757271 )  

     reciprocal axes: (cart. coord. in units 2 pi/alat)
               b(1) = (  1.000000  0.899299  0.236120 )  
               b(2) = (  0.000000  1.344893 -0.236120 )  
               b(3) = (  0.000000 -0.000000  1.320532 )  


     PseudoPot. # 1 for Ni read from file:
     /home/x/Workspace/3-hEspesso/pseudo/ni_pbe_v1.4.uspp.F.UPF
     MD5 check sum: 1ee80287db30b12d2bc1f57a5b5d6409
     Pseudo is Ultrasoft + core correction, Zval = 18.0
     Generated by new atomic code, or converted to UPF format
     Using radial grid of  865 points,  6 beta functions with: 
                l(1) =   0
                l(2) =   0
                l(3) =   1
                l(4) =   1
                l(5) =   2
                l(6) =   2
     Q(r) pseudized with 10 coefficients,  rinner =    0.980   0.980   0.980
                                                       0.980   0.980

     PseudoPot. # 2 for Mg read from file:
     /home/x/Workspace/3-hEspesso/pseudo/Mg.pbe-n-kjpaw_psl.0.3.0.UPF
     MD5 check sum: 24ecedc7f3e3cbe212e682f4413594e4
     Pseudo is Projector augmented-wave + core cor, Zval =  2.0
     Generated using "atomic" code by A. Dal Corso  v.5.0.99 svn rev. 10869
     Shape of augmentation charge: PSQ
     Using radial grid of 1129 points,  4 beta functions with: 
                l(1) =   0
                l(2) =   0
                l(3) =   1
                l(4) =   1
     Q(r) pseudized with 0 coefficients 


     PseudoPot. # 3 for H  read from file:
     /home/x/Workspace/3-hEspesso/pseudo/H.pbe-rrkjus_psl.1.0.0.UPF
     MD5 check sum: f52b6d4d1c606e5624b1dc7b2218f220
     Pseudo is Ultrasoft, Zval =  1.0
     Generated using "atomic" code by A. Dal Corso  v.5.1
     Using radial grid of  929 points,  2 beta functions with: 
                l(1) =   0
                l(2) =   0
     Q(r) pseudized with 0 coefficients 


     atomic species   valence    mass     pseudopotential
     Ni               18.00    58.69340     Ni( 1.00)
     Mg                2.00    24.30500     Mg( 1.00)
     H                 1.00     1.00794     H ( 1.00)

     No symmetry found



   Cartesian axes

     site n.     atom                  positions (alat units)
         1        Ni     tau(   1) = (  -0.5449835   0.6998890   0.6954563  )
         2        Mg     tau(   2) = (  -0.4043135   0.6143021   0.3168210  )
         3        Mg     tau(   3) = (   0.4372657   0.2622039   0.4404497  )
         4        Mg     tau(   4) = (   0.5779358   0.1766170   0.0618144  )
         5        Mg     tau(   5) = (   0.0996665   0.8255868   0.5679530  )
         6        Mg     tau(   6) = (  -0.0667142   0.0509192   0.1893177  )
         7        Mg     tau(   7) = (  -0.0665313   0.4526072   0.5679530  )
         8        Mg     tau(   8) = (   0.0994835   0.4238988   0.1893177  )
         9        Ni     tau(   9) = (  -0.2193840   0.7839183   0.6960861  )
        10        Ni     tau(  10) = (  -0.2490730   0.3160130   0.3174507  )
        11        Ni     tau(  11) = (   0.2820252   0.5604930   0.4398200  )
        12        Ni     tau(  12) = (   0.2523362   0.0925877   0.0611846  )
        13        H      tau(  13) = (  -0.0640921   0.6609375   0.7172772  )
        14        H      tau(  14) = (  -0.0537902   0.2827795   0.3386418  )
        15        H      tau(  15) = (   0.0867424   0.5937265   0.4186289  )
        16        H      tau(  16) = (   0.0970443   0.2155685   0.0399935  )
        17        H      tau(  17) = (   0.6618369   0.1393567   0.3221854  )
        18        H      tau(  18) = (   0.5210736   0.2247341   0.7008207  )
        19        H      tau(  19) = (  -0.4881213   0.6517719   0.0564500  )
        20        H      tau(  20) = (  -0.6288847   0.7371494   0.4350853  )
        21        H      tau(  21) = (  -0.3270821   0.7653669   0.5274469  )
        22        H      tau(  22) = (  -0.3072943   0.4084971   0.1488116  )
        23        H      tau(  23) = (   0.3402465   0.4680089   0.6084592  )
        24        H      tau(  24) = (   0.3600343   0.1111391   0.2298238  )
        25        H      tau(  25) = (   0.0754276   0.2497323   0.6631919  )
        26        H      tau(  26) = (   0.3452564   0.4540025   0.2845565  )
        27        H      tau(  27) = (  -0.3123042   0.4225035   0.4727142  )
        28        H      tau(  28) = (  -0.0424754   0.6267738   0.0940789  )

     --------------------------------------------
     DFT-D3 Dispersion Correction (3-body terms):
     --------------------------------------------
       Reference C6 values for interpolation: 

         atom   Coordination number   C6
         H          0.912             6.05
         H          0.000            15.18
         Mg         0.000          1366.75
         Mg         0.963           902.54
         Mg         1.950           351.12
         Ni         0.000          1149.49
         Ni         1.794           356.66
         Ni         6.546           257.56
         Ni         6.292           283.75

       Values used:

         atom   Coordination number  R0_AB[au]  C6      C8
         Ni         3.035            3.162    356.66  29885.72
         Mg         7.980            3.292    351.12  31436.69
         Mg         8.654            3.292    351.12  31436.69
         Mg         8.118            3.292    351.12  31436.69
         Mg         8.923            3.292    351.12  31436.69
         Mg         9.305            3.292    351.12  31436.69
         Mg         8.785            3.292    351.12  31436.69
         Mg         8.620            3.292    351.12  31436.69
         Ni         8.813            3.162    257.75  21597.70
         Ni         9.150            3.162    257.66  21589.95
         Ni         8.797            3.162    257.76  21598.19
         Ni         8.783            3.162    257.76  21598.66
         H          2.171            2.062      6.05     73.18
         H          2.171            2.062      6.05     73.18
         H          2.171            2.062      6.05     73.18
         H          2.171            2.062      6.05     73.18
         H          2.023            2.062      6.05     73.18
         H          2.022            2.062      6.05     73.18
         H          1.762            2.062      6.05     73.18
         H          1.700            2.062      6.05     73.19
         H          1.746            2.062      6.05     73.18
         H          1.612            2.062      6.05     73.19
         H          1.641            2.062      6.05     73.19
         H          1.997            2.062      6.05     73.18
         H          1.977            2.062      6.05     73.18
         H          2.109            2.062      6.05     73.18
         H          2.108            2.062      6.05     73.18
         H          1.642            2.062      6.05     73.19

         Molecular C6 ( Ry / a.u.^6 ) =     63337.33


     number of k points=   384  Marzari-Vanderbilt smearing, width (Ry)=  0.0100

     Number of k-points >= 100: set verbosity='high' to print them.

     Dense  grid:   326697 G-vectors     FFT dimensions: ( 108, 108,  90)

     Smooth grid:   115555 G-vectors     FFT dimensions: (  75,  75,  64)

     Estimated max dynamical RAM per process >       7.40 GB

     Check: negative core charge=   -0.000002

     Initial potential from superposition of free atoms

     starting charge     109.9934, renormalised to     120.0000
     Starting wfcs are  109 randomized atomic wfcs

     total cpu time spent up to now is       19.1 secs

     Self-consistent Calculation

     iteration #  1     ecut=    60.00 Ry     beta= 0.30
     Davidson diagonalization with overlap
     ethr =  1.00E-02,  avg # of iterations =  5.6

     total cpu time spent up to now is       77.2 secs

     total energy              =   -1875.13282859 Ry
     estimated scf accuracy    <     293.60760808 Ry

     iteration #  2     ecut=    60.00 Ry     beta= 0.30
     Davidson diagonalization with overlap
     ethr =  1.00E-02,  avg # of iterations =  4.0

     total cpu time spent up to now is      129.0 secs

     total energy              =   -1970.18549823 Ry
     estimated scf accuracy    <     114.70054642 Ry

     iteration #  3     ecut=    60.00 Ry     beta= 0.30
     Davidson diagonalization with overlap
     ethr =  1.00E-02,  avg # of iterations =  2.8

     total cpu time spent up to now is      171.4 secs

     total energy              =   -1971.53024185 Ry
     estimated scf accuracy    <      25.73639233 Ry

     iteration #  4     ecut=    60.00 Ry     beta= 0.30
     Davidson diagonalization with overlap
     ethr =  1.00E-02,  avg # of iterations =  2.0

     total cpu time spent up to now is      198.5 secs

     total energy              =   -1972.17812940 Ry
     estimated scf accuracy    <       7.62947854 Ry

     iteration #  5     ecut=    60.00 Ry     beta= 0.30
     Davidson diagonalization with overlap
     ethr =  6.36E-03,  avg # of iterations =  1.0

     total cpu time spent up to now is      221.6 secs

     total energy              =   -1970.09021389 Ry
     estimated scf accuracy    <       6.02289148 Ry

     iteration #  6     ecut=    60.00 Ry     beta= 0.30
     Davidson diagonalization with overlap
     ethr =  5.02E-03,  avg # of iterations =  2.0

     total cpu time spent up to now is      250.8 secs

     total energy              =   -1970.88363706 Ry
     estimated scf accuracy    <       2.88921814 Ry

     iteration #  7     ecut=    60.00 Ry     beta= 0.30
     Davidson diagonalization with overlap
     ethr =  2.41E-03,  avg # of iterations =  1.2

     total cpu time spent up to now is      275.8 secs

     total energy              =   -1970.87962956 Ry
     estimated scf accuracy    <       0.76588025 Ry

     iteration #  8     ecut=    60.00 Ry     beta= 0.30
     Davidson diagonalization with overlap
     ethr =  6.38E-04,  avg # of iterations =  3.4

     total cpu time spent up to now is      318.8 secs

     total energy              =   -1970.99596979 Ry
     estimated scf accuracy    <       0.95899562 Ry

     iteration #  9     ecut=    60.00 Ry     beta= 0.30
     Davidson diagonalization with overlap
     ethr =  6.38E-04,  avg # of iterations =  2.0

     total cpu time spent up to now is      346.4 secs

     total energy              =   -1970.95302165 Ry
     estimated scf accuracy    <       1.22466879 Ry

     iteration # 10     ecut=    60.00 Ry     beta= 0.30
     Davidson diagonalization with overlap
     ethr =  6.38E-04,  avg # of iterations =  1.1

     total cpu time spent up to now is      370.2 secs

     total energy              =   -1970.99765430 Ry
     estimated scf accuracy    <       0.13393610 Ry

     iteration # 11     ecut=    60.00 Ry     beta= 0.30
     Davidson diagonalization with overlap
     ethr =  1.12E-04,  avg # of iterations =  2.4

     total cpu time spent up to now is      404.0 secs

     total energy              =   -1971.01353138 Ry
     estimated scf accuracy    <       0.02877899 Ry

     iteration # 12     ecut=    60.00 Ry     beta= 0.30
     Davidson diagonalization with overlap
     ethr =  2.40E-05,  avg # of iterations =  4.5

     total cpu time spent up to now is      458.3 secs

     total energy              =   -1971.01175301 Ry
     estimated scf accuracy    <       0.02002814 Ry

     iteration # 13     ecut=    60.00 Ry     beta= 0.30
     Davidson diagonalization with overlap
     ethr =  1.67E-05,  avg # of iterations =  1.7

     total cpu time spent up to now is      488.4 secs

     total energy              =   -1971.01195894 Ry
     estimated scf accuracy    <       0.03387603 Ry

     iteration # 14     ecut=    60.00 Ry     beta= 0.30
     Davidson diagonalization with overlap
     ethr =  1.67E-05,  avg # of iterations =  1.0

     total cpu time spent up to now is      511.4 secs

     total energy              =   -1971.00855184 Ry
     estimated scf accuracy    <       0.02759297 Ry

     iteration # 15     ecut=    60.00 Ry     beta= 0.30
     Davidson diagonalization with overlap
     ethr =  1.67E-05,  avg # of iterations =  1.4

     total cpu time spent up to now is      538.6 secs

     total energy              =   -1971.01051639 Ry
     estimated scf accuracy    <       0.00041770 Ry

     iteration # 16     ecut=    60.00 Ry     beta= 0.30
     Davidson diagonalization with overlap
     ethr =  3.48E-07,  avg # of iterations =  4.7

     total cpu time spent up to now is      598.3 secs

     total energy              =   -1971.01082347 Ry
     estimated scf accuracy    <       0.00034958 Ry

     iteration # 17     ecut=    60.00 Ry     beta= 0.30
     Davidson diagonalization with overlap
     ethr =  2.91E-07,  avg # of iterations =  1.3

     total cpu time spent up to now is      624.6 secs

     total energy              =   -1971.01076841 Ry
     estimated scf accuracy    <       0.00069822 Ry

     iteration # 18     ecut=    60.00 Ry     beta= 0.30
     Davidson diagonalization with overlap
     ethr =  2.91E-07,  avg # of iterations =  2.0

     total cpu time spent up to now is      653.3 secs

     total energy              =   -1971.01081180 Ry
     estimated scf accuracy    <       0.00000780 Ry

     iteration # 19     ecut=    60.00 Ry     beta= 0.30
     Davidson diagonalization with overlap
     ethr =  6.50E-09,  avg # of iterations =  3.0

     total cpu time spent up to now is      690.4 secs

     total energy              =   -1971.01081447 Ry
     estimated scf accuracy    <       0.00001366 Ry

     iteration # 20     ecut=    60.00 Ry     beta= 0.30
     Davidson diagonalization with overlap
     ethr =  6.50E-09,  avg # of iterations =  1.1

     total cpu time spent up to now is      715.0 secs

     total energy              =   -1971.01081514 Ry
     estimated scf accuracy    <       0.00000076 Ry

     iteration # 21     ecut=    60.00 Ry     beta= 0.30
     Davidson diagonalization with overlap
     ethr =  6.31E-10,  avg # of iterations =  3.0

     total cpu time spent up to now is      749.6 secs

     total energy              =   -1971.01081531 Ry
     estimated scf accuracy    <       0.00000010 Ry

     iteration # 22     ecut=    60.00 Ry     beta= 0.30
     Davidson diagonalization with overlap
     ethr =  8.31E-11,  avg # of iterations =  2.8

     total cpu time spent up to now is      789.0 secs

     total energy              =   -1971.01081532 Ry
     estimated scf accuracy    <       0.00000002 Ry

     iteration # 23     ecut=    60.00 Ry     beta= 0.30
     Davidson diagonalization with overlap
     ethr =  1.82E-11,  avg # of iterations =  4.7

     total cpu time spent up to now is      834.2 secs

     End of self-consistent calculation

     Number of k-points >= 100: set verbosity='high' to print the bands.

     the Fermi energy is     5.5085 ev

!    total energy              =   -1971.01081533 Ry
     estimated scf accuracy    <          7.7E-10 Ry
     smearing contrib. (-TS)   =       0.00072858 Ry
     internal energy E=F+TS    =   -1971.01154391 Ry

     The total energy is F=E-TS. E is the sum of the following terms:
     one-electron contribution =   -1805.75842916 Ry
     hartree contribution      =     933.88840753 Ry
     xc contribution           =    -200.70002472 Ry
     ewald contribution        =    -679.11014960 Ry
     DFT-D3 Dispersion         =      -0.34067615 Ry
     one-center paw contrib.   =    -218.99067181 Ry

     convergence has been achieved in  23 iterations

     Forces acting on atoms (cartesian axes, Ry/au):

     atom    1 type  1   force =    -0.00360027    0.00075875    0.00775546
     atom    2 type  2   force =     0.00341721    0.00217396    0.00143153
     atom    3 type  2   force =    -0.00277575   -0.00126100    0.00039508
     atom    4 type  2   force =    -0.00219104   -0.00045121   -0.00561983
     atom    5 type  2   force =     0.01307781   -0.00463060    0.00556667
     atom    6 type  2   force =     0.00075369   -0.00042543    0.00015578
     atom    7 type  2   force =     0.00106809   -0.00139559   -0.00013589
     atom    8 type  2   force =    -0.00510052    0.00123094   -0.00257368
     atom    9 type  1   force =     0.00103568   -0.00314528   -0.00566287
     atom   10 type  1   force =     0.00134032   -0.00354845    0.00323633
     atom   11 type  1   force =    -0.00172296   -0.00165568    0.00542531
     atom   12 type  1   force =    -0.00258485    0.00202042   -0.00291094
     atom   13 type  3   force =     0.00082130    0.00071008    0.00384737
     atom   14 type  3   force =     0.00224271   -0.00118211    0.00082995
     atom   15 type  3   force =    -0.00303826    0.00041209   -0.00219281
     atom   16 type  3   force =     0.00222249   -0.00290681   -0.00120308
     atom   17 type  3   force =     0.00001090    0.00025214   -0.00179994
     atom   18 type  3   force =     0.00099822   -0.00077018   -0.00003354
     atom   19 type  3   force =     0.00497191   -0.00326880   -0.00321060
     atom   20 type  3   force =     0.00487341    0.00169358    0.00822490
     atom   21 type  3   force =    -0.00752638    0.00022185    0.00329784
     atom   22 type  3   force =     0.00188959    0.00728140   -0.01013158
     atom   23 type  3   force =     0.00800742    0.00839160    0.00218131
     atom   24 type  3   force =     0.00095072    0.00174498    0.00455268
     atom   25 type  3   force =    -0.00047065    0.00084629   -0.00238974
     atom   26 type  3   force =    -0.00163764    0.00065426    0.00081899
     atom   27 type  3   force =     0.00097241    0.00073187   -0.00166445
     atom   28 type  3   force =    -0.01800554   -0.00448306   -0.00819024

     Total force =     0.039189     Total SCF correction =     0.000047


     Computing stress (Cartesian axis) and pressure

          total   stress  (Ry/bohr**3)                   (kbar)     P=      -43.60
  -0.00031161  -0.00001810   0.00001299          -45.84       -2.66        1.91
  -0.00001810  -0.00027049  -0.00002823           -2.66      -39.79       -4.15
   0.00001299  -0.00002823  -0.00030698            1.91       -4.15      -45.16


     BFGS Geometry Optimization
     Energy error            =      1.5E-02 Ry
     Gradient error          =      1.8E-02 Ry/Bohr
     Cell gradient error     =      4.6E+01 kbar

     number of scf cycles    =   1
     number of bfgs steps    =   0

     enthalpy           new  =   -1971.0108153277 Ry

     new trust radius        =       0.0669949555 bohr
     new conv_thr            =       0.0000000010 Ry

     new unit-cell volume =   1798.91202 a.u.^3 (   266.57126 Ang^3 )
     density =      2.98835 g/cm^3

CELL_PARAMETERS (angstrom)
   7.790822860  -0.003552518   0.002550856
  -5.212182205   5.801269747  -0.005825731
  -2.323097878   1.033747368   5.898952552

ATOMIC_POSITIONS (angstrom)
Ni              -4.2484717675        5.4568394303        5.4176126611
Mg              -3.1495151575        4.7916990286        2.4649004358
Mg               3.4053948332        2.0402445816        3.4317361906
Mg               4.5009740806        1.3747874016        0.4791853611
Mg               0.7818681976        6.4327243797        4.4239445383
Mg              -0.5190609353        0.3960773262        1.4747423569
Mg              -0.5179313230        3.5261916403        4.4225894946
Mg               0.7713564274        3.3051883934        1.4716647116
Ni              -1.7096476665        6.1089670696        5.4158404752
Ni              -1.9400915797        2.4618111874        2.4728055520
Ni               2.1954361838        4.3669149863        3.4274223693
Ni               1.9643758390        0.7219098774        0.4753351099
H               -0.4994167847        5.1512067048        5.5870259805
H               -0.4180325996        2.2030602214        2.6373389216
H                0.6731576191        4.6280003530        3.2576232497
H                0.7565586987        1.6791015772        0.3100415962
H                5.1565864442        1.0828245564        2.5103528687
H                4.0611054584        1.7465379058        5.4606740162
H               -3.8024276281        5.0828035895        0.4333026458
H               -4.8984784988        5.7496591382        3.3886987670
H               -2.5535633237        5.9673723525        4.1063800238
H               -2.3941581509        3.1899234410        1.1511297245
H                2.6548922783        3.6497794642        4.7403689881
H                2.8056543934        0.8651246511        1.7934182203
H                0.5881999172        1.9441386008        5.1649665089
H                2.6880848954        3.5382583058        2.2159825950
H               -2.4328918796        3.2939353106        3.6792504845
H               -0.3423591030        4.8854228860        0.7251536331



     Writing config-only to output data dir ./outdir/mg2nih4_ni.save/ :
     XML data file
     NEW-OLD atomic charge density approx. for the potential
     New effective cutoffs (rho, wfc):  487.81   60.98

     Check: negative core charge=   -0.000002

     total cpu time spent up to now is      851.4 secs

     Self-consistent Calculation

     iteration #  1     ecut=    60.00 Ry     beta= 0.30
     Davidson diagonalization with overlap
     ethr =  1.00E-06,  avg # of iterations =  4.3

     total cpu time spent up to now is      908.3 secs

     total energy              =   -1971.01429618 Ry
     estimated scf accuracy    <       0.02172682 Ry

     iteration #  2     ecut=    60.00 Ry     beta= 0.30
     Davidson diagonalization with overlap
     ethr =  1.81E-05,  avg # of iterations =  3.0

     total cpu time spent up to now is      943.9 secs

     total energy              =   -1971.01158384 Ry
     estimated scf accuracy    <       0.13863110 Ry

     iteration #  3     ecut=    60.00 Ry     beta= 0.30
     Davidson diagonalization with overlap
     ethr =  1.81E-05,  avg # of iterations =  2.9

     total cpu time spent up to now is      976.8 secs

     total energy              =   -1971.01943753 Ry
     estimated scf accuracy    <       0.06635733 Ry

     iteration #  4     ecut=    60.00 Ry     beta= 0.30
     Davidson diagonalization with overlap
     ethr =  1.81E-05,  avg # of iterations =  1.0

     total cpu time spent up to now is      999.8 secs

     total energy              =   -1971.02231858 Ry
     estimated scf accuracy    <       0.00019271 Ry

     iteration #  5     ecut=    60.00 Ry     beta= 0.30
     Davidson diagonalization with overlap
     ethr =  1.61E-07,  avg # of iterations =  3.0

     total cpu time spent up to now is     1037.6 secs

     total energy              =   -1971.02241298 Ry
     estimated scf accuracy    <       0.00072624 Ry

     iteration #  6     ecut=    60.00 Ry     beta= 0.30
     Davidson diagonalization with overlap
     ethr =  1.61E-07,  avg # of iterations =  2.0

     total cpu time spent up to now is     1065.8 secs

     total energy              =   -1971.02244670 Ry
     estimated scf accuracy    <       0.00005818 Ry

     iteration #  7     ecut=    60.00 Ry     beta= 0.30
     Davidson diagonalization with overlap
     ethr =  4.85E-08,  avg # of iterations =  1.0

     total cpu time spent up to now is     1089.0 secs

     total energy              =   -1971.02244831 Ry
     estimated scf accuracy    <       0.00002329 Ry

     iteration #  8     ecut=    60.00 Ry     beta= 0.30
     Davidson diagonalization with overlap
     ethr =  1.94E-08,  avg # of iterations =  1.6

     total cpu time spent up to now is     1117.2 secs

     total energy              =   -1971.02245028 Ry
     estimated scf accuracy    <       0.00000683 Ry

     iteration #  9     ecut=    60.00 Ry     beta= 0.30
     Davidson diagonalization with overlap
     ethr =  5.69E-09,  avg # of iterations =  1.4

     total cpu time spent up to now is     1145.2 secs

     total energy              =   -1971.02245064 Ry
     estimated scf accuracy    <       0.00000141 Ry

     iteration # 10     ecut=    60.00 Ry     beta= 0.30
     Davidson diagonalization with overlap
     ethr =  1.17E-09,  avg # of iterations =  4.3

     total cpu time spent up to now is     1187.5 secs

     total energy              =   -1971.02245101 Ry
     estimated scf accuracy    <       0.00000128 Ry

     iteration # 11     ecut=    60.00 Ry     beta= 0.30
     Davidson diagonalization with overlap
     ethr =  1.06E-09,  avg # of iterations =  1.0

     total cpu time spent up to now is     1210.7 secs

     total energy              =   -1971.02245110 Ry
     estimated scf accuracy    <       0.00000009 Ry

     iteration # 12     ecut=    60.00 Ry     beta= 0.30
     Davidson diagonalization with overlap
     ethr =  7.82E-11,  avg # of iterations =  2.2

     total cpu time spent up to now is     1241.6 secs

     total energy              =   -1971.02245111 Ry
     estimated scf accuracy    <          7.3E-09 Ry

     iteration # 13     ecut=    60.00 Ry     beta= 0.30
     Davidson diagonalization with overlap
     ethr =  6.11E-12,  avg # of iterations =  2.1

     total cpu time spent up to now is     1271.8 secs

     total energy              =   -1971.02245112 Ry
     estimated scf accuracy    <          1.1E-09 Ry

     iteration # 14     ecut=    60.00 Ry     beta= 0.30
     Davidson diagonalization with overlap
     ethr =  9.21E-13,  avg # of iterations =  1.2

     total cpu time spent up to now is     1296.1 secs

     End of self-consistent calculation

     Number of k-points >= 100: set verbosity='high' to print the bands.

     the Fermi energy is     5.7155 ev

!    total energy              =   -1971.02245112 Ry
     estimated scf accuracy    <          2.4E-10 Ry
     smearing contrib. (-TS)   =       0.00066731 Ry
     internal energy E=F+TS    =   -1971.02311842 Ry

     The total energy is F=E-TS. E is the sum of the following terms:
     one-electron contribution =   -1796.89993371 Ry
     hartree contribution      =     930.24690739 Ry
     xc contribution           =    -200.85753752 Ry
     ewald contribution        =    -684.15648803 Ry
     DFT-D3 Dispersion         =      -0.34800853 Ry
     one-center paw contrib.   =    -219.00805802 Ry

     convergence has been achieved in  14 iterations

     Forces acting on atoms (cartesian axes, Ry/au):

     atom    1 type  1   force =    -0.00321829   -0.00074841    0.00898273
     atom    2 type  2   force =     0.00442319    0.00225672    0.00188335
     atom    3 type  2   force =    -0.00319563   -0.00155236   -0.00029058
     atom    4 type  2   force =    -0.00208841    0.00061390   -0.00564341
     atom    5 type  2   force =     0.01239184   -0.00395042    0.00476045
     atom    6 type  2   force =     0.00046349   -0.00085947    0.00032869
     atom    7 type  2   force =     0.00142188   -0.00040782   -0.00004087
     atom    8 type  2   force =    -0.00545476    0.00053255   -0.00259230
     atom    9 type  1   force =     0.00108411   -0.00459235   -0.00575365
     atom   10 type  1   force =     0.00246339   -0.00111955   -0.00114999
     atom   11 type  1   force =    -0.00299053   -0.00169947    0.00609613
     atom   12 type  1   force =    -0.00146714    0.00324167    0.00041431
     atom   13 type  3   force =     0.00350423   -0.00080523    0.00515012
     atom   14 type  3   force =     0.00541190   -0.00228446    0.00196978
     atom   15 type  3   force =    -0.00566605    0.00150400   -0.00337998
     atom   16 type  3   force =    -0.00132916   -0.00086336   -0.00241716
     atom   17 type  3   force =    -0.00186765   -0.00398020   -0.00201107
     atom   18 type  3   force =     0.00236916    0.00250038   -0.00015718
     atom   19 type  3   force =     0.00388967   -0.00680246   -0.00306081
     atom   20 type  3   force =     0.00603001    0.00449873    0.00850361
     atom   21 type  3   force =    -0.00978591   -0.00027770    0.00042829
     atom   22 type  3   force =     0.00203426    0.00770080   -0.01086005
     atom   23 type  3   force =     0.00919138    0.00702502    0.00520721
     atom   24 type  3   force =     0.00185773    0.00204035    0.00612812
     atom   25 type  3   force =     0.00176366    0.00068042   -0.00600714
     atom   26 type  3   force =    -0.00009097   -0.00081393   -0.00243025
     atom   27 type  3   force =    -0.00087737    0.00267126    0.00211518
     atom   28 type  3   force =    -0.02026800   -0.00450859   -0.00617353

     Total force =     0.043647     Total SCF correction =     0.000048


     Computing stress (Cartesian axis) and pressure

          total   stress  (Ry/bohr**3)                   (kbar)     P=      -28.05
  -0.00020548  -0.00001699   0.00001475          -30.23       -2.50        2.17
  -0.00001699  -0.00016482  -0.00002393           -2.50      -24.25       -3.52
   0.00001475  -0.00002393  -0.00020177            2.17       -3.52      -29.68

     Energy error            =      1.2E-02 Ry
     Gradient error          =      2.0E-02 Ry/Bohr
     Cell gradient error     =      3.0E+01 kbar

     number of scf cycles    =   2
     number of bfgs steps    =   1

     enthalpy           old  =   -1971.0108153277 Ry
     enthalpy           new  =   -1971.0224511174 Ry

     CASE: enthalpy          _new < enthalpy          _old

     new trust radius        =       0.1001651930 bohr
     new conv_thr            =       0.0000000010 Ry

     new unit-cell volume =   1740.55494 a.u.^3 (   257.92363 Ang^3 )
     density =      3.08855 g/cm^3

CELL_PARAMETERS (angstrom)
   7.699334266  -0.010822930   0.008747673
  -5.156411378   5.750973482  -0.017671395
  -2.292074666   1.018210856   5.827668220

ATOMIC_POSITIONS (angstrom)
Ni              -4.2030178952        5.4009724055        5.3544190090
Mg              -3.1101791733        4.7483032123        2.4296222227
Mg               3.3626799404        2.0113436854        3.3918904557
Mg               4.4448357479        1.3574489003        0.4690525042
Mg               0.7842429202        6.3603022719        4.3704283351
Mg              -0.5116024427        0.3898997759        1.4571412666
Mg              -0.5100579881        3.4866509239        4.3663946896
Mg               0.7542646804        3.2717559696        1.4479582303
Ni              -1.6897536943        6.0401998924        5.3373793216
Ni              -1.9149873251        2.4353685922        2.4386382846
Ni               2.1650825993        4.3168061252        3.3906008254
Ni               1.9392272299        0.7161012038        0.4705434260
H               -0.4902564701        5.0944425955        5.5209631219
H               -0.4073275061        2.1764925360        2.6057475570
H                0.6574158940        4.5805931388        3.2107076702
H                0.7452414282        1.6608109895        0.3022372429
H                5.0951259843        1.0603139028        2.4818307818
H                4.0186487180        1.7212853484        5.3984246978
H               -3.7576790519        5.0301316587        0.4150371887
H               -4.8369629312        5.6997663426        3.3475642251
H               -2.5366604397        5.9072707427        4.0497836860
H               -2.3658687281        3.1689776186        1.1194976916
H                2.6342960354        3.6143040187        4.6884571555
H                2.7753248112        0.8541234571        1.7805439883
H                0.5853237908        1.9189959935        5.0968876004
H                2.6546952626        3.4983683667        2.1854611534
H               -2.4052554431        3.2627680803        3.6324218315
H               -0.3649208543        4.8332619674        0.7027888195



     Writing config-only to output data dir ./outdir/mg2nih4_ni.save/ :
     XML data file
     NEW-OLD atomic charge density approx. for the potential
     New effective cutoffs (rho, wfc):  500.18   62.53

     Check: negative core charge=   -0.000002

     total cpu time spent up to now is     1313.3 secs

     Self-consistent Calculation

     iteration #  1     ecut=    60.00 Ry     beta= 0.30
     Davidson diagonalization with overlap
     c_bands:  1 eigenvalues not converged
     c_bands:  1 eigenvalues not converged
     c_bands:  1 eigenvalues not converged
     c_bands:  1 eigenvalues not converged
     ethr =  1.00E-06,  avg # of iterations =  5.9

     total cpu time spent up to now is     1386.7 secs

     total energy              =   -1971.01681002 Ry
     estimated scf accuracy    <       0.04581190 Ry

     iteration #  2     ecut=    60.00 Ry     beta= 0.30
     Davidson diagonalization with overlap
     ethr =  3.82E-05,  avg # of iterations =  3.0

     total cpu time spent up to now is     1422.3 secs

     total energy              =   -1971.01392168 Ry
     estimated scf accuracy    <       0.23990609 Ry

     iteration #  3     ecut=    60.00 Ry     beta= 0.30
     Davidson diagonalization with overlap
     ethr =  3.82E-05,  avg # of iterations =  2.8

     total cpu time spent up to now is     1455.2 secs

     total energy              =   -1971.02830707 Ry
     estimated scf accuracy    <       0.10940746 Ry

     iteration #  4     ecut=    60.00 Ry     beta= 0.30
     Davidson diagonalization with overlap
     ethr =  3.82E-05,  avg # of iterations =  1.0

     total cpu time spent up to now is     1478.2 secs

     total energy              =   -1971.03339947 Ry
     estimated scf accuracy    <       0.00062761 Ry

     iteration #  5     ecut=    60.00 Ry     beta= 0.30
     Davidson diagonalization with overlap
     ethr =  5.23E-07,  avg # of iterations =  3.0

     total cpu time spent up to now is     1514.6 secs

     total energy              =   -1971.03352307 Ry
     estimated scf accuracy    <       0.00196243 Ry

     iteration #  6     ecut=    60.00 Ry     beta= 0.30
     Davidson diagonalization with overlap
     ethr =  5.23E-07,  avg # of iterations =  2.0

     total cpu time spent up to now is     1542.6 secs

     total energy              =   -1971.03363196 Ry
     estimated scf accuracy    <       0.00010143 Ry

     iteration #  7     ecut=    60.00 Ry     beta= 0.30
     Davidson diagonalization with overlap
     ethr =  8.45E-08,  avg # of iterations =  2.0

     total cpu time spent up to now is     1570.5 secs

     total energy              =   -1971.03363367 Ry
     estimated scf accuracy    <       0.00009129 Ry

     iteration #  8     ecut=    60.00 Ry     beta= 0.30
     Davidson diagonalization with overlap
     ethr =  7.61E-08,  avg # of iterations =  1.0

     total cpu time spent up to now is     1593.7 secs

     total energy              =   -1971.03364115 Ry
     estimated scf accuracy    <       0.00001052 Ry

     iteration #  9     ecut=    60.00 Ry     beta= 0.30
     Davidson diagonalization with overlap
     ethr =  8.77E-09,  avg # of iterations =  3.6

     total cpu time spent up to now is     1640.3 secs

     total energy              =   -1971.03364208 Ry
     estimated scf accuracy    <       0.00000168 Ry

     iteration # 10     ecut=    60.00 Ry     beta= 0.30
     Davidson diagonalization with overlap
     ethr =  1.40E-09,  avg # of iterations =  4.1

     total cpu time spent up to now is     1688.1 secs

     total energy              =   -1971.03364277 Ry
     estimated scf accuracy    <       0.00000358 Ry

     iteration # 11     ecut=    60.00 Ry     beta= 0.30
     Davidson diagonalization with overlap
     ethr =  1.40E-09,  avg # of iterations =  2.0

     total cpu time spent up to now is     1716.4 secs

     total energy              =   -1971.03364303 Ry
     estimated scf accuracy    <       0.00000027 Ry

     iteration # 12     ecut=    60.00 Ry     beta= 0.30
     Davidson diagonalization with overlap
     ethr =  2.21E-10,  avg # of iterations =  2.0

     total cpu time spent up to now is     1744.1 secs

     total energy              =   -1971.03364306 Ry
     estimated scf accuracy    <       0.00000001 Ry

     iteration # 13     ecut=    60.00 Ry     beta= 0.30
     Davidson diagonalization with overlap
     ethr =  8.97E-12,  avg # of iterations =  2.0

     total cpu time spent up to now is     1773.5 secs

     total energy              =   -1971.03364307 Ry
     estimated scf accuracy    <          2.2E-09 Ry

     iteration # 14     ecut=    60.00 Ry     beta= 0.30
     Davidson diagonalization with overlap
     ethr =  1.83E-12,  avg # of iterations =  1.2

     total cpu time spent up to now is     1798.4 secs

     End of self-consistent calculation

     Number of k-points >= 100: set verbosity='high' to print the bands.

     the Fermi energy is     6.0326 ev

!    total energy              =   -1971.03364307 Ry
     estimated scf accuracy    <          3.3E-10 Ry
     smearing contrib. (-TS)   =       0.00060742 Ry
     internal energy E=F+TS    =   -1971.03425049 Ry

     The total energy is F=E-TS. E is the sum of the following terms:
     one-electron contribution =   -1782.89764688 Ry
     hartree contribution      =     924.46749491 Ry
     xc contribution           =    -201.08247951 Ry
     ewald contribution        =    -692.12795941 Ry
     DFT-D3 Dispersion         =      -0.35915212 Ry
     one-center paw contrib.   =    -219.03450748 Ry

     convergence has been achieved in  14 iterations

     Forces acting on atoms (cartesian axes, Ry/au):

     atom    1 type  1   force =    -0.00261264   -0.00348742    0.01127125
     atom    2 type  2   force =     0.00563001    0.00214450    0.00247729
     atom    3 type  2   force =    -0.00351027   -0.00176269   -0.00139931
     atom    4 type  2   force =    -0.00151679    0.00218252   -0.00540192
     atom    5 type  2   force =     0.01050131   -0.00238028    0.00290598
     atom    6 type  2   force =    -0.00001726   -0.00177251    0.00074095
     atom    7 type  2   force =     0.00188754    0.00099846    0.00031113
     atom    8 type  2   force =    -0.00574991   -0.00029044   -0.00262727
     atom    9 type  1   force =     0.00148797   -0.00516166   -0.00491397
     atom   10 type  1   force =     0.00317654    0.00152939   -0.00610120
     atom   11 type  1   force =    -0.00393440   -0.00117996    0.00543074
     atom   12 type  1   force =     0.00003085    0.00403214    0.00432008
     atom   13 type  3   force =     0.00664509   -0.00240010    0.00712200
     atom   14 type  3   force =     0.00877645   -0.00381232    0.00373442
     atom   15 type  3   force =    -0.00836212    0.00312337   -0.00520382
     atom   16 type  3   force =    -0.00592201    0.00156304   -0.00421538
     atom   17 type  3   force =    -0.00355575   -0.00802165   -0.00234150
     atom   18 type  3   force =     0.00345667    0.00518631   -0.00043352
     atom   19 type  3   force =     0.00346100   -0.00989095   -0.00264247
     atom   20 type  3   force =     0.00650727    0.00655412    0.00878994
     atom   21 type  3   force =    -0.01262816   -0.00069620   -0.00284465
     atom   22 type  3   force =     0.00250184    0.00771626   -0.01104614
     atom   23 type  3   force =     0.01090412    0.00542377    0.00883776
     atom   24 type  3   force =     0.00277732    0.00233596    0.00762854
     atom   25 type  3   force =     0.00381044    0.00019462   -0.00981556
     atom   26 type  3   force =     0.00168086   -0.00212029   -0.00573811
     atom   27 type  3   force =    -0.00296118    0.00439911    0.00590549
     atom   28 type  3   force =    -0.02246481   -0.00440710   -0.00475076

     Total force =     0.052748     Total SCF correction =     0.000045


     Computing stress (Cartesian axis) and pressure

          total   stress  (Ry/bohr**3)                   (kbar)     P=       -4.67
  -0.00004304  -0.00001623   0.00001835           -6.33       -2.39        2.70
  -0.00001623  -0.00000966  -0.00001349           -2.39       -1.42       -1.98
   0.00001835  -0.00001349  -0.00004257            2.70       -1.98       -6.26

     Energy error            =      1.1E-02 Ry
     Gradient error          =      2.2E-02 Ry/Bohr
     Cell gradient error     =      6.3E+00 kbar

     number of scf cycles    =   3
     number of bfgs steps    =   2

     enthalpy           old  =   -1971.0224511174 Ry
     enthalpy           new  =   -1971.0336430684 Ry

     CASE: enthalpy          _new < enthalpy          _old

     new trust radius        =       0.0852972105 bohr
     new conv_thr            =       0.0000000010 Ry

     new unit-cell volume =   1693.61200 a.u.^3 (   250.96741 Ang^3 )
     density =      3.17415 g/cm^3

CELL_PARAMETERS (angstrom)
   7.621885450  -0.020659458   0.018434618
  -5.111929847   5.715980319  -0.032362624
  -2.262942186   1.005352827   5.765573384

ATOMIC_POSITIONS (angstrom)
Ni              -4.1653805370        5.3562476913        5.3038885829
Mg              -3.0742392604        4.7177651765        2.3980785178
Mg               3.3254308314        1.9850298438        3.3583948837
Mg               4.3961588234        1.3433479053        0.4595059863
Mg               0.7915077271        6.3018460708        4.3249784511
Mg              -0.5047276032        0.3835795239        1.4423363855
Mg              -0.5013516418        3.4560782558        4.3176803057
Mg               0.7356599062        3.2453326703        1.4257540657
Ni              -1.6717232504        5.9836189047        5.2654935094
Ni              -1.8916162414        2.4166442498        2.4035383804
Ni               2.1369372334        4.2756397828        3.3622199424
Ni               1.9181312526        0.7131827630        0.4704900686
H               -0.4773307831        5.0478317887        5.4677170723
H               -0.3921553679        2.1527775280        2.5806459423
H                0.6384649940        4.5455064358        3.1665094994
H                0.7307959689        1.6477035347        0.2927400895
H                5.0417628313        1.0338086697        2.4588468178
H                3.9870908853        1.7012734441        5.3470905240
H               -3.7198273988        4.9854657313        0.3945337933
H               -4.7818773476        5.6679003966        3.3134006908
H               -2.5306975636        5.8612893376        3.9963821052
H               -2.3412796756        3.1594779199        1.0839289261
H                2.6245474674        3.5877748744        4.6506270455
H                2.7520340124        0.8451049994        1.7756159934
H                0.5873396191        1.8976942640        5.0326383833
H                2.6272616397        3.4644313356        2.1562854810
H               -2.3833579759        3.2421656098        3.5942777197
H               -0.3993707138        4.7909129261        0.6794361270



     Writing config-only to output data dir ./outdir/mg2nih4_ni.save/ :
     XML data file
     NEW-OLD atomic charge density approx. for the potential
     New effective cutoffs (rho, wfc):  511.48   63.95

     Check: negative core charge=   -0.000001

     total cpu time spent up to now is     1815.6 secs

     Self-consistent Calculation

     iteration #  1     ecut=    60.00 Ry     beta= 0.30
     Davidson diagonalization with overlap
     c_bands:  1 eigenvalues not converged
     c_bands:  1 eigenvalues not converged
     c_bands:  1 eigenvalues not converged
     c_bands:  1 eigenvalues not converged
     c_bands:  1 eigenvalues not converged
     c_bands:  1 eigenvalues not converged
     c_bands:  1 eigenvalues not converged
     ethr =  1.00E-06,  avg # of iterations =  6.8

     total cpu time spent up to now is     1899.8 secs

     total energy              =   -1971.02335731 Ry
     estimated scf accuracy    <       0.03156385 Ry

     iteration #  2     ecut=    60.00 Ry     beta= 0.30
     Davidson diagonalization with overlap
     ethr =  2.63E-05,  avg # of iterations =  3.0

     total cpu time spent up to now is     1935.1 secs

     total energy              =   -1971.02196274 Ry
     estimated scf accuracy    <       0.14218813 Ry

     iteration #  3     ecut=    60.00 Ry     beta= 0.30
     Davidson diagonalization with overlap
     ethr =  2.63E-05,  avg # of iterations =  2.8

     total cpu time spent up to now is     1968.4 secs

     total energy              =   -1971.03089306 Ry
     estimated scf accuracy    <       0.06616971 Ry

     iteration #  4     ecut=    60.00 Ry     beta= 0.30
     Davidson diagonalization with overlap
     ethr =  2.63E-05,  avg # of iterations =  1.0

     total cpu time spent up to now is     1991.3 secs

     total energy              =   -1971.03408283 Ry
     estimated scf accuracy    <       0.00073587 Ry

     iteration #  5     ecut=    60.00 Ry     beta= 0.30
     Davidson diagonalization with overlap
     ethr =  6.13E-07,  avg # of iterations =  2.9

     total cpu time spent up to now is     2026.8 secs

     total energy              =   -1971.03412186 Ry
     estimated scf accuracy    <       0.00225789 Ry

     iteration #  6     ecut=    60.00 Ry     beta= 0.30
     Davidson diagonalization with overlap
     ethr =  6.13E-07,  avg # of iterations =  2.0

     total cpu time spent up to now is     2055.0 secs

     total energy              =   -1971.03425931 Ry
     estimated scf accuracy    <       0.00009308 Ry

     iteration #  7     ecut=    60.00 Ry     beta= 0.30
     Davidson diagonalization with overlap
     ethr =  7.76E-08,  avg # of iterations =  2.0

     total cpu time spent up to now is     2083.9 secs

     total energy              =   -1971.03426213 Ry
     estimated scf accuracy    <       0.00013219 Ry

     iteration #  8     ecut=    60.00 Ry     beta= 0.30
     Davidson diagonalization with overlap
     ethr =  7.76E-08,  avg # of iterations =  1.2

     total cpu time spent up to now is     2109.3 secs

     total energy              =   -1971.03427097 Ry
     estimated scf accuracy    <       0.00001806 Ry

     iteration #  9     ecut=    60.00 Ry     beta= 0.30
     Davidson diagonalization with overlap
     ethr =  1.50E-08,  avg # of iterations =  2.0

     total cpu time spent up to now is     2136.9 secs

     total energy              =   -1971.03427203 Ry
     estimated scf accuracy    <       0.00000617 Ry

     iteration # 10     ecut=    60.00 Ry     beta= 0.30
     Davidson diagonalization with overlap
     ethr =  5.14E-09,  avg # of iterations =  3.8

     total cpu time spent up to now is     2184.7 secs

     total energy              =   -1971.03427296 Ry
     estimated scf accuracy    <       0.00000173 Ry

     iteration # 11     ecut=    60.00 Ry     beta= 0.30
     Davidson diagonalization with overlap
     ethr =  1.45E-09,  avg # of iterations =  4.1

     total cpu time spent up to now is     2228.7 secs

     total energy              =   -1971.03427381 Ry
     estimated scf accuracy    <       0.00000029 Ry

     iteration # 12     ecut=    60.00 Ry     beta= 0.30
     Davidson diagonalization with overlap
     ethr =  2.44E-10,  avg # of iterations =  1.0

     total cpu time spent up to now is     2252.1 secs

     total energy              =   -1971.03427384 Ry
     estimated scf accuracy    <       0.00000001 Ry

     iteration # 13     ecut=    60.00 Ry     beta= 0.30
     Davidson diagonalization with overlap
     ethr =  8.58E-12,  avg # of iterations =  2.5

     total cpu time spent up to now is     2287.1 secs

     total energy              =   -1971.03427384 Ry
     estimated scf accuracy    <          2.4E-09 Ry

     iteration # 14     ecut=    60.00 Ry     beta= 0.30
     Davidson diagonalization with overlap
     ethr =  1.99E-12,  avg # of iterations =  1.4

     total cpu time spent up to now is     2314.1 secs

     End of self-consistent calculation

     Number of k-points >= 100: set verbosity='high' to print the bands.

     the Fermi energy is     6.3082 ev

!    total energy              =   -1971.03427384 Ry
     estimated scf accuracy    <          5.6E-10 Ry
     smearing contrib. (-TS)   =       0.00058758 Ry
     internal energy E=F+TS    =   -1971.03486142 Ry

     The total energy is F=E-TS. E is the sum of the following terms:
     one-electron contribution =   -1770.04815877 Ry
     hartree contribution      =     919.12201581 Ry
     xc contribution           =    -201.25513343 Ry
     ewald contribution        =    -699.43341230 Ry
     DFT-D3 Dispersion         =      -0.36323021 Ry
     one-center paw contrib.   =    -219.05694252 Ry

     convergence has been achieved in  14 iterations

     Forces acting on atoms (cartesian axes, Ry/au):

     atom    1 type  1   force =    -0.00183642   -0.00753091    0.01343606
     atom    2 type  2   force =     0.00595151    0.00159841    0.00283217
     atom    3 type  2   force =    -0.00320680   -0.00147741   -0.00237958
     atom    4 type  2   force =    -0.00027902    0.00370670   -0.00440723
     atom    5 type  2   force =     0.00691572    0.00010188    0.00025442
     atom    6 type  2   force =    -0.00049732   -0.00288602    0.00125416
     atom    7 type  2   force =     0.00204401    0.00192625    0.00085892
     atom    8 type  2   force =    -0.00531203   -0.00066016   -0.00245587
     atom    9 type  1   force =     0.00302068   -0.00377472   -0.00359478
     atom   10 type  1   force =     0.00295379    0.00256175   -0.00779661
     atom   11 type  1   force =    -0.00424569   -0.00094800    0.00226246
     atom   12 type  1   force =     0.00044924    0.00464786    0.00637905
     atom   13 type  3   force =     0.00760873   -0.00248407    0.00866525
     atom   14 type  3   force =     0.00903002   -0.00483872    0.00524169
     atom   15 type  3   force =    -0.00835882    0.00439030   -0.00669348
     atom   16 type  3   force =    -0.00821180    0.00225655   -0.00558689
     atom   17 type  3   force =    -0.00343020   -0.00823574   -0.00265081
     atom   18 type  3   force =     0.00315004    0.00471594   -0.00077939
     atom   19 type  3   force =     0.00444592   -0.00948991   -0.00189625
     atom   20 type  3   force =     0.00514408    0.00559371    0.00848616
     atom   21 type  3   force =    -0.01359478   -0.00041957   -0.00341131
     atom   22 type  3   force =     0.00314322    0.00642062   -0.00931077
     atom   23 type  3   force =     0.01191513    0.00479440    0.00977721
     atom   24 type  3   force =     0.00273298    0.00233591    0.00725803
     atom   25 type  3   force =     0.00362230   -0.00043507   -0.01059385
     atom   26 type  3   force =     0.00237006   -0.00200012   -0.00631895
     atom   27 type  3   force =    -0.00362225    0.00406582    0.00632278
     atom   28 type  3   force =    -0.02190229   -0.00393570   -0.00515257

     Total force =     0.054195     Total SCF correction =     0.000048


     Computing stress (Cartesian axis) and pressure

          total   stress  (Ry/bohr**3)                   (kbar)     P=       15.51
   0.00010027  -0.00001345   0.00002105           14.75       -1.98        3.10
  -0.00001345   0.00011997   0.00000347           -1.98       17.65        0.51
   0.00002105   0.00000347   0.00009610            3.10        0.51       14.14

     Energy error            =      6.3E-04 Ry
     Gradient error          =      2.2E-02 Ry/Bohr
     Cell gradient error     =      1.8E+01 kbar

     number of scf cycles    =   4
     number of bfgs steps    =   3

     enthalpy           old  =   -1971.0336430684 Ry
     enthalpy           new  =   -1971.0342738421 Ry

     CASE: enthalpy          _new < enthalpy          _old

     new trust radius        =       0.0626661618 bohr
     new conv_thr            =       0.0000000006 Ry

     new unit-cell volume =   1677.29636 a.u.^3 (   248.54968 Ang^3 )
     density =      3.20503 g/cm^3

CELL_PARAMETERS (angstrom)
   7.591913699  -0.029264529   0.028507327
  -5.098263108   5.711739786  -0.043281914
  -2.247528153   1.001889336   5.738971178

ATOMIC_POSITIONS (angstrom)
Ni              -4.1516085067        5.3413172478        5.2901233749
Mg              -3.0565544249        4.7139923398        2.3845043499
Mg               3.3098132900        1.9730697964        3.3460162779
Mg               4.3761580036        1.3389664126        0.4550268763
Mg               0.8013594250        6.2837318723        4.3079533756
Mg              -0.5012693746        0.3795526556        1.4368812996
Mg              -0.4949704019        3.4485190487        4.2979703900
Mg               0.7229849379        3.2377262894        1.4148606083
Ni              -1.6618672332        5.9650193438        5.2312196793
Ni              -1.8798567248        2.4137868608        2.3831755588
Ni               2.1229815964        4.2613630073        3.3546036595
Ni               1.9096757965        0.7151017365        0.4755503394
H               -0.4655986049        5.0328963422        5.4520148472
H               -0.3788970870        2.1420684600        2.5737716585
H                0.6246165222        4.5390130860        3.1438319282
H                0.7193300011        1.6448909539        0.2853075101
H                5.0202011934        1.0155274006        2.4516112597
H                3.9805183278        1.6950031962        5.3292126331
H               -3.7038809315        4.9685607018        0.3807597406
H               -4.7568265138        5.6681402808        3.3023304330
H               -2.5394129464        5.8505075822        3.9705395365
H               -2.3304283679        3.1664290467        1.0591773106
H                2.6320499565        3.5837983974        4.6441785416
H                2.7460158838        0.8423868678        1.7815101986
H                0.5933790529        1.8901861011        4.9998720138
H                2.6175027546        3.4517727246        2.1423095314
H               -2.3761465703        3.2414553619        3.5805238473
H               -0.4335549188        4.7763211803        0.6639155077



     Writing config-only to output data dir ./outdir/mg2nih4_ni.save/ :
     XML data file
     NEW-OLD atomic charge density approx. for the potential
     New effective cutoffs (rho, wfc):  516.77   64.63

     Check: negative core charge=   -0.000001

     total cpu time spent up to now is     2331.6 secs

     Self-consistent Calculation

     iteration #  1     ecut=    60.00 Ry     beta= 0.30
     Davidson diagonalization with overlap
     ethr =  1.00E-06,  avg # of iterations =  5.3

     total cpu time spent up to now is     2401.7 secs

     total energy              =   -1971.03765037 Ry
     estimated scf accuracy    <       0.00646567 Ry

     iteration #  2     ecut=    60.00 Ry     beta= 0.30
     Davidson diagonalization with overlap
     ethr =  5.39E-06,  avg # of iterations =  3.0

     total cpu time spent up to now is     2437.1 secs

     total energy              =   -1971.03704735 Ry
     estimated scf accuracy    <       0.02453579 Ry

     iteration #  3     ecut=    60.00 Ry     beta= 0.30
     Davidson diagonalization with overlap
     ethr =  5.39E-06,  avg # of iterations =  2.6

     total cpu time spent up to now is     2470.0 secs

     total energy              =   -1971.03852465 Ry
     estimated scf accuracy    <       0.01256729 Ry

     iteration #  4     ecut=    60.00 Ry     beta= 0.30
     Davidson diagonalization with overlap
     ethr =  5.39E-06,  avg # of iterations =  1.0

     total cpu time spent up to now is     2493.3 secs

     total energy              =   -1971.03917109 Ry
     estimated scf accuracy    <       0.00099208 Ry

     iteration #  5     ecut=    60.00 Ry     beta= 0.30
     Davidson diagonalization with overlap
     ethr =  8.27E-07,  avg # of iterations =  2.0

     total cpu time spent up to now is     2522.2 secs

     total energy              =   -1971.03919812 Ry
     estimated scf accuracy    <       0.00120611 Ry

     iteration #  6     ecut=    60.00 Ry     beta= 0.30
     Davidson diagonalization with overlap
     ethr =  8.27E-07,  avg # of iterations =  1.0

     total cpu time spent up to now is     2545.3 secs

     total energy              =   -1971.03927495 Ry
     estimated scf accuracy    <       0.00004336 Ry

     iteration #  7     ecut=    60.00 Ry     beta= 0.30
     Davidson diagonalization with overlap
     ethr =  3.61E-08,  avg # of iterations =  2.8

     total cpu time spent up to now is     2581.7 secs

     total energy              =   -1971.03927838 Ry
     estimated scf accuracy    <       0.00011516 Ry

     iteration #  8     ecut=    60.00 Ry     beta= 0.30
     Davidson diagonalization with overlap
     ethr =  3.61E-08,  avg # of iterations =  2.0

     total cpu time spent up to now is     2608.4 secs

     total energy              =   -1971.03928409 Ry
     estimated scf accuracy    <       0.00001665 Ry

     iteration #  9     ecut=    60.00 Ry     beta= 0.30
     Davidson diagonalization with overlap
     ethr =  1.39E-08,  avg # of iterations =  2.0

     total cpu time spent up to now is     2635.3 secs

     total energy              =   -1971.03928498 Ry
     estimated scf accuracy    <       0.00000380 Ry

     iteration # 10     ecut=    60.00 Ry     beta= 0.30
     Davidson diagonalization with overlap
     ethr =  3.16E-09,  avg # of iterations =  2.9

     total cpu time spent up to now is     2671.7 secs

     total energy              =   -1971.03928556 Ry
     estimated scf accuracy    <       0.00000169 Ry

     iteration # 11     ecut=    60.00 Ry     beta= 0.30
     Davidson diagonalization with overlap
     ethr =  1.41E-09,  avg # of iterations =  5.1

     total cpu time spent up to now is     2716.4 secs

     total energy              =   -1971.03928607 Ry
     estimated scf accuracy    <       0.00000011 Ry

     iteration # 12     ecut=    60.00 Ry     beta= 0.30
     Davidson diagonalization with overlap
     ethr =  9.40E-11,  avg # of iterations =  2.3

     total cpu time spent up to now is     2747.8 secs

     total energy              =   -1971.03928609 Ry
     estimated scf accuracy    <       0.00000001 Ry

     iteration # 13     ecut=    60.00 Ry     beta= 0.30
     Davidson diagonalization with overlap
     ethr =  1.22E-11,  avg # of iterations =  1.4

     total cpu time spent up to now is     2774.6 secs

     total energy              =   -1971.03928609 Ry
     estimated scf accuracy    <          1.7E-09 Ry

     iteration # 14     ecut=    60.00 Ry     beta= 0.30
     Davidson diagonalization with overlap
     ethr =  1.43E-12,  avg # of iterations =  2.3

     total cpu time spent up to now is     2804.7 secs

     End of self-consistent calculation

     Number of k-points >= 100: set verbosity='high' to print the bands.

     the Fermi energy is     6.4142 ev

!    total energy              =   -1971.03928609 Ry
     estimated scf accuracy    <          4.2E-10 Ry
     smearing contrib. (-TS)   =       0.00058017 Ry
     internal energy E=F+TS    =   -1971.03986626 Ry

     The total energy is F=E-TS. E is the sum of the following terms:
     one-electron contribution =   -1763.91029581 Ry
     hartree contribution      =     916.48537419 Ry
     xc contribution           =    -201.29522563 Ry
     ewald contribution        =    -702.88872535 Ry
     DFT-D3 Dispersion         =      -0.36660321 Ry
     one-center paw contrib.   =    -219.06439045 Ry

     convergence has been achieved in  14 iterations

     Forces acting on atoms (cartesian axes, Ry/au):

     atom    1 type  1   force =    -0.00223173   -0.00861541    0.01498678
     atom    2 type  2   force =     0.00521792    0.00105926    0.00253785
     atom    3 type  2   force =    -0.00244156   -0.00078963   -0.00265239
     atom    4 type  2   force =     0.00037830    0.00322217   -0.00394969
     atom    5 type  2   force =     0.00560431    0.00145212   -0.00083160
     atom    6 type  2   force =    -0.00067639   -0.00352204    0.00150030
     atom    7 type  2   force =     0.00174223    0.00199603    0.00122628
     atom    8 type  2   force =    -0.00478405   -0.00033943   -0.00246212
     atom    9 type  1   force =     0.00152049   -0.00220595   -0.00264748
     atom   10 type  1   force =     0.00240178    0.00191559   -0.00587203
     atom   11 type  1   force =    -0.00244692    0.00008372    0.00087643
     atom   12 type  1   force =     0.00125663    0.00257902    0.00474155
     atom   13 type  3   force =     0.00583885   -0.00104247    0.00887514
     atom   14 type  3   force =     0.00585087   -0.00478628    0.00565683
     atom   15 type  3   force =    -0.00551029    0.00463567   -0.00698921
     atom   16 type  3   force =    -0.00713391    0.00093160   -0.00577218
     atom   17 type  3   force =    -0.00175861   -0.00484858   -0.00289605
     atom   18 type  3   force =     0.00172836    0.00188252   -0.00099274
     atom   19 type  3   force =     0.00681511   -0.00617047   -0.00152263
     atom   20 type  3   force =     0.00275250    0.00208655    0.00826832
     atom   21 type  3   force =    -0.01220287    0.00024681   -0.00036307
     atom   22 type  3   force =     0.00394998    0.00512013   -0.00731780
     atom   23 type  3   force =     0.01191681    0.00647085    0.00753427
     atom   24 type  3   force =     0.00161518    0.00203065    0.00487904
     atom   25 type  3   force =     0.00152522   -0.00097229   -0.00785689
     atom   26 type  3   force =     0.00176358   -0.00071235   -0.00413654
     atom   27 type  3   force =    -0.00257343    0.00201407    0.00337773
     atom   28 type  3   force =    -0.02011836   -0.00372189   -0.00819808

     Total force =     0.047630     Total SCF correction =     0.000050


     Computing stress (Cartesian axis) and pressure

          total   stress  (Ry/bohr**3)                   (kbar)     P=       17.18
   0.00011215  -0.00001030   0.00001670           16.50       -1.52        2.46
  -0.00001030   0.00012978   0.00001289           -1.52       19.09        1.90
   0.00001670   0.00001289   0.00010851            2.46        1.90       15.96

     Energy error            =      5.0E-03 Ry
     Gradient error          =      2.0E-02 Ry/Bohr
     Cell gradient error     =      1.9E+01 kbar

     number of scf cycles    =   5
     number of bfgs steps    =   4

     enthalpy           old  =   -1971.0342738421 Ry
     enthalpy           new  =   -1971.0392860936 Ry

     CASE: enthalpy          _new < enthalpy          _old

     new trust radius        =       0.0936540123 bohr
     new conv_thr            =       0.0000000010 Ry

     new unit-cell volume =   1662.69974 a.u.^3 (   246.38668 Ang^3 )
     density =      3.23317 g/cm^3

CELL_PARAMETERS (angstrom)
   7.562238079  -0.041171835   0.042692975
  -5.087228664   5.715083581  -0.056229931
  -2.229542211   1.001137513   5.711303484

ATOMIC_POSITIONS (angstrom)
Ni              -4.1392675229        5.3290741870        5.2849726970
Mg              -3.0362025162        4.7172317913        2.3715796311
Mg               3.2934526837        1.9614345274        3.3342326196
Mg               4.3557369713        1.3356867146        0.4497803891
Mg               0.8165275510        6.2717468960        4.2928173879
Mg              -0.4974355095        0.3741075570        1.4321226927
Mg              -0.4866342031        3.4459010665        4.2791610227
Mg               0.7060681137        3.2332121057        1.4028316898
Ni              -1.6512239808        5.9516836643        5.1943929279
Ni              -1.8663688266        2.4147648916        2.3596078505
Ni               2.1077264082        4.2505950627        3.3502623397
Ni               1.9017030833        0.7183917690        0.4835995653
H               -0.4497781842        5.0232451078        5.4425319535
H               -0.3617712718        2.1308114516        2.5704639523
H                0.6071208746        4.5398680743        3.1176209747
H                0.7038097023        1.6432830844        0.2749238336
H                4.9988997238        0.9939934821        2.4452424335
H                3.9772076877        1.6900310385        5.3131545970
H               -3.6848521484        4.9540700932        0.3642898795
H               -4.7303168354        5.6772856172        3.2956692579
H               -2.5566927576        5.8472578618        3.9447973188
H               -2.3178984658        3.1818297671        1.0277118663
H                2.6488459058        3.5881922623        4.6440851171
H                2.7416745409        0.8409448042        1.7923037527
H                0.6017899209        1.8844730537        4.9631614672
H                2.6081145919        3.4413882640        2.1282707278
H               -2.3696172063        3.2464209846        3.5671484383
H               -0.4840774863        4.7637644423        0.6419949959



     Writing config-only to output data dir ./outdir/mg2nih4_ni.save/ :
     XML data file
     NEW-OLD atomic charge density approx. for the potential
     New effective cutoffs (rho, wfc):  522.87   65.39

     Check: negative core charge=   -0.000001

     total cpu time spent up to now is     2821.7 secs

     Self-consistent Calculation

     iteration #  1     ecut=    60.00 Ry     beta= 0.30
     Davidson diagonalization with overlap
     c_bands:  1 eigenvalues not converged
     c_bands:  1 eigenvalues not converged
     ethr =  1.00E-06,  avg # of iterations =  7.0

     total cpu time spent up to now is     2907.3 secs

     total energy              =   -1971.04385703 Ry
     estimated scf accuracy    <       0.00862859 Ry

     iteration #  2     ecut=    60.00 Ry     beta= 0.30
     Davidson diagonalization with overlap
     ethr =  7.19E-06,  avg # of iterations =  2.2

     total cpu time spent up to now is     2939.4 secs

     total energy              =   -1971.04332729 Ry
     estimated scf accuracy    <       0.02039720 Ry

     iteration #  3     ecut=    60.00 Ry     beta= 0.30
     Davidson diagonalization with overlap
     ethr =  7.19E-06,  avg # of iterations =  2.0

     total cpu time spent up to now is     2967.3 secs

     total energy              =   -1971.04455466 Ry
     estimated scf accuracy    <       0.01167116 Ry

     iteration #  4     ecut=    60.00 Ry     beta= 0.30
     Davidson diagonalization with overlap
     ethr =  7.19E-06,  avg # of iterations =  1.9

     total cpu time spent up to now is     2996.7 secs

     total energy              =   -1971.04511585 Ry
     estimated scf accuracy    <       0.00468339 Ry

     iteration #  5     ecut=    60.00 Ry     beta= 0.30
     Davidson diagonalization with overlap
     ethr =  3.90E-06,  avg # of iterations =  1.0

     total cpu time spent up to now is     3019.8 secs

     total energy              =   -1971.04533071 Ry
     estimated scf accuracy    <       0.00167207 Ry

     iteration #  6     ecut=    60.00 Ry     beta= 0.30
     Davidson diagonalization with overlap
     ethr =  1.39E-06,  avg # of iterations =  1.0

     total cpu time spent up to now is     3042.7 secs

     total energy              =   -1971.04545221 Ry
     estimated scf accuracy    <       0.00007365 Ry

     iteration #  7     ecut=    60.00 Ry     beta= 0.30
     Davidson diagonalization with overlap
     ethr =  6.14E-08,  avg # of iterations =  2.3

     total cpu time spent up to now is     3075.4 secs

     total energy              =   -1971.04545050 Ry
     estimated scf accuracy    <       0.00027497 Ry

     iteration #  8     ecut=    60.00 Ry     beta= 0.30
     Davidson diagonalization with overlap
     ethr =  6.14E-08,  avg # of iterations =  2.0

     total cpu time spent up to now is     3103.2 secs

     total energy              =   -1971.04546445 Ry
     estimated scf accuracy    <       0.00002011 Ry

     iteration #  9     ecut=    60.00 Ry     beta= 0.30
     Davidson diagonalization with overlap
     ethr =  1.68E-08,  avg # of iterations =  2.0

     total cpu time spent up to now is     3130.9 secs

     total energy              =   -1971.04546639 Ry
     estimated scf accuracy    <       0.00000628 Ry

     iteration # 10     ecut=    60.00 Ry     beta= 0.30
     Davidson diagonalization with overlap
     ethr =  5.23E-09,  avg # of iterations =  5.6

     total cpu time spent up to now is     3182.6 secs

     total energy              =   -1971.04546743 Ry
     estimated scf accuracy    <       0.00000447 Ry

     iteration # 11     ecut=    60.00 Ry     beta= 0.30
     Davidson diagonalization with overlap
     ethr =  3.72E-09,  avg # of iterations =  2.1

     total cpu time spent up to now is     3215.0 secs

     total energy              =   -1971.04546788 Ry
     estimated scf accuracy    <       0.00000017 Ry

     iteration # 12     ecut=    60.00 Ry     beta= 0.30
     Davidson diagonalization with overlap
     ethr =  1.41E-10,  avg # of iterations =  4.3

     total cpu time spent up to now is     3268.7 secs

     total energy              =   -1971.04546814 Ry
     estimated scf accuracy    <       0.00000007 Ry

     iteration # 13     ecut=    60.00 Ry     beta= 0.30
     Davidson diagonalization with overlap
     ethr =  5.42E-11,  avg # of iterations =  1.7

     total cpu time spent up to now is     3297.3 secs

     total energy              =   -1971.04546815 Ry
     estimated scf accuracy    <          5.0E-09 Ry

     iteration # 14     ecut=    60.00 Ry     beta= 0.30
     Davidson diagonalization with overlap
     ethr =  4.18E-12,  avg # of iterations =  2.2

     total cpu time spent up to now is     3327.4 secs

     End of self-consistent calculation

     Number of k-points >= 100: set verbosity='high' to print the bands.

     the Fermi energy is     6.5183 ev

!    total energy              =   -1971.04546815 Ry
     estimated scf accuracy    <          5.2E-10 Ry
     smearing contrib. (-TS)   =       0.00054558 Ry
     internal energy E=F+TS    =   -1971.04601373 Ry

     The total energy is F=E-TS. E is the sum of the following terms:
     one-electron contribution =   -1757.56779098 Ry
     hartree contribution      =     913.73347331 Ry
     xc contribution           =    -201.31910921 Ry
     ewald contribution        =    -706.45228947 Ry
     DFT-D3 Dispersion         =      -0.36972259 Ry
     one-center paw contrib.   =    -219.07057479 Ry

     convergence has been achieved in  14 iterations

     Forces acting on atoms (cartesian axes, Ry/au):

     atom    1 type  1   force =    -0.00280463   -0.01145308    0.01572273
     atom    2 type  2   force =     0.00379337    0.00025351    0.00214416
     atom    3 type  2   force =    -0.00123674    0.00033585   -0.00284722
     atom    4 type  2   force =     0.00145735    0.00288238   -0.00283032
     atom    5 type  2   force =     0.00280932    0.00342318   -0.00232526
     atom    6 type  2   force =    -0.00081654   -0.00407695    0.00164974
     atom    7 type  2   force =     0.00121165    0.00199710    0.00161682
     atom    8 type  2   force =    -0.00361330   -0.00012833   -0.00208106
     atom    9 type  1   force =     0.00125618    0.00003453   -0.00196102
     atom   10 type  1   force =     0.00186244    0.00078335   -0.00260866
     atom   11 type  1   force =    -0.00101515    0.00024118   -0.00188040
     atom   12 type  1   force =     0.00108040    0.00158087    0.00261431
     atom   13 type  3   force =     0.00243653    0.00141685    0.00849575
     atom   14 type  3   force =     0.00104819   -0.00440689    0.00578568
     atom   15 type  3   force =    -0.00086469    0.00462214   -0.00689923
     atom   16 type  3   force =    -0.00448128   -0.00152566   -0.00545989
     atom   17 type  3   force =     0.00055093    0.00003855   -0.00321047
     atom   18 type  3   force =    -0.00036672   -0.00204066   -0.00119842
     atom   19 type  3   force =     0.00944260   -0.00167301   -0.00082690
     atom   20 type  3   force =    -0.00059025   -0.00236668    0.00719891
     atom   21 type  3   force =    -0.00938958    0.00133333    0.00418507
     atom   22 type  3   force =     0.00465321    0.00263085   -0.00368311
     atom   23 type  3   force =     0.01126396    0.00854531    0.00356889
     atom   24 type  3   force =    -0.00016740    0.00152922    0.00111768
     atom   25 type  3   force =    -0.00128540   -0.00125515   -0.00380360
     atom   26 type  3   force =     0.00067970    0.00112291   -0.00069507
     atom   27 type  3   force =    -0.00089469   -0.00080632   -0.00096720
     atom   28 type  3   force =    -0.01601948   -0.00303836   -0.01082191

     Total force =     0.041585     Total SCF correction =     0.000067


     Computing stress (Cartesian axis) and pressure

          total   stress  (Ry/bohr**3)                   (kbar)     P=       17.69
   0.00011516  -0.00000133   0.00000855           16.94       -0.20        1.26
  -0.00000133   0.00013110   0.00002720           -0.20       19.29        4.00
   0.00000855   0.00002720   0.00011441            1.26        4.00       16.83

     Energy error            =      6.2E-03 Ry
     Gradient error          =      1.6E-02 Ry/Bohr
     Cell gradient error     =      1.9E+01 kbar

     number of scf cycles    =   6
     number of bfgs steps    =   5

     enthalpy           old  =   -1971.0392860936 Ry
     enthalpy           new  =   -1971.0454681518 Ry

     CASE: enthalpy          _new < enthalpy          _old

     new trust radius        =       0.1400134133 bohr
     new conv_thr            =       0.0000000010 Ry

     new unit-cell volume =   1656.31701 a.u.^3 (   245.44086 Ang^3 )
     density =      3.24562 g/cm^3

CELL_PARAMETERS (angstrom)
   7.541543273  -0.056052645   0.062128755
  -5.084381970   5.734879695  -0.069084331
  -2.210687589   1.007608978   5.689652603

ATOMIC_POSITIONS (angstrom)
Ni              -4.1331839421        5.3250387805        5.3032141200
Mg              -3.0145133746        4.7363063250        2.3651796856
Mg               3.2800781977        1.9553707958        3.3274567895
Mg               4.3405019576        1.3374819308        0.4443731587
Mg               0.8402898131        6.2794229448        4.2875222046
Mg              -0.4937628860        0.3669428664        1.4305114218
Mg              -0.4756185509        3.4567016346        4.2687319139
Mg               0.6844830888        3.2376893893        1.3922492655
Ni              -1.6392548744        5.9555987756        5.1626723228
Ni              -1.8519054318        2.4246049463        2.3360599096
Ni               2.0932666084        4.2514268951        3.3548523051
Ni               1.8961896261        0.7262933224        0.4968479822
H               -0.4286827767        5.0305909023        5.4517855388
H               -0.3402478515        2.1218639505        2.5771460198
H                0.5870421295        4.5589313960        3.0912724345
H                0.6839543466        1.6446130339        0.2607793803
H                4.9841863143        0.9724207897        2.4424918622
H                3.9823966874        1.6911827741        5.3063516183
H               -3.6627728663        4.9488017811        0.3472358050
H               -4.7069013299        5.7052226938        3.3027263684
H               -2.5884617089        5.8636168391        3.9284884683
H               -2.3043450964        3.2124258179        0.9904615460
H                2.6835770607        3.6132714688        4.6594815435
H                2.7423379238        0.8439473298        1.8114726974
H                0.6134919619        1.8859707101        4.9279721222
H                2.6026137465        3.4405582324        2.1188441980
H               -2.3660289758        3.2637928001        3.5591556634
H               -0.5580978083        4.7600152761        0.6124220459



     Writing config-only to output data dir ./outdir/mg2nih4_ni.save/ :
     XML data file
     NEW-OLD atomic charge density approx. for the potential
     New effective cutoffs (rho, wfc):  528.60   66.12

     Check: negative core charge=   -0.000001

     total cpu time spent up to now is     3344.6 secs

     Self-consistent Calculation

     iteration #  1     ecut=    60.00 Ry     beta= 0.30
     Davidson diagonalization with overlap
     c_bands:  1 eigenvalues not converged
     c_bands:  1 eigenvalues not converged
     c_bands:  1 eigenvalues not converged
     c_bands:  1 eigenvalues not converged
     ethr =  1.00E-06,  avg # of iterations =  8.6

     total cpu time spent up to now is     3447.2 secs

     total energy              =   -1971.05087754 Ry
     estimated scf accuracy    <       0.01380301 Ry

     iteration #  2     ecut=    60.00 Ry     beta= 0.30
     Davidson diagonalization with overlap
     ethr =  1.15E-05,  avg # of iterations =  2.1

     total cpu time spent up to now is     3477.7 secs

     total energy              =   -1971.04964650 Ry
     estimated scf accuracy    <       0.02344084 Ry

     iteration #  3     ecut=    60.00 Ry     beta= 0.30
     Davidson diagonalization with overlap
     ethr =  1.15E-05,  avg # of iterations =  2.0

     total cpu time spent up to now is     3505.6 secs

     total energy              =   -1971.05114231 Ry
     estimated scf accuracy    <       0.01607854 Ry

     iteration #  4     ecut=    60.00 Ry     beta= 0.30
     Davidson diagonalization with overlap
     ethr =  1.15E-05,  avg # of iterations =  2.0

     total cpu time spent up to now is     3532.8 secs

     total energy              =   -1971.05143033 Ry
     estimated scf accuracy    <       0.01747736 Ry

     iteration #  5     ecut=    60.00 Ry     beta= 0.30
     Davidson diagonalization with overlap
     ethr =  1.15E-05,  avg # of iterations =  1.0

     total cpu time spent up to now is     3555.7 secs

     total energy              =   -1971.05236868 Ry
     estimated scf accuracy    <       0.00092227 Ry

     iteration #  6     ecut=    60.00 Ry     beta= 0.30
     Davidson diagonalization with overlap
     ethr =  7.69E-07,  avg # of iterations =  2.0

     total cpu time spent up to now is     3584.6 secs

     total energy              =   -1971.05245712 Ry
     estimated scf accuracy    <       0.00030732 Ry

     iteration #  7     ecut=    60.00 Ry     beta= 0.30
     Davidson diagonalization with overlap
     ethr =  2.56E-07,  avg # of iterations =  2.0

     total cpu time spent up to now is     3612.8 secs

     total energy              =   -1971.05245379 Ry
     estimated scf accuracy    <       0.00052684 Ry

     iteration #  8     ecut=    60.00 Ry     beta= 0.30
     Davidson diagonalization with overlap
     ethr =  2.56E-07,  avg # of iterations =  1.0

     total cpu time spent up to now is     3636.2 secs

     total energy              =   -1971.05248883 Ry
     estimated scf accuracy    <       0.00001459 Ry

     iteration #  9     ecut=    60.00 Ry     beta= 0.30
     Davidson diagonalization with overlap
     ethr =  1.22E-08,  avg # of iterations =  4.8

     total cpu time spent up to now is     3683.6 secs

     total energy              =   -1971.05249372 Ry
     estimated scf accuracy    <       0.00000778 Ry

     iteration # 10     ecut=    60.00 Ry     beta= 0.30
     Davidson diagonalization with overlap
     ethr =  6.49E-09,  avg # of iterations =  1.4

     total cpu time spent up to now is     3710.5 secs

     total energy              =   -1971.05249400 Ry
     estimated scf accuracy    <       0.00000397 Ry

     iteration # 11     ecut=    60.00 Ry     beta= 0.30
     Davidson diagonalization with overlap
     ethr =  3.31E-09,  avg # of iterations =  1.1

     total cpu time spent up to now is     3734.5 secs

     total energy              =   -1971.05249433 Ry
     estimated scf accuracy    <       0.00000041 Ry

     iteration # 12     ecut=    60.00 Ry     beta= 0.30
     Davidson diagonalization with overlap
     ethr =  3.39E-10,  avg # of iterations =  2.5

     total cpu time spent up to now is     3765.9 secs

     total energy              =   -1971.05249440 Ry
     estimated scf accuracy    <       0.00000004 Ry

     iteration # 13     ecut=    60.00 Ry     beta= 0.30
     Davidson diagonalization with overlap
     ethr =  3.27E-11,  avg # of iterations =  2.0

     total cpu time spent up to now is     3795.3 secs

     total energy              =   -1971.05249441 Ry
     estimated scf accuracy    <          5.1E-09 Ry

     iteration # 14     ecut=    60.00 Ry     beta= 0.30
     Davidson diagonalization with overlap
     ethr =  4.25E-12,  avg # of iterations =  2.7

     total cpu time spent up to now is     3828.6 secs

     End of self-consistent calculation

     Number of k-points >= 100: set verbosity='high' to print the bands.

     the Fermi energy is     6.5824 ev

!    total energy              =   -1971.05249441 Ry
     estimated scf accuracy    <          3.8E-10 Ry
     smearing contrib. (-TS)   =       0.00047533 Ry
     internal energy E=F+TS    =   -1971.05296974 Ry

     The total energy is F=E-TS. E is the sum of the following terms:
     one-electron contribution =   -1752.31679074 Ry
     hartree contribution      =     911.35773755 Ry
     xc contribution           =    -201.29747479 Ry
     ewald contribution        =    -709.35365639 Ry
     DFT-D3 Dispersion         =      -0.37114173 Ry
     one-center paw contrib.   =    -219.07164364 Ry

     convergence has been achieved in  14 iterations

     Forces acting on atoms (cartesian axes, Ry/au):

     atom    1 type  1   force =    -0.00507584   -0.01469246    0.01349142
     atom    2 type  2   force =     0.00139068   -0.00058269    0.00154074
     atom    3 type  2   force =     0.00052170    0.00199021   -0.00278470
     atom    4 type  2   force =     0.00257142    0.00196029   -0.00141588
     atom    5 type  2   force =    -0.00033224    0.00536455   -0.00340511
     atom    6 type  2   force =    -0.00081396   -0.00417750    0.00148702
     atom    7 type  2   force =     0.00034926    0.00202276    0.00182214
     atom    8 type  2   force =    -0.00188934   -0.00029563   -0.00134177
     atom    9 type  1   force =    -0.00001173    0.00278093   -0.00166410
     atom   10 type  1   force =     0.00131605   -0.00128072    0.00274327
     atom   11 type  1   force =     0.00124342    0.00058403   -0.00461963
     atom   12 type  1   force =     0.00108541   -0.00033241   -0.00121552
     atom   13 type  3   force =    -0.00302912    0.00491670    0.00680429
     atom   14 type  3   force =    -0.00577257   -0.00332120    0.00511495
     atom   15 type  3   force =     0.00592766    0.00400358   -0.00590701
     atom   16 type  3   force =     0.00004740   -0.00499418   -0.00415073
     atom   17 type  3   force =     0.00369612    0.00705665   -0.00359075
     atom   18 type  3   force =    -0.00343395   -0.00719704   -0.00131275
     atom   19 type  3   force =     0.01244748    0.00454871    0.00014489
     atom   20 type  3   force =    -0.00533173   -0.00841990    0.00502426
     atom   21 type  3   force =    -0.00428956    0.00283872    0.01078348
     atom   22 type  3   force =     0.00487448   -0.00147943    0.00215633
     atom   23 type  3   force =     0.00947538    0.01139905   -0.00260157
     atom   24 type  3   force =    -0.00287275    0.00070755   -0.00459084
     atom   25 type  3   force =    -0.00494415   -0.00099208    0.00246277
     atom   26 type  3   force =    -0.00106155    0.00352255    0.00439701
     atom   27 type  3   force =     0.00173023   -0.00456075   -0.00720798
     atom   28 type  3   force =    -0.00781818   -0.00137027   -0.01216423

     Total force =     0.045552     Total SCF correction =     0.000075


     Computing stress (Cartesian axis) and pressure

          total   stress  (Ry/bohr**3)                   (kbar)     P=       12.05
   0.00007294   0.00001359  -0.00000604           10.73        2.00       -0.89
   0.00001359   0.00009202   0.00004099            2.00       13.54        6.03
  -0.00000604   0.00004099   0.00008085           -0.89        6.03       11.89

     Energy error            =      7.0E-03 Ry
     Gradient error          =      1.5E-02 Ry/Bohr
     Cell gradient error     =      1.4E+01 kbar

     number of scf cycles    =   7
     number of bfgs steps    =   6

     enthalpy           old  =   -1971.0454681518 Ry
     enthalpy           new  =   -1971.0524944094 Ry

     CASE: enthalpy          _new < enthalpy          _old

     new trust radius        =       0.1267847086 bohr
     new conv_thr            =       0.0000000010 Ry

     new unit-cell volume =   1664.49956 a.u.^3 (   246.65339 Ang^3 )
     density =      3.22967 g/cm^3

CELL_PARAMETERS (angstrom)
   7.542850395  -0.064457598   0.076290239
  -5.091464305   5.765358858  -0.071372134
  -2.201549573   1.022094968   5.689233632

ATOMIC_POSITIONS (angstrom)
Ni              -4.1397827754        5.3323302949        5.3477397665
Mg              -3.0014805572        4.7670708144        2.3741144324
Mg               3.2775375594        1.9634981146        3.3308648242
Mg               4.3406315733        1.3470828149        0.4410411828
Mg               0.8632869419        6.3136710806        4.3004781435
Mg              -0.4925275108        0.3611490570        1.4345123723
Mg              -0.4668948206        3.4824469679        4.2773521242
Mg               0.6686758097        3.2527246866        1.3904884746
Ni              -1.6316385926        5.9839098432        5.1574628162
Ni              -1.8430032417        2.4410665744        2.3283250234
Ni               2.0883842279        4.2703491165        3.3696030358
Ni               1.8971358001        0.7366358679        0.5088911708
H               -0.4131699788        5.0614352975        5.4845728297
H               -0.3263401136        2.1218250147        2.5954116620
H                0.5770708471        4.5948790406        3.0801787820
H                0.6701462794        1.6481441407        0.2493662380
H                4.9861669456        0.9676151087        2.4446382858
H                3.9937119534        1.7016640573        5.3156179290
H               -3.6437693469        4.9601321145        0.3416715670
H               -4.7002560611        5.7416817343        3.3286104779
H               -2.6210513490        5.9000113111        3.9401841539
H               -2.2947575389        3.2457742047        0.9691495712
H                2.7246550704        3.6589984999        4.6871769261
H                2.7476551805        0.8531729963        1.8294918373
H                0.6213521093        1.8989870722        4.9162462029
H                2.6049929916        3.4562416674        2.1231972056
H               -2.3670807624        3.2883364095        3.5626927452
H               -0.6219394156        4.7711132847        0.5890445384



     Writing config-only to output data dir ./outdir/mg2nih4_ni.save/ :
     XML data file
     NEW-OLD atomic charge density approx. for the potential
     New effective cutoffs (rho, wfc):  530.62   66.36

     Check: negative core charge=   -0.000001

     total cpu time spent up to now is     3846.2 secs

     Self-consistent Calculation

     iteration #  1     ecut=    60.00 Ry     beta= 0.30
     Davidson diagonalization with overlap
     c_bands:  1 eigenvalues not converged
     c_bands:  1 eigenvalues not converged
     ethr =  1.00E-06,  avg # of iterations =  7.6

     total cpu time spent up to now is     3939.1 secs

     total energy              =   -1971.05570365 Ry
     estimated scf accuracy    <       0.01206246 Ry

     iteration #  2     ecut=    60.00 Ry     beta= 0.30
     Davidson diagonalization with overlap
     ethr =  1.01E-05,  avg # of iterations =  2.1

     total cpu time spent up to now is     3969.5 secs

     total energy              =   -1971.05468783 Ry
     estimated scf accuracy    <       0.02018844 Ry

     iteration #  3     ecut=    60.00 Ry     beta= 0.30
     Davidson diagonalization with overlap
     ethr =  1.01E-05,  avg # of iterations =  2.0

     total cpu time spent up to now is     3998.0 secs

     total energy              =   -1971.05636217 Ry
     estimated scf accuracy    <       0.00958960 Ry

     iteration #  4     ecut=    60.00 Ry     beta= 0.30
     Davidson diagonalization with overlap
     ethr =  7.99E-06,  avg # of iterations =  2.0

     total cpu time spent up to now is     4025.2 secs

     total energy              =   -1971.05641520 Ry
     estimated scf accuracy    <       0.01211702 Ry

     iteration #  5     ecut=    60.00 Ry     beta= 0.30
     Davidson diagonalization with overlap
     ethr =  7.99E-06,  avg # of iterations =  1.0

     total cpu time spent up to now is     4048.4 secs

     total energy              =   -1971.05707401 Ry
     estimated scf accuracy    <       0.00081246 Ry

     iteration #  6     ecut=    60.00 Ry     beta= 0.30
     Davidson diagonalization with overlap
     ethr =  6.77E-07,  avg # of iterations =  2.0

     total cpu time spent up to now is     4077.0 secs

     total energy              =   -1971.05714090 Ry
     estimated scf accuracy    <       0.00029662 Ry

     iteration #  7     ecut=    60.00 Ry     beta= 0.30
     Davidson diagonalization with overlap
     ethr =  2.47E-07,  avg # of iterations =  1.9

     total cpu time spent up to now is     4105.1 secs

     total energy              =   -1971.05714262 Ry
     estimated scf accuracy    <       0.00035709 Ry

     iteration #  8     ecut=    60.00 Ry     beta= 0.30
     Davidson diagonalization with overlap
     ethr =  2.47E-07,  avg # of iterations =  1.1

     total cpu time spent up to now is     4129.1 secs

     total energy              =   -1971.05716854 Ry
     estimated scf accuracy    <       0.00001402 Ry

     iteration #  9     ecut=    60.00 Ry     beta= 0.30
     Davidson diagonalization with overlap
     ethr =  1.17E-08,  avg # of iterations =  4.8

     total cpu time spent up to now is     4176.8 secs

     total energy              =   -1971.05717193 Ry
     estimated scf accuracy    <       0.00000447 Ry

     iteration # 10     ecut=    60.00 Ry     beta= 0.30
     Davidson diagonalization with overlap
     ethr =  3.73E-09,  avg # of iterations =  2.6

     total cpu time spent up to now is     4211.4 secs

     total energy              =   -1971.05717229 Ry
     estimated scf accuracy    <       0.00000481 Ry

     iteration # 11     ecut=    60.00 Ry     beta= 0.30
     Davidson diagonalization with overlap
     ethr =  3.73E-09,  avg # of iterations =  1.0

     total cpu time spent up to now is     4234.7 secs

     total energy              =   -1971.05717268 Ry
     estimated scf accuracy    <       0.00000017 Ry

     iteration # 12     ecut=    60.00 Ry     beta= 0.30
     Davidson diagonalization with overlap
     ethr =  1.45E-10,  avg # of iterations =  4.0

     total cpu time spent up to now is     4286.2 secs

     total energy              =   -1971.05717296 Ry
     estimated scf accuracy    <       0.00000008 Ry

     iteration # 13     ecut=    60.00 Ry     beta= 0.30
     Davidson diagonalization with overlap
     ethr =  6.29E-11,  avg # of iterations =  1.0

     total cpu time spent up to now is     4309.2 secs

     total energy              =   -1971.05717296 Ry
     estimated scf accuracy    <          4.0E-09 Ry

     iteration # 14     ecut=    60.00 Ry     beta= 0.30
     Davidson diagonalization with overlap
     ethr =  3.31E-12,  avg # of iterations =  2.1

     total cpu time spent up to now is     4339.8 secs

     End of self-consistent calculation

     Number of k-points >= 100: set verbosity='high' to print the bands.

     the Fermi energy is     6.5538 ev

!    total energy              =   -1971.05717297 Ry
     estimated scf accuracy    <          3.8E-10 Ry
     smearing contrib. (-TS)   =       0.00046988 Ry
     internal energy E=F+TS    =   -1971.05764285 Ry

     The total energy is F=E-TS. E is the sum of the following terms:
     one-electron contribution =   -1751.84660219 Ry
     hartree contribution      =     910.98352189 Ry
     xc contribution           =    -201.23180564 Ry
     ewald contribution        =    -709.52844891 Ry
     DFT-D3 Dispersion         =      -0.36943406 Ry
     one-center paw contrib.   =    -219.06487394 Ry

     convergence has been achieved in  14 iterations

     Forces acting on atoms (cartesian axes, Ry/au):

     atom    1 type  1   force =    -0.00857268   -0.01583111    0.00686073
     atom    2 type  2   force =    -0.00067487   -0.00056578    0.00141204
     atom    3 type  2   force =     0.00189028    0.00289260   -0.00267503
     atom    4 type  2   force =     0.00300459    0.00103663   -0.00061526
     atom    5 type  2   force =    -0.00193562    0.00574906   -0.00313633
     atom    6 type  2   force =    -0.00057177   -0.00338938    0.00082573
     atom    7 type  2   force =    -0.00030678    0.00241787    0.00150128
     atom    8 type  2   force =    -0.00063574   -0.00115793   -0.00051445
     atom    9 type  1   force =    -0.00192094    0.00436563   -0.00125623
     atom   10 type  1   force =     0.00082087   -0.00305634    0.00695018
     atom   11 type  1   force =     0.00293688    0.00117248   -0.00561793
     atom   12 type  1   force =     0.00132725   -0.00249281   -0.00475309
     atom   13 type  3   force =    -0.00742911    0.00724310    0.00433886
     atom   14 type  3   force =    -0.01022079   -0.00199123    0.00378178
     atom   15 type  3   force =     0.01076674    0.00292179   -0.00429482
     atom   16 type  3   force =     0.00380534   -0.00721736   -0.00227685
     atom   17 type  3   force =     0.00584341    0.01231931   -0.00384564
     atom   18 type  3   force =    -0.00589067   -0.01048418   -0.00116732
     atom   19 type  3   force =     0.01385177    0.00884978    0.00071740
     atom   20 type  3   force =    -0.00884124   -0.01252887    0.00266319
     atom   21 type  3   force =     0.00026105    0.00368129    0.01462245
     atom   22 type  3   force =     0.00396613   -0.00595909    0.00822814
     atom   23 type  3   force =     0.00731978    0.01293647   -0.00700521
     atom   24 type  3   force =    -0.00477214    0.00011541   -0.00878636
     atom   25 type  3   force =    -0.00716341   -0.00002001    0.00758420
     atom   26 type  3   force =    -0.00251399    0.00508598    0.00834793
     atom   27 type  3   force =     0.00387525   -0.00709340   -0.01177105
     atom   28 type  3   force =     0.00178041    0.00100007   -0.01011833

     Total force =     0.056468     Total SCF correction =     0.000088


     Computing stress (Cartesian axis) and pressure

          total   stress  (Ry/bohr**3)                   (kbar)     P=        2.14
   0.00000094   0.00002547  -0.00001743            0.14        3.75       -2.56
   0.00002547   0.00002446   0.00004242            3.75        3.60        6.24
  -0.00001743   0.00004242   0.00001819           -2.56        6.24        2.68

     Energy error            =      4.7E-03 Ry
     Gradient error          =      1.6E-02 Ry/Bohr
     Cell gradient error     =      6.2E+00 kbar

     number of scf cycles    =   8
     number of bfgs steps    =   7

     enthalpy           old  =   -1971.0524944094 Ry
     enthalpy           new  =   -1971.0571729669 Ry

     CASE: enthalpy          _new < enthalpy          _old

     new trust radius        =       0.0666705603 bohr
     new conv_thr            =       0.0000000010 Ry

     new unit-cell volume =   1680.28318 a.u.^3 (   248.99228 Ang^3 )
     density =      3.19933 g/cm^3

CELL_PARAMETERS (angstrom)
   7.558793331  -0.061895133   0.078897033
  -5.100263140   5.789848420  -0.061665150
  -2.204052899   1.037911318   5.706232665

ATOMIC_POSITIONS (angstrom)
Ni              -4.1547565308        5.3425518687        5.3958964773
Mg              -2.9991193500        4.7941309766        2.3937794429
Mg               3.2840398413        1.9819208228        3.3400758067
Mg               4.3525212587        1.3604932132        0.4400929833
Mg               0.8765398445        6.3571488927        4.3235076396
Mg              -0.4938411221        0.3587176017        1.4413621662
Mg              -0.4633310596        3.5112146963        4.2984878025
Mg               0.6644061196        3.2696391853        1.3972699868
Ni              -1.6301804890        6.0214791393        5.1770397412
Ni              -1.8411180834        2.4553335452        2.3385907377
Ni               2.0936207625        4.2976595070        3.3860845579
Ni               1.9028242135        0.7444463834        0.5137177325
H               -0.4096897388        5.1010346673        5.5240862069
H               -0.3258765815        2.1293227151        2.6162517728
H                0.5820582777        4.6305300548        3.0863073042
H                0.6679104401        1.6507164384        0.2450492084
H                4.9999290429        0.9830036134        2.4481347374
H                4.0022054487        1.7159216810        5.3329641599
H               -3.6300600709        4.9805582523        0.3497842054
H               -4.7091958057        5.7665342791        3.3611934192
H               -2.6386708333        5.9379572049        3.9739083971
H               -2.2902142173        3.2646753178        0.9733567521
H                2.7542947952        3.7068179634        4.7120982649
H                2.7525006735        0.8649194976        1.8368327195
H                0.6212055085        1.9176803269        4.9297692184
H                2.6120089264        3.4808439188        2.1387562795
H               -2.3696194617        3.3070791618        3.5728092528
H               -0.6477097246        4.7897735455        0.5812967085



     Writing config-only to output data dir ./outdir/mg2nih4_ni.save/ :
     XML data file
     NEW-OLD atomic charge density approx. for the potential
     New effective cutoffs (rho, wfc):  528.79   66.12

     Check: negative core charge=   -0.000001

     total cpu time spent up to now is     4357.0 secs

     Self-consistent Calculation

     iteration #  1     ecut=    60.00 Ry     beta= 0.30
     Davidson diagonalization with overlap
     ethr =  1.00E-06,  avg # of iterations =  5.1

     total cpu time spent up to now is     4420.6 secs

     total energy              =   -1971.05993149 Ry
     estimated scf accuracy    <       0.00635580 Ry

     iteration #  2     ecut=    60.00 Ry     beta= 0.30
     Davidson diagonalization with overlap
     ethr =  5.30E-06,  avg # of iterations =  3.0

     total cpu time spent up to now is     4455.9 secs

     total energy              =   -1971.05982125 Ry
     estimated scf accuracy    <       0.01430468 Ry

     iteration #  3     ecut=    60.00 Ry     beta= 0.30
     Davidson diagonalization with overlap
     ethr =  5.30E-06,  avg # of iterations =  2.3

     total cpu time spent up to now is     4486.9 secs

     total energy              =   -1971.06107544 Ry
     estimated scf accuracy    <       0.00191749 Ry

     iteration #  4     ecut=    60.00 Ry     beta= 0.30
     Davidson diagonalization with overlap
     ethr =  1.60E-06,  avg # of iterations =  2.0

     total cpu time spent up to now is     4515.3 secs

     total energy              =   -1971.06116911 Ry
     estimated scf accuracy    <       0.00168611 Ry

     iteration #  5     ecut=    60.00 Ry     beta= 0.30
     Davidson diagonalization with overlap
     ethr =  1.41E-06,  avg # of iterations =  1.7

     total cpu time spent up to now is     4545.0 secs

     total energy              =   -1971.06124920 Ry
     estimated scf accuracy    <       0.00074405 Ry

     iteration #  6     ecut=    60.00 Ry     beta= 0.30
     Davidson diagonalization with overlap
     ethr =  6.20E-07,  avg # of iterations =  1.0

     total cpu time spent up to now is     4567.9 secs

     total energy              =   -1971.06130202 Ry
     estimated scf accuracy    <       0.00010581 Ry

     iteration #  7     ecut=    60.00 Ry     beta= 0.30
     Davidson diagonalization with overlap
     ethr =  8.82E-08,  avg # of iterations =  1.2

     total cpu time spent up to now is     4592.6 secs

     total energy              =   -1971.06130561 Ry
     estimated scf accuracy    <       0.00001915 Ry

     iteration #  8     ecut=    60.00 Ry     beta= 0.30
     Davidson diagonalization with overlap
     ethr =  1.60E-08,  avg # of iterations =  4.8

     total cpu time spent up to now is     4641.2 secs

     total energy              =   -1971.06130834 Ry
     estimated scf accuracy    <       0.00001506 Ry

     iteration #  9     ecut=    60.00 Ry     beta= 0.30
     Davidson diagonalization with overlap
     ethr =  1.25E-08,  avg # of iterations =  1.4

     total cpu time spent up to now is     4668.7 secs

     total energy              =   -1971.06130939 Ry
     estimated scf accuracy    <       0.00000116 Ry

     iteration # 10     ecut=    60.00 Ry     beta= 0.30
     Davidson diagonalization with overlap
     ethr =  9.67E-10,  avg # of iterations =  4.0

     total cpu time spent up to now is     4712.0 secs

     total energy              =   -1971.06130981 Ry
     estimated scf accuracy    <       0.00000219 Ry

     iteration # 11     ecut=    60.00 Ry     beta= 0.30
     Davidson diagonalization with overlap
     ethr =  9.67E-10,  avg # of iterations =  1.9

     total cpu time spent up to now is     4740.0 secs

     total energy              =   -1971.06130997 Ry
     estimated scf accuracy    <       0.00000004 Ry

     iteration # 12     ecut=    60.00 Ry     beta= 0.30
     Davidson diagonalization with overlap
     ethr =  3.70E-11,  avg # of iterations =  2.7

     total cpu time spent up to now is     4774.1 secs

     total energy              =   -1971.06130998 Ry
     estimated scf accuracy    <       0.00000001 Ry

     iteration # 13     ecut=    60.00 Ry     beta= 0.30
     Davidson diagonalization with overlap
     ethr =  9.84E-12,  avg # of iterations =  1.0

     total cpu time spent up to now is     4797.2 secs

     total energy              =   -1971.06130998 Ry
     estimated scf accuracy    <          1.2E-09 Ry

     iteration # 14     ecut=    60.00 Ry     beta= 0.30
     Davidson diagonalization with overlap
     ethr =  9.77E-13,  avg # of iterations =  3.3

     total cpu time spent up to now is     4838.5 secs

     End of self-consistent calculation

     Number of k-points >= 100: set verbosity='high' to print the bands.

     the Fermi energy is     6.4661 ev

!    total energy              =   -1971.06130998 Ry
     estimated scf accuracy    <          1.9E-10 Ry
     smearing contrib. (-TS)   =       0.00049538 Ry
     internal energy E=F+TS    =   -1971.06180536 Ry

     The total energy is F=E-TS. E is the sum of the following terms:
     one-electron contribution =   -1755.45729860 Ry
     hartree contribution      =     912.40759101 Ry
     xc contribution           =    -201.16394587 Ry
     ewald contribution        =    -707.42713142 Ry
     DFT-D3 Dispersion         =      -0.36613961 Ry
     one-center paw contrib.   =    -219.05488087 Ry

     convergence has been achieved in  14 iterations

     Forces acting on atoms (cartesian axes, Ry/au):

     atom    1 type  1   force =    -0.00965619   -0.01464194    0.00215062
     atom    2 type  2   force =    -0.00142417    0.00030294    0.00188687
     atom    3 type  2   force =     0.00225793    0.00231170   -0.00279513
     atom    4 type  2   force =     0.00266939    0.00064280   -0.00075546
     atom    5 type  2   force =    -0.00166228    0.00453072   -0.00191578
     atom    6 type  2   force =    -0.00020669   -0.00221238   -0.00002919
     atom    7 type  2   force =    -0.00043063    0.00309795    0.00087850
     atom    8 type  2   force =    -0.00045920   -0.00207300   -0.00002862
     atom    9 type  1   force =    -0.00340280    0.00396122   -0.00003777
     atom   10 type  1   force =     0.00045809   -0.00332216    0.00749409
     atom   11 type  1   force =     0.00282984    0.00133899   -0.00464979
     atom   12 type  1   force =     0.00131922   -0.00348759   -0.00590978
     atom   13 type  3   force =    -0.00846144    0.00720350    0.00268581
     atom   14 type  3   force =    -0.01002809   -0.00127869    0.00276533
     atom   15 type  3   force =     0.01121593    0.00210907   -0.00313519
     atom   16 type  3   force =     0.00475702   -0.00719497   -0.00096902
     atom   17 type  3   force =     0.00600416    0.01337935   -0.00391319
     atom   18 type  3   force =    -0.00655707   -0.01029134   -0.00080514
     atom   19 type  3   force =     0.01349847    0.00926644    0.00037031
     atom   20 type  3   force =    -0.00934055   -0.01270653    0.00152489
     atom   21 type  3   force =     0.00152352    0.00344445    0.01348957
     atom   22 type  3   force =     0.00279132   -0.00803768    0.01085240
     atom   23 type  3   force =     0.00624104    0.01263577   -0.00742415
     atom   24 type  3   force =    -0.00472767    0.00022730   -0.00919087
     atom   25 type  3   force =    -0.00705016    0.00099030    0.00912322
     atom   26 type  3   force =    -0.00295214    0.00511217    0.00923041
     atom   27 type  3   force =     0.00449309   -0.00734666   -0.01250663
     atom   28 type  3   force =     0.00630006    0.00203826   -0.00838631

     Total force =     0.057157     Total SCF correction =     0.000031


     Computing stress (Cartesian axis) and pressure

          total   stress  (Ry/bohr**3)                   (kbar)     P=       -6.14
  -0.00005620   0.00002555  -0.00001901           -8.27        3.76       -2.80
   0.00002555  -0.00003156   0.00003282            3.76       -4.64        4.83
  -0.00001901   0.00003282  -0.00003749           -2.80        4.83       -5.51

     Energy error            =      4.1E-03 Ry
     Gradient error          =      1.5E-02 Ry/Bohr
     Cell gradient error     =      8.3E+00 kbar

     number of scf cycles    =   9
     number of bfgs steps    =   8

     enthalpy           old  =   -1971.0571729669 Ry
     enthalpy           new  =   -1971.0613099803 Ry

     CASE: enthalpy          _new < enthalpy          _old

     new trust radius        =       0.0734593972 bohr
     new conv_thr            =       0.0000000010 Ry

     new unit-cell volume =   1695.00119 a.u.^3 (   251.17326 Ang^3 )
     density =      3.17155 g/cm^3

CELL_PARAMETERS (angstrom)
   7.571421075  -0.054348928   0.077505896
  -5.103202846   5.809833479  -0.045533497
  -2.207936149   1.055907063   5.724786820

ATOMIC_POSITIONS (angstrom)
Ni              -4.1710317121        5.3470604272        5.4470556781
Mg              -2.9952431971        4.8199607404        2.4185515938
Mg               3.2901299965        2.0053526866        3.3476782558
Mg               4.3644517338        1.3767643611        0.4383751278
Mg               0.8885342658        6.4050086109        4.3488814583
Mg              -0.4955113776        0.3564820271        1.4482579236
Mg              -0.4600727311        3.5434325361        4.3220986129
Mg               0.6620040640        3.2859815761        1.4063437527
Ni              -1.6288352637        6.0624569741        5.2021974222
Ni              -1.8382690233        2.4682103934        2.3546467902
Ni               2.1003249809        4.3284723995        3.4016481257
Ni               1.9085554891        0.7515857457        0.5152889435
H               -0.4100431198        5.1463587306        5.5664481312
H               -0.3301067567        2.1381425750        2.6387961317
H                0.5936206256        4.6679241105        3.0948549347
H                0.6688418737        1.6505628016        0.2419287547
H                5.0134474955        1.0095060307        2.4483748649
H                4.0042043108        1.7314956257        5.3488075658
H               -3.6074617148        5.0028255315        0.3636617291
H               -4.7189405989        5.7835804750        3.3985085538
H               -2.6507022158        5.9771097053        4.0177540206
H               -2.2825817814        3.2768105312        0.9877171209
H                2.7830511495        3.7629290778        4.7338709827
H                2.7534862889        0.8793261118        1.8383678692
H                0.6165406266        1.9403859926        4.9489429237
H                2.6177552723        3.5101618188        2.1593909002
H               -2.3688911163        3.3224231007        3.5806851457
H               -0.6633084429        4.8091719044        0.5754957452



     Writing config-only to output data dir ./outdir/mg2nih4_ni.save/ :
     XML data file
     NEW-OLD atomic charge density approx. for the potential
     New effective cutoffs (rho, wfc):  526.71   65.85

     Check: negative core charge=   -0.000001

     total cpu time spent up to now is     4855.8 secs

     Self-consistent Calculation

     iteration #  1     ecut=    60.00 Ry     beta= 0.30
     Davidson diagonalization with overlap
     ethr =  1.00E-06,  avg # of iterations =  5.7

     total cpu time spent up to now is     4924.9 secs

     total energy              =   -1971.06500854 Ry
     estimated scf accuracy    <       0.00646316 Ry

     iteration #  2     ecut=    60.00 Ry     beta= 0.30
     Davidson diagonalization with overlap
     ethr =  5.39E-06,  avg # of iterations =  3.0

     total cpu time spent up to now is     4962.8 secs

     total energy              =   -1971.06470008 Ry
     estimated scf accuracy    <       0.01699494 Ry

     iteration #  3     ecut=    60.00 Ry     beta= 0.30
     Davidson diagonalization with overlap
     ethr =  5.39E-06,  avg # of iterations =  2.2

     total cpu time spent up to now is     4994.0 secs

     total energy              =   -1971.06612188 Ry
     estimated scf accuracy    <       0.00211768 Ry

     iteration #  4     ecut=    60.00 Ry     beta= 0.30
     Davidson diagonalization with overlap
     ethr =  1.76E-06,  avg # of iterations =  2.0

     total cpu time spent up to now is     5021.9 secs

     total energy              =   -1971.06620116 Ry
     estimated scf accuracy    <       0.00189851 Ry

     iteration #  5     ecut=    60.00 Ry     beta= 0.30
     Davidson diagonalization with overlap
     ethr =  1.58E-06,  avg # of iterations =  2.0

     total cpu time spent up to now is     5049.4 secs

     total energy              =   -1971.06628383 Ry
     estimated scf accuracy    <       0.00120255 Ry

     iteration #  6     ecut=    60.00 Ry     beta= 0.30
     Davidson diagonalization with overlap
     ethr =  1.00E-06,  avg # of iterations =  1.0

     total cpu time spent up to now is     5072.4 secs

     total energy              =   -1971.06635645 Ry
     estimated scf accuracy    <       0.00009431 Ry

     iteration #  7     ecut=    60.00 Ry     beta= 0.30
     Davidson diagonalization with overlap
     ethr =  7.86E-08,  avg # of iterations =  2.0

     total cpu time spent up to now is     5101.4 secs

     total energy              =   -1971.06635302 Ry
     estimated scf accuracy    <       0.00022900 Ry

     iteration #  8     ecut=    60.00 Ry     beta= 0.30
     Davidson diagonalization with overlap
     ethr =  7.86E-08,  avg # of iterations =  1.3

     total cpu time spent up to now is     5127.7 secs

     total energy              =   -1971.06636679 Ry
     estimated scf accuracy    <       0.00000630 Ry

     iteration #  9     ecut=    60.00 Ry     beta= 0.30
     Davidson diagonalization with overlap
     ethr =  5.25E-09,  avg # of iterations =  4.9

     total cpu time spent up to now is     5176.9 secs

     total energy              =   -1971.06636924 Ry
     estimated scf accuracy    <       0.00000363 Ry

     iteration # 10     ecut=    60.00 Ry     beta= 0.30
     Davidson diagonalization with overlap
     ethr =  3.02E-09,  avg # of iterations =  1.9

     total cpu time spent up to now is     5206.4 secs

     total energy              =   -1971.06636937 Ry
     estimated scf accuracy    <       0.00000291 Ry

     iteration # 11     ecut=    60.00 Ry     beta= 0.30
     Davidson diagonalization with overlap
     ethr =  2.42E-09,  avg # of iterations =  1.1

     total cpu time spent up to now is     5230.1 secs

     total energy              =   -1971.06636959 Ry
     estimated scf accuracy    <       0.00000006 Ry

     iteration # 12     ecut=    60.00 Ry     beta= 0.30
     Davidson diagonalization with overlap
     ethr =  5.38E-11,  avg # of iterations =  4.0

     total cpu time spent up to now is     5281.2 secs

     total energy              =   -1971.06636967 Ry
     estimated scf accuracy    <       0.00000003 Ry

     iteration # 13     ecut=    60.00 Ry     beta= 0.30
     Davidson diagonalization with overlap
     ethr =  2.40E-11,  avg # of iterations =  1.5

     total cpu time spent up to now is     5309.2 secs

     total energy              =   -1971.06636967 Ry
     estimated scf accuracy    <          2.0E-09 Ry

     iteration # 14     ecut=    60.00 Ry     beta= 0.30
     Davidson diagonalization with overlap
     ethr =  1.66E-12,  avg # of iterations =  2.4

     total cpu time spent up to now is     5342.0 secs

     End of self-consistent calculation

     Number of k-points >= 100: set verbosity='high' to print the bands.

     the Fermi energy is     6.3821 ev

!    total energy              =   -1971.06636967 Ry
     estimated scf accuracy    <          8.0E-10 Ry
     smearing contrib. (-TS)   =       0.00052909 Ry
     internal energy E=F+TS    =   -1971.06689876 Ry

     The total energy is F=E-TS. E is the sum of the following terms:
     one-electron contribution =   -1759.75815651 Ry
     hartree contribution      =     914.17198263 Ry
     xc contribution           =    -201.11672438 Ry
     ewald contribution        =    -704.95535800 Ry
     DFT-D3 Dispersion         =      -0.36304429 Ry
     one-center paw contrib.   =    -219.04559822 Ry

     convergence has been achieved in  14 iterations

     Forces acting on atoms (cartesian axes, Ry/au):

     atom    1 type  1   force =    -0.00915532   -0.01188514   -0.00254974
     atom    2 type  2   force =    -0.00165610    0.00147593    0.00264796
     atom    3 type  2   force =     0.00224919    0.00104532   -0.00300459
     atom    4 type  2   force =     0.00211238    0.00060551   -0.00120040
     atom    5 type  2   force =    -0.00111263    0.00281565   -0.00045641
     atom    6 type  2   force =     0.00008954   -0.00087493   -0.00104190
     atom    7 type  2   force =    -0.00043851    0.00398761    0.00012699
     atom    8 type  2   force =    -0.00064840   -0.00302770    0.00039957
     atom    9 type  1   force =    -0.00460861    0.00239449    0.00149223
     atom   10 type  1   force =     0.00035627   -0.00262081    0.00605882
     atom   11 type  1   force =     0.00173992    0.00072943   -0.00248518
     atom   12 type  1   force =     0.00111832   -0.00355351   -0.00538777
     atom   13 type  3   force =    -0.00778246    0.00598754    0.00142476
     atom   14 type  3   force =    -0.00731619   -0.00103578    0.00208830
     atom   15 type  3   force =     0.00936955    0.00163869   -0.00233735
     atom   16 type  3   force =     0.00412761   -0.00603558   -0.00000823
     atom   17 type  3   force =     0.00501288    0.01201474   -0.00392190
     atom   18 type  3   force =    -0.00633917   -0.00795616   -0.00029414
     atom   19 type  3   force =     0.01204523    0.00755180   -0.00023470
     atom   20 type  3   force =    -0.00838511   -0.01058413    0.00075893
     atom   21 type  3   force =     0.00125868    0.00282150    0.00976064
     atom   22 type  3   force =     0.00113265   -0.00955575    0.01249673
     atom   23 type  3   force =     0.00554693    0.01090567   -0.00611509
     atom   24 type  3   force =    -0.00363888    0.00065086   -0.00782305
     atom   25 type  3   force =    -0.00558422    0.00210506    0.00862257
     atom   26 type  3   force =    -0.00273768    0.00416172    0.00830057
     atom   27 type  3   force =     0.00419571   -0.00633508   -0.01097318
     atom   28 type  3   force =     0.00904842    0.00257305   -0.00634443

     Total force =     0.050339     Total SCF correction =     0.000046


     Computing stress (Cartesian axis) and pressure

          total   stress  (Ry/bohr**3)                   (kbar)     P=      -10.99
  -0.00008800   0.00002142  -0.00001639          -12.95        3.15       -2.41
   0.00002142  -0.00006482   0.00001926            3.15       -9.54        2.83
  -0.00001639   0.00001926  -0.00007125           -2.41        2.83      -10.48

     Energy error            =      5.1E-03 Ry
     Gradient error          =      1.2E-02 Ry/Bohr
     Cell gradient error     =      1.3E+01 kbar

     number of scf cycles    =  10
     number of bfgs steps    =   9

     enthalpy           old  =   -1971.0613099803 Ry
     enthalpy           new  =   -1971.0663696731 Ry

     CASE: enthalpy          _new < enthalpy          _old

     new trust radius        =       0.1103923997 bohr
     new conv_thr            =       0.0000000010 Ry

     new unit-cell volume =   1709.65740 a.u.^3 (   253.34509 Ang^3 )
     density =      3.14436 g/cm^3

CELL_PARAMETERS (angstrom)
   7.577954041  -0.038962202   0.071834497
  -5.096355698   5.828683385  -0.017840893
  -2.212227146   1.081299429   5.746297293

ATOMIC_POSITIONS (angstrom)
Ni              -4.1915572195        5.3418687020        5.5130218654
Mg              -2.9852167397        4.8514992313        2.4557732738
Mg               3.2950568170        2.0400430325        3.3525100989
Mg               4.3766512443        1.4013598294        0.4340226581
Mg               0.9037354618        6.4697452785        4.3819516260
Mg              -0.4975838370        0.3533369633        1.4557841523
Mg              -0.4552254195        3.5893859583        4.3523542306
Mg               0.6592886032        3.3043606852        1.4194006793
Ni              -1.6263086206        6.1163583332        5.2373235116
Ni              -1.8311903297        2.4826877174        2.3795137465
Ni               2.1084332154        4.3702375317        3.4194924799
Ni               1.9146283507        0.7600010519        0.5137181420
H               -0.4139519004        5.2102852070        5.6222761976
H               -0.3392478084        2.1491076735        2.6693485378
H                0.6154511072        4.7178950318        3.1048812892
H                0.6722337184        1.6460181877        0.2382206876
H                5.0269668803        1.0566018532        2.4424469714
H                3.9960329114        1.7525074786        5.3640828179
H               -3.5622403949        5.0313191808        0.3869196687
H               -4.7287801067        5.7944590187        3.4509423607
H               -2.6601378302        6.0277008199        4.0831538504
H               -2.2670592666        3.2825617570        1.0180398150
H                2.8208831217        3.8465831295        4.7564266512
H                2.7485802722        0.9013769134        1.8330437203
H                0.6053115664        1.9744612094        4.9763126959
H                2.6217649294        3.5525177115        2.1908355004
H               -2.3619669985        3.3369142685        3.5848795269
H               -0.6733549747        4.8330948213        0.5673958037



     Writing config-only to output data dir ./outdir/mg2nih4_ni.save/ :
     XML data file
     NEW-OLD atomic charge density approx. for the potential
     New effective cutoffs (rho, wfc):  524.60   65.59

     Check: negative core charge=   -0.000001

     total cpu time spent up to now is     5359.5 secs

     Self-consistent Calculation

     iteration #  1     ecut=    60.00 Ry     beta= 0.30
     Davidson diagonalization with overlap
     ethr =  1.00E-06,  avg # of iterations =  7.8

     total cpu time spent up to now is     5454.9 secs

     total energy              =   -1971.07046241 Ry
     estimated scf accuracy    <       0.01209126 Ry

     iteration #  2     ecut=    60.00 Ry     beta= 0.30
     Davidson diagonalization with overlap
     ethr =  1.01E-05,  avg # of iterations =  2.8

     total cpu time spent up to now is     5493.1 secs

     total energy              =   -1971.06942244 Ry
     estimated scf accuracy    <       0.03589161 Ry

     iteration #  3     ecut=    60.00 Ry     beta= 0.30
     Davidson diagonalization with overlap
     ethr =  1.01E-05,  avg # of iterations =  2.1

     total cpu time spent up to now is     5522.9 secs

     total energy              =   -1971.07238080 Ry
     estimated scf accuracy    <       0.00360278 Ry

     iteration #  4     ecut=    60.00 Ry     beta= 0.30
     Davidson diagonalization with overlap
     ethr =  3.00E-06,  avg # of iterations =  2.0

     total cpu time spent up to now is     5551.1 secs

     total energy              =   -1971.07239378 Ry
     estimated scf accuracy    <       0.00401231 Ry

     iteration #  5     ecut=    60.00 Ry     beta= 0.30
     Davidson diagonalization with overlap
     ethr =  3.00E-06,  avg # of iterations =  2.0

     total cpu time spent up to now is     5578.3 secs

     total energy              =   -1971.07260651 Ry
     estimated scf accuracy    <       0.00197523 Ry

     iteration #  6     ecut=    60.00 Ry     beta= 0.30
     Davidson diagonalization with overlap
     ethr =  1.65E-06,  avg # of iterations =  1.0

     total cpu time spent up to now is     5601.2 secs

     total energy              =   -1971.07272898 Ry
     estimated scf accuracy    <       0.00023407 Ry

     iteration #  7     ecut=    60.00 Ry     beta= 0.30
     Davidson diagonalization with overlap
     ethr =  1.95E-07,  avg # of iterations =  2.0

     total cpu time spent up to now is     5630.1 secs

     total energy              =   -1971.07272588 Ry
     estimated scf accuracy    <       0.00047022 Ry

     iteration #  8     ecut=    60.00 Ry     beta= 0.30
     Davidson diagonalization with overlap
     ethr =  1.95E-07,  avg # of iterations =  1.1

     total cpu time spent up to now is     5653.7 secs

     total energy              =   -1971.07275437 Ry
     estimated scf accuracy    <       0.00001298 Ry

     iteration #  9     ecut=    60.00 Ry     beta= 0.30
     Davidson diagonalization with overlap
     ethr =  1.08E-08,  avg # of iterations =  4.8

     total cpu time spent up to now is     5702.8 secs

     total energy              =   -1971.07275929 Ry
     estimated scf accuracy    <       0.00001358 Ry

     iteration # 10     ecut=    60.00 Ry     beta= 0.30
     Davidson diagonalization with overlap
     ethr =  1.08E-08,  avg # of iterations =  1.0

     total cpu time spent up to now is     5726.0 secs

     total energy              =   -1971.07275987 Ry
     estimated scf accuracy    <       0.00000559 Ry

     iteration # 11     ecut=    60.00 Ry     beta= 0.30
     Davidson diagonalization with overlap
     ethr =  4.66E-09,  avg # of iterations =  1.5

     total cpu time spent up to now is     5754.3 secs

     total energy              =   -1971.07276032 Ry
     estimated scf accuracy    <       0.00000015 Ry

     iteration # 12     ecut=    60.00 Ry     beta= 0.30
     Davidson diagonalization with overlap
     ethr =  1.23E-10,  avg # of iterations =  4.0

     total cpu time spent up to now is     5803.0 secs

     total energy              =   -1971.07276043 Ry
     estimated scf accuracy    <       0.00000005 Ry

     iteration # 13     ecut=    60.00 Ry     beta= 0.30
     Davidson diagonalization with overlap
     ethr =  4.39E-11,  avg # of iterations =  2.0

     total cpu time spent up to now is     5830.5 secs

     total energy              =   -1971.07276043 Ry
     estimated scf accuracy    <          7.6E-09 Ry

     iteration # 14     ecut=    60.00 Ry     beta= 0.30
     Davidson diagonalization with overlap
     ethr =  6.36E-12,  avg # of iterations =  1.8

     total cpu time spent up to now is     5858.8 secs

     End of self-consistent calculation

     Number of k-points >= 100: set verbosity='high' to print the bands.

     the Fermi energy is     6.2965 ev

!    total energy              =   -1971.07276044 Ry
     estimated scf accuracy    <          5.6E-10 Ry
     smearing contrib. (-TS)   =       0.00058538 Ry
     internal energy E=F+TS    =   -1971.07334582 Ry

     The total energy is F=E-TS. E is the sum of the following terms:
     one-electron contribution =   -1765.37935954 Ry
     hartree contribution      =     916.54801004 Ry
     xc contribution           =    -201.09320030 Ry
     ewald contribution        =    -701.75276998 Ry
     DFT-D3 Dispersion         =      -0.36002254 Ry
     one-center paw contrib.   =    -219.03600349 Ry

     convergence has been achieved in  14 iterations

     Forces acting on atoms (cartesian axes, Ry/au):

     atom    1 type  1   force =    -0.00601961   -0.00511553   -0.00838182
     atom    2 type  2   force =    -0.00137793    0.00299889    0.00365465
     atom    3 type  2   force =     0.00194081   -0.00127732   -0.00317914
     atom    4 type  2   force =     0.00121439    0.00098467   -0.00201510
     atom    5 type  2   force =    -0.00026813    0.00021288    0.00163989
     atom    6 type  2   force =     0.00021944    0.00088147   -0.00247400
     atom    7 type  2   force =    -0.00051467    0.00511796   -0.00089486
     atom    8 type  2   force =    -0.00126984   -0.00403183    0.00086070
     atom    9 type  1   force =    -0.00569535   -0.00095545    0.00353946
     atom   10 type  1   force =     0.00091337   -0.00066272    0.00204862
     atom   11 type  1   force =    -0.00053258   -0.00117604    0.00205364
     atom   12 type  1   force =     0.00045938   -0.00256599   -0.00256757
     atom   13 type  3   force =    -0.00486887    0.00313220    0.00041598
     atom   14 type  3   force =    -0.00089870   -0.00142407    0.00181156
     atom   15 type  3   force =     0.00425182    0.00162663   -0.00190741
     atom   16 type  3   force =     0.00145076   -0.00335261    0.00066320
     atom   17 type  3   force =     0.00223866    0.00700993   -0.00387965
     atom   18 type  3   force =    -0.00498536   -0.00233594    0.00052442
     atom   19 type  3   force =     0.00882087    0.00278987   -0.00113402
     atom   20 type  3   force =    -0.00545774   -0.00493937    0.00035741
     atom   21 type  3   force =    -0.00085169    0.00175407    0.00217711
     atom   22 type  3   force =    -0.00168280   -0.01063503    0.01310846
     atom   23 type  3   force =     0.00485050    0.00615151   -0.00308005
     atom   24 type  3   force =    -0.00099975    0.00147853   -0.00408891
     atom   25 type  3   force =    -0.00199012    0.00361396    0.00526472
     atom   26 type  3   force =    -0.00160131    0.00158941    0.00474541
     atom   27 type  3   force =     0.00253871   -0.00328526   -0.00588082
     atom   28 type  3   force =     0.01011573    0.00241519   -0.00338188

     Total force =     0.035425     Total SCF correction =     0.000064


     Computing stress (Cartesian axis) and pressure

          total   stress  (Ry/bohr**3)                   (kbar)     P=      -12.26
  -0.00009348   0.00001178  -0.00000908          -13.75        1.73       -1.34
   0.00001178  -0.00007460  -0.00000048            1.73      -10.97       -0.07
  -0.00000908  -0.00000048  -0.00008185           -1.34       -0.07      -12.04

     Energy error            =      6.4E-03 Ry
     Gradient error          =      1.3E-02 Ry/Bohr
     Cell gradient error     =      1.4E+01 kbar

     number of scf cycles    =  11
     number of bfgs steps    =  10

     enthalpy           old  =   -1971.0663696731 Ry
     enthalpy           new  =   -1971.0727604377 Ry

     CASE: enthalpy          _new < enthalpy          _old

     new trust radius        =       0.0798023570 bohr
     new conv_thr            =       0.0000000010 Ry

     new unit-cell volume =   1710.24830 a.u.^3 (   253.43265 Ang^3 )
     density =      3.14328 g/cm^3

CELL_PARAMETERS (angstrom)
   7.565791356  -0.025021430   0.065454099
  -5.078080325   5.830399152   0.003426999
  -2.211637642   1.096700573   5.751600571

ATOMIC_POSITIONS (angstrom)
Ni              -4.1995941996        5.3253471495        5.5441479989
Mg              -2.9716302100        4.8666602086        2.4807759386
Mg               3.2924885904        2.0615818422        3.3469260015
Mg               4.3768393227        1.4187749529        0.4280384292
Mg               0.9125910256        6.5056047630        4.3980752056
Mg              -0.4982302379        0.3510963434        1.4568249637
Mg              -0.4512456584        3.6193684844        4.3654123781
Mg               0.6563522988        3.3094337119        1.4266198877
Ni              -1.6237816158        6.1431735650        5.2557550071
Ni              -1.8213253815        2.4880465111        2.3943707965
Ni               2.1098516416        4.3923607513        3.4267319169
Ni               1.9150350352        0.7637545184        0.5097901963
H               -0.4185521270        5.2489173247        5.6515218032
H               -0.3453393814        2.1524039584        2.6871621876
H                0.6329898012        4.7467383706        3.1053278632
H                0.6745234516        1.6382458568        0.2355472225
H                5.0263037669        1.0945162058        2.4301594363
H                3.9773810038        1.7650030517        5.3641499037
H               -3.5158350291        5.0436893094        0.4034131895
H               -4.7276920152        5.7878746358        3.4826023178
H               -2.6598107194        6.0538670087        4.1236877109
H               -2.2515182043        3.2728047895        1.0472439807
H                2.8436584479        3.9036964682        4.7608192050
H                2.7383102555        0.9173977177        1.8224052956
H                0.5943746999        1.9981946915        4.9897750695
H                2.6186796454        3.5786198585        2.2111717348
H               -2.3502502947        3.3385831353        3.5786634085
H               -0.6695464512        4.8433409420        0.5596243161



     Writing config-only to output data dir ./outdir/mg2nih4_ni.save/ :
     XML data file
     NEW-OLD atomic charge density approx. for the potential
     New effective cutoffs (rho, wfc):  524.83   65.62

     Check: negative core charge=   -0.000001

     total cpu time spent up to now is     5876.3 secs

     Self-consistent Calculation

     iteration #  1     ecut=    60.00 Ry     beta= 0.30
     Davidson diagonalization with overlap
     c_bands:  1 eigenvalues not converged
     c_bands:  1 eigenvalues not converged
     ethr =  1.00E-06,  avg # of iterations =  6.2

     total cpu time spent up to now is     5953.1 secs

     total energy              =   -1971.07465624 Ry
     estimated scf accuracy    <       0.00601796 Ry

     iteration #  2     ecut=    60.00 Ry     beta= 0.30
     Davidson diagonalization with overlap
     ethr =  5.01E-06,  avg # of iterations =  3.2

     total cpu time spent up to now is     5995.9 secs

     total energy              =   -1971.07403375 Ry
     estimated scf accuracy    <       0.02085271 Ry

     iteration #  3     ecut=    60.00 Ry     beta= 0.30
     Davidson diagonalization with overlap
     ethr =  5.01E-06,  avg # of iterations =  2.0

     total cpu time spent up to now is     6024.9 secs

     total energy              =   -1971.07571437 Ry
     estimated scf accuracy    <       0.00123314 Ry

     iteration #  4     ecut=    60.00 Ry     beta= 0.30
     Davidson diagonalization with overlap
     ethr =  1.03E-06,  avg # of iterations =  1.8

     total cpu time spent up to now is     6054.8 secs

     total energy              =   -1971.07571028 Ry
     estimated scf accuracy    <       0.00100678 Ry

     iteration #  5     ecut=    60.00 Ry     beta= 0.30
     Davidson diagonalization with overlap
     ethr =  8.39E-07,  avg # of iterations =  1.0

     total cpu time spent up to now is     6077.8 secs

     total energy              =   -1971.07577603 Ry
     estimated scf accuracy    <       0.00024734 Ry

     iteration #  6     ecut=    60.00 Ry     beta= 0.30
     Davidson diagonalization with overlap
     ethr =  2.06E-07,  avg # of iterations =  2.0

     total cpu time spent up to now is     6106.0 secs

     total energy              =   -1971.07576965 Ry
     estimated scf accuracy    <       0.00060304 Ry

     iteration #  7     ecut=    60.00 Ry     beta= 0.30
     Davidson diagonalization with overlap
     ethr =  2.06E-07,  avg # of iterations =  1.9

     total cpu time spent up to now is     6136.7 secs

     total energy              =   -1971.07580342 Ry
     estimated scf accuracy    <       0.00002711 Ry

     iteration #  8     ecut=    60.00 Ry     beta= 0.30
     Davidson diagonalization with overlap
     ethr =  2.26E-08,  avg # of iterations =  3.6

     total cpu time spent up to now is     6183.2 secs

     total energy              =   -1971.07580695 Ry
     estimated scf accuracy    <       0.00000884 Ry

     iteration #  9     ecut=    60.00 Ry     beta= 0.30
     Davidson diagonalization with overlap
     ethr =  7.36E-09,  avg # of iterations =  4.7

     total cpu time spent up to now is     6232.7 secs

     total energy              =   -1971.07580779 Ry
     estimated scf accuracy    <       0.00001072 Ry

     iteration # 10     ecut=    60.00 Ry     beta= 0.30
     Davidson diagonalization with overlap
     ethr =  7.36E-09,  avg # of iterations =  1.1

     total cpu time spent up to now is     6256.9 secs

     total energy              =   -1971.07580847 Ry
     estimated scf accuracy    <       0.00000105 Ry

     iteration # 11     ecut=    60.00 Ry     beta= 0.30
     Davidson diagonalization with overlap
     ethr =  8.79E-10,  avg # of iterations =  4.2

     total cpu time spent up to now is     6298.0 secs

     total energy              =   -1971.07580878 Ry
     estimated scf accuracy    <       0.00000010 Ry

     iteration # 12     ecut=    60.00 Ry     beta= 0.30
     Davidson diagonalization with overlap
     ethr =  8.26E-11,  avg # of iterations =  1.9

     total cpu time spent up to now is     6327.5 secs

     total energy              =   -1971.07580879 Ry
     estimated scf accuracy    <       0.00000002 Ry

     iteration # 13     ecut=    60.00 Ry     beta= 0.30
     Davidson diagonalization with overlap
     ethr =  1.55E-11,  avg # of iterations =  2.0

     total cpu time spent up to now is     6355.3 secs

     total energy              =   -1971.07580879 Ry
     estimated scf accuracy    <          1.0E-09 Ry

     iteration # 14     ecut=    60.00 Ry     beta= 0.30
     Davidson diagonalization with overlap
     ethr =  8.67E-13,  avg # of iterations =  3.2

     total cpu time spent up to now is     6393.0 secs

     End of self-consistent calculation

     Number of k-points >= 100: set verbosity='high' to print the bands.

     the Fermi energy is     6.2904 ev

!    total energy              =   -1971.07580879 Ry
     estimated scf accuracy    <          1.0E-10 Ry
     smearing contrib. (-TS)   =       0.00062566 Ry
     internal energy E=F+TS    =   -1971.07643445 Ry

     The total energy is F=E-TS. E is the sum of the following terms:
     one-electron contribution =   -1767.81902462 Ry
     hartree contribution      =     917.66027156 Ry
     xc contribution           =    -201.12788750 Ry
     ewald contribution        =    -700.39580880 Ry
     DFT-D3 Dispersion         =      -0.35977279 Ry
     one-center paw contrib.   =    -219.03421231 Ry

     convergence has been achieved in  14 iterations

     Forces acting on atoms (cartesian axes, Ry/au):

     atom    1 type  1   force =    -0.00175777    0.00162394   -0.00997480
     atom    2 type  2   force =    -0.00063576    0.00362675    0.00424889
     atom    3 type  2   force =     0.00149961   -0.00315200   -0.00300574
     atom    4 type  2   force =     0.00048857    0.00160853   -0.00261294
     atom    5 type  2   force =    -0.00004155   -0.00148652    0.00285504
     atom    6 type  2   force =    -0.00012451    0.00166141   -0.00318206
     atom    7 type  2   force =    -0.00069616    0.00562120   -0.00140811
     atom    8 type  2   force =    -0.00173433   -0.00430525    0.00112267
     atom    9 type  1   force =    -0.00499374   -0.00331994    0.00384866
     atom   10 type  1   force =     0.00236360    0.00094687   -0.00159185
     atom   11 type  1   force =    -0.00278137   -0.00343666    0.00563200
     atom   12 type  1   force =    -0.00044222   -0.00062350    0.00120135
     atom   13 type  3   force =    -0.00104044    0.00018712    0.00052646
     atom   14 type  3   force =     0.00534602   -0.00238035    0.00232018
     atom   15 type  3   force =    -0.00130697    0.00228741   -0.00233476
     atom   16 type  3   force =    -0.00191929   -0.00066864    0.00040130
     atom   17 type  3   force =    -0.00080614    0.00080347   -0.00371791
     atom   18 type  3   force =    -0.00332835    0.00288506    0.00100249
     atom   19 type  3   force =     0.00543883   -0.00236991   -0.00158997
     atom   20 type  3   force =    -0.00221375    0.00106167    0.00077165
     atom   21 type  3   force =    -0.00366112    0.00104631   -0.00447573
     atom   22 type  3   force =    -0.00400589   -0.00896885    0.01000437
     atom   23 type  3   force =     0.00460302   -0.00000022   -0.00068704
     atom   24 type  3   force =     0.00173363    0.00216181   -0.00007255
     atom   25 type  3   force =     0.00175332    0.00455086    0.00052782
     atom   26 type  3   force =    -0.00015616   -0.00118441    0.00041702
     atom   27 type  3   force =     0.00023015    0.00030152    0.00034331
     atom   28 type  3   force =     0.00818877    0.00152233   -0.00056973

     Total force =     0.029233     Total SCF correction =     0.000043


     Computing stress (Cartesian axis) and pressure

          total   stress  (Ry/bohr**3)                   (kbar)     P=       -6.66
  -0.00005102   0.00000200  -0.00000077           -7.51        0.29       -0.11
   0.00000200  -0.00004014  -0.00001078            0.29       -5.90       -1.59
  -0.00000077  -0.00001078  -0.00004466           -0.11       -1.59       -6.57

     Energy error            =      3.0E-03 Ry
     Gradient error          =      1.0E-02 Ry/Bohr
     Cell gradient error     =      7.5E+00 kbar

     number of scf cycles    =  12
     number of bfgs steps    =  11

     enthalpy           old  =   -1971.0727604377 Ry
     enthalpy           new  =   -1971.0758087949 Ry

     CASE: enthalpy          _new < enthalpy          _old

     new trust radius        =       0.0250981086 bohr
     new conv_thr            =       0.0000000010 Ry

     new unit-cell volume =   1702.34665 a.u.^3 (   252.26175 Ang^3 )
     density =      3.15787 g/cm^3

CELL_PARAMETERS (angstrom)
   7.549442409  -0.021256261   0.063685374
  -5.064430101   5.822532284   0.006877986
  -2.207604711   1.096937439   5.743627105

ATOMIC_POSITIONS (angstrom)
Ni              -4.1948251892        5.3135576976        5.5354463269
Mg              -2.9633675509        4.8648887863        2.4839121283
Mg               3.2869602020        2.0610578827        3.3380590054
Mg               4.3693771990        1.4219331041        0.4239836236
Mg               0.9133108424        6.5029538850        4.3948693928
Mg              -0.4976239911        0.3506407583        1.4528430534
Mg              -0.4498967112        3.6234883449        4.3598888573
Mg               0.6537261546        3.3031518516        1.4257504808
Ni              -1.6229387921        6.1374200488        5.2522640198
Ni              -1.8142884342        2.4855231481        2.3928145641
Ni               2.1051287000        4.3885017619        3.4251461385
Ni               1.9114270525        0.7631642538        0.5083769615
H               -0.4194451554        5.2493001398        5.6482997137
H               -0.3431356098        2.1480018454        2.6878697239
H                0.6355017755        4.7474795225        3.0979677602
H                0.6730413497        1.6336242363        0.2343553794
H                5.0167394816        1.1020649337        2.4209273638
H                3.9639347784        1.7658810599        5.3558125367
H               -3.4953502740        5.0380144936        0.4044198819
H               -4.7200666790        5.7777284279        3.4834666271
H               -2.6567149914        6.0510106822        4.1226568497
H               -2.2459820724        3.2602112293        1.0572466059
H                2.8465311487        3.9103894773        4.7526076296
H                2.7320014590        0.9208167072        1.8166459224
H                0.5917124196        2.0024024613        4.9850930211
H                2.6132954917        3.5786545924        2.2117536047
H               -2.3430101192        3.3333352687        3.5708675584
H               -0.6623361171        4.8397918647        0.5553217765



     Writing config-only to output data dir ./outdir/mg2nih4_ni.save/ :
     XML data file
     NEW-OLD atomic charge density approx. for the potential
     New effective cutoffs (rho, wfc):  526.51   65.83

     Check: negative core charge=   -0.000001

     total cpu time spent up to now is     6410.2 secs

     Self-consistent Calculation

     iteration #  1     ecut=    60.00 Ry     beta= 0.30
     Davidson diagonalization with overlap
     ethr =  1.00E-06,  avg # of iterations =  4.0

     total cpu time spent up to now is     6463.3 secs

     total energy              =   -1971.07673166 Ry
     estimated scf accuracy    <       0.00125063 Ry

     iteration #  2     ecut=    60.00 Ry     beta= 0.30
     Davidson diagonalization with overlap
     ethr =  1.04E-06,  avg # of iterations =  3.0

     total cpu time spent up to now is     6498.2 secs

     total energy              =   -1971.07667513 Ry
     estimated scf accuracy    <       0.00488782 Ry

     iteration #  3     ecut=    60.00 Ry     beta= 0.30
     Davidson diagonalization with overlap
     ethr =  1.04E-06,  avg # of iterations =  2.4

     total cpu time spent up to now is     6532.2 secs

     total energy              =   -1971.07704314 Ry
     estimated scf accuracy    <       0.00063590 Ry

     iteration #  4     ecut=    60.00 Ry     beta= 0.30
     Davidson diagonalization with overlap
     ethr =  5.30E-07,  avg # of iterations =  2.0

     total cpu time spent up to now is     6559.6 secs

     total energy              =   -1971.07707926 Ry
     estimated scf accuracy    <       0.00023040 Ry

     iteration #  5     ecut=    60.00 Ry     beta= 0.30
     Davidson diagonalization with overlap
     ethr =  1.92E-07,  avg # of iterations =  2.0

     total cpu time spent up to now is     6586.9 secs

     total energy              =   -1971.07708482 Ry
     estimated scf accuracy    <       0.00024528 Ry

     iteration #  6     ecut=    60.00 Ry     beta= 0.30
     Davidson diagonalization with overlap
     ethr =  1.92E-07,  avg # of iterations =  1.0

     total cpu time spent up to now is     6609.9 secs

     total energy              =   -1971.07709899 Ry
     estimated scf accuracy    <       0.00000751 Ry

     iteration #  7     ecut=    60.00 Ry     beta= 0.30
     Davidson diagonalization with overlap
     ethr =  6.26E-09,  avg # of iterations =  3.0

     total cpu time spent up to now is     6645.2 secs

     total energy              =   -1971.07709921 Ry
     estimated scf accuracy    <       0.00002530 Ry

     iteration #  8     ecut=    60.00 Ry     beta= 0.30
     Davidson diagonalization with overlap
     ethr =  6.26E-09,  avg # of iterations =  2.0

     total cpu time spent up to now is     6673.6 secs

     total energy              =   -1971.07710067 Ry
     estimated scf accuracy    <       0.00000169 Ry

     iteration #  9     ecut=    60.00 Ry     beta= 0.30
     Davidson diagonalization with overlap
     ethr =  1.41E-09,  avg # of iterations =  2.2

     total cpu time spent up to now is     6702.8 secs

     total energy              =   -1971.07710081 Ry
     estimated scf accuracy    <       0.00000062 Ry

     iteration # 10     ecut=    60.00 Ry     beta= 0.30
     Davidson diagonalization with overlap
     ethr =  5.17E-10,  avg # of iterations =  5.3

     total cpu time spent up to now is     6748.9 secs

     total energy              =   -1971.07710096 Ry
     estimated scf accuracy    <       0.00000025 Ry

     iteration # 11     ecut=    60.00 Ry     beta= 0.30
     Davidson diagonalization with overlap
     ethr =  2.06E-10,  avg # of iterations =  2.4

     total cpu time spent up to now is     6781.5 secs

     total energy              =   -1971.07710099 Ry
     estimated scf accuracy    <          7.0E-09 Ry

     iteration # 12     ecut=    60.00 Ry     beta= 0.30
     Davidson diagonalization with overlap
     ethr =  5.85E-12,  avg # of iterations =  3.7

     total cpu time spent up to now is     6826.5 secs

     total energy              =   -1971.07710100 Ry
     estimated scf accuracy    <          3.0E-09 Ry

     iteration # 13     ecut=    60.00 Ry     beta= 0.30
     Davidson diagonalization with overlap
     ethr =  2.49E-12,  avg # of iterations =  1.1

     total cpu time spent up to now is     6850.8 secs

     End of self-consistent calculation

     Number of k-points >= 100: set verbosity='high' to print the bands.

     the Fermi energy is     6.3364 ev

!    total energy              =   -1971.07710100 Ry
     estimated scf accuracy    <          1.2E-10 Ry
     smearing contrib. (-TS)   =       0.00062748 Ry
     internal energy E=F+TS    =   -1971.07772847 Ry

     The total energy is F=E-TS. E is the sum of the following terms:
     one-electron contribution =   -1766.63332906 Ry
     hartree contribution      =     917.22370351 Ry
     xc contribution           =    -201.16861840 Ry
     ewald contribution        =    -701.10046195 Ry
     DFT-D3 Dispersion         =      -0.36136409 Ry
     one-center paw contrib.   =    -219.03765849 Ry

     convergence has been achieved in  13 iterations

     Forces acting on atoms (cartesian axes, Ry/au):

     atom    1 type  1   force =    -0.00046341    0.00271268   -0.00768045
     atom    2 type  2   force =    -0.00014531    0.00319680    0.00413994
     atom    3 type  2   force =     0.00128541   -0.00342483   -0.00263983
     atom    4 type  2   force =     0.00031493    0.00201490   -0.00271437
     atom    5 type  2   force =    -0.00029969   -0.00153313    0.00270264
     atom    6 type  2   force =    -0.00061066    0.00118677   -0.00274875
     atom    7 type  2   force =    -0.00083955    0.00528257   -0.00121944
     atom    8 type  2   force =    -0.00166095   -0.00394047    0.00109628
     atom    9 type  1   force =    -0.00352293   -0.00277004    0.00206181
     atom   10 type  1   force =     0.00335028    0.00071832   -0.00154483
     atom   11 type  1   force =    -0.00337972   -0.00367933    0.00537147
     atom   12 type  1   force =    -0.00052626    0.00039074    0.00229629
     atom   13 type  3   force =     0.00058795   -0.00077327    0.00095020
     atom   14 type  3   force =     0.00660506   -0.00281460    0.00276035
     atom   15 type  3   force =    -0.00297229    0.00269223   -0.00278514
     atom   16 type  3   force =    -0.00316477    0.00017715   -0.00011743
     atom   17 type  3   force =    -0.00158604   -0.00137614   -0.00341696
     atom   18 type  3   force =    -0.00294996    0.00358031    0.00080787
     atom   19 type  3   force =     0.00430430   -0.00412238   -0.00151121
     atom   20 type  3   force =    -0.00131734    0.00253332    0.00120615
     atom   21 type  3   force =    -0.00425569    0.00108481   -0.00556884
     atom   22 type  3   force =    -0.00463884   -0.00603222    0.00577261
     atom   23 type  3   force =     0.00499830   -0.00239469    0.00018548
     atom   24 type  3   force =     0.00262297    0.00218860    0.00118967
     atom   25 type  3   force =     0.00272094    0.00466407   -0.00123383
     atom   26 type  3   force =     0.00023705   -0.00190034   -0.00094326
     atom   27 type  3   force =    -0.00062765    0.00137290    0.00255812
     atom   28 type  3   force =     0.00593388    0.00096527    0.00102544

     Total force =     0.027197     Total SCF correction =     0.000032


     Computing stress (Cartesian axis) and pressure

          total   stress  (Ry/bohr**3)                   (kbar)     P=       -1.74
  -0.00001464  -0.00000146   0.00000161           -2.15       -0.21        0.24
  -0.00000146  -0.00001133  -0.00000943           -0.21       -1.67       -1.39
   0.00000161  -0.00000943  -0.00000960            0.24       -1.39       -1.41

     Energy error            =      1.3E-03 Ry
     Gradient error          =      7.7E-03 Ry/Bohr
     Cell gradient error     =      2.2E+00 kbar

     number of scf cycles    =  13
     number of bfgs steps    =  12

     enthalpy           old  =   -1971.0758087949 Ry
     enthalpy           new  =   -1971.0771009984 Ry

     CASE: enthalpy          _new < enthalpy          _old

     new trust radius        =       0.0375860071 bohr
     new conv_thr            =       0.0000000008 Ry

     new unit-cell volume =   1686.44693 a.u.^3 (   249.90565 Ang^3 )
     density =      3.18764 g/cm^3

CELL_PARAMETERS (angstrom)
   7.517979623  -0.019059498   0.064091542
  -5.041856585   5.809319547   0.006770541
  -2.197613766   1.094319477   5.725251733

ATOMIC_POSITIONS (angstrom)
Ni              -4.1835004059        5.2940382523        5.5122210760
Mg              -2.9477841594        4.8615368317        2.4856206726
Mg               3.2757885707        2.0525117855        3.3205501229
Mg               4.3531640056        1.4253745856        0.4154662934
Mg               0.9152111097        6.4898256841        4.3857327343
Mg              -0.4963866364        0.3493705960        1.4439079610
Mg              -0.4474012718        3.6282271259        4.3451113198
Mg               0.6459236872        3.2883753243        1.4215704323
Ni              -1.6215928875        6.1196607719        5.2376862455
Ni              -1.7991214078        2.4801451802        2.3841196908
Ni               2.0923448320        4.3741450049        3.4230474212
Ni               1.9035113641        0.7625096450        0.5090882256
H               -0.4173187469        5.2416069186        5.6379263619
H               -0.3322728314        2.1358065482        2.6879461991
H                0.6327005943        4.7460119654        3.0789627108
H                0.6657474390        1.6263204668        0.2305032706
H                4.9959604833        1.1046781472        2.4040971810
H                3.9410086059        1.7654362792        5.3398065413
H               -3.4611283741        5.0213958481        0.3996561851
H               -4.7036191025        5.7635462256        3.4799369725
H               -2.6566098009        6.0420669513        4.1079541471
H               -2.2393144446        3.2398419148        1.0665186751
H                2.8539903218        3.9119653995        4.7380965084
H                2.7233503950        0.9251392199        1.8108882399
H                0.5914352659        2.0073591873        4.9689196177
H                2.6027996791        3.5716731340        2.2070385192
H               -2.3314611482        3.3252029208        3.5576955799
H               -0.6562953224        4.8303414474        0.5455245213



     Writing config-only to output data dir ./outdir/mg2nih4_ni.save/ :
     XML data file
     NEW-OLD atomic charge density approx. for the potential
     New effective cutoffs (rho, wfc):  530.40   66.33

     Check: negative core charge=   -0.000001

     total cpu time spent up to now is     6867.9 secs

     Self-consistent Calculation

     iteration #  1     ecut=    60.00 Ry     beta= 0.30
     Davidson diagonalization with overlap
     ethr =  1.00E-06,  avg # of iterations =  4.3

     total cpu time spent up to now is     6926.4 secs

     total energy              =   -1971.07738341 Ry
     estimated scf accuracy    <       0.00464737 Ry

     iteration #  2     ecut=    60.00 Ry     beta= 0.30
     Davidson diagonalization with overlap
     ethr =  3.87E-06,  avg # of iterations =  3.0

     total cpu time spent up to now is     6961.7 secs

     total energy              =   -1971.07732143 Ry
     estimated scf accuracy    <       0.01498984 Ry

     iteration #  3     ecut=    60.00 Ry     beta= 0.30
     Davidson diagonalization with overlap
     ethr =  3.87E-06,  avg # of iterations =  2.3

     total cpu time spent up to now is     6993.8 secs

     total energy              =   -1971.07846860 Ry
     estimated scf accuracy    <       0.00258565 Ry

     iteration #  4     ecut=    60.00 Ry     beta= 0.30
     Davidson diagonalization with overlap
     ethr =  2.15E-06,  avg # of iterations =  2.0

     total cpu time spent up to now is     7021.0 secs

     total energy              =   -1971.07863045 Ry
     estimated scf accuracy    <       0.00087755 Ry

     iteration #  5     ecut=    60.00 Ry     beta= 0.30
     Davidson diagonalization with overlap
     ethr =  7.31E-07,  avg # of iterations =  2.0

     total cpu time spent up to now is     7048.3 secs

     total energy              =   -1971.07865200 Ry
     estimated scf accuracy    <       0.00079132 Ry

     iteration #  6     ecut=    60.00 Ry     beta= 0.30
     Davidson diagonalization with overlap
     ethr =  6.59E-07,  avg # of iterations =  1.0

     total cpu time spent up to now is     7071.2 secs

     total energy              =   -1971.07870128 Ry
     estimated scf accuracy    <       0.00002155 Ry

     iteration #  7     ecut=    60.00 Ry     beta= 0.30
     Davidson diagonalization with overlap
     ethr =  1.80E-08,  avg # of iterations =  3.0

     total cpu time spent up to now is     7107.1 secs

     total energy              =   -1971.07870217 Ry
     estimated scf accuracy    <       0.00005682 Ry

     iteration #  8     ecut=    60.00 Ry     beta= 0.30
     Davidson diagonalization with overlap
     ethr =  1.80E-08,  avg # of iterations =  2.0

     total cpu time spent up to now is     7134.8 secs

     total energy              =   -1971.07870543 Ry
     estimated scf accuracy    <       0.00000573 Ry

     iteration #  9     ecut=    60.00 Ry     beta= 0.30
     Davidson diagonalization with overlap
     ethr =  4.77E-09,  avg # of iterations =  2.0

     total cpu time spent up to now is     7163.1 secs

     total energy              =   -1971.07870606 Ry
     estimated scf accuracy    <       0.00000136 Ry

     iteration # 10     ecut=    60.00 Ry     beta= 0.30
     Davidson diagonalization with overlap
     ethr =  1.14E-09,  avg # of iterations =  4.7

     total cpu time spent up to now is     7210.1 secs

     total energy              =   -1971.07870655 Ry
     estimated scf accuracy    <       0.00000137 Ry

     iteration # 11     ecut=    60.00 Ry     beta= 0.30
     Davidson diagonalization with overlap
     ethr =  1.14E-09,  avg # of iterations =  1.0

     total cpu time spent up to now is     7233.0 secs

     total energy              =   -1971.07870665 Ry
     estimated scf accuracy    <       0.00000003 Ry

     iteration # 12     ecut=    60.00 Ry     beta= 0.30
     Davidson diagonalization with overlap
     ethr =  2.31E-11,  avg # of iterations =  3.0

     total cpu time spent up to now is     7269.2 secs

     total energy              =   -1971.07870666 Ry
     estimated scf accuracy    <       0.00000002 Ry

     iteration # 13     ecut=    60.00 Ry     beta= 0.30
     Davidson diagonalization with overlap
     ethr =  1.97E-11,  avg # of iterations =  1.0

     total cpu time spent up to now is     7292.3 secs

     total energy              =   -1971.07870666 Ry
     estimated scf accuracy    <          7.7E-10 Ry

     iteration # 14     ecut=    60.00 Ry     beta= 0.30
     Davidson diagonalization with overlap
     ethr =  6.41E-13,  avg # of iterations =  3.0

     total cpu time spent up to now is     7328.2 secs

     End of self-consistent calculation

     Number of k-points >= 100: set verbosity='high' to print the bands.

     the Fermi energy is     6.4346 ev

!    total energy              =   -1971.07870666 Ry
     estimated scf accuracy    <          8.5E-11 Ry
     smearing contrib. (-TS)   =       0.00063516 Ry
     internal energy E=F+TS    =   -1971.07934182 Ry

     The total energy is F=E-TS. E is the sum of the following terms:
     one-electron contribution =   -1763.04296791 Ry
     hartree contribution      =     915.78706403 Ry
     xc contribution           =    -201.23359993 Ry
     ewald contribution        =    -703.18046632 Ry
     DFT-D3 Dispersion         =      -0.36451423 Ry
     one-center paw contrib.   =    -219.04485745 Ry

     convergence has been achieved in  14 iterations

     Forces acting on atoms (cartesian axes, Ry/au):

     atom    1 type  1   force =     0.00111453    0.00416395   -0.00433617
     atom    2 type  2   force =     0.00035556    0.00181627    0.00349381
     atom    3 type  2   force =     0.00124563   -0.00300583   -0.00174025
     atom    4 type  2   force =     0.00027853    0.00259448   -0.00247705
     atom    5 type  2   force =    -0.00125316   -0.00074851    0.00175314
     atom    6 type  2   force =    -0.00165081   -0.00024492   -0.00139940
     atom    7 type  2   force =    -0.00127213    0.00399033   -0.00055835
     atom    8 type  2   force =    -0.00095832   -0.00287151    0.00096132
     atom    9 type  1   force =    -0.00053406   -0.00065345   -0.00222156
     atom   10 type  1   force =     0.00444412   -0.00071560    0.00098398
     atom   11 type  1   force =    -0.00322513   -0.00272338    0.00295234
     atom   12 type  1   force =    -0.00028794    0.00134058    0.00225364
     atom   13 type  3   force =     0.00173843   -0.00111718    0.00131218
     atom   14 type  3   force =     0.00590269   -0.00308066    0.00326300
     atom   15 type  3   force =    -0.00337618    0.00294423   -0.00324084
     atom   16 type  3   force =    -0.00374341    0.00054334   -0.00092657
     atom   17 type  3   force =    -0.00154065   -0.00278628   -0.00271541
     atom   18 type  3   force =    -0.00303272    0.00254263    0.00014269
     atom   19 type  3   force =     0.00264896   -0.00465998   -0.00072847
     atom   20 type  3   force =    -0.00131100    0.00235972    0.00163390
     atom   21 type  3   force =    -0.00316876    0.00164274   -0.00454984
     atom   22 type  3   force =    -0.00556706   -0.00175782   -0.00012101
     atom   23 type  3   force =     0.00510303   -0.00620604   -0.00012075
     atom   24 type  3   force =     0.00315345    0.00169291    0.00157112
     atom   25 type  3   force =     0.00272291    0.00471655   -0.00214024
     atom   26 type  3   force =     0.00018889   -0.00200796   -0.00138857
     atom   27 type  3   force =    -0.00113593    0.00164108    0.00404680
     atom   28 type  3   force =     0.00316052    0.00059029    0.00429658

     Total force =     0.024367     Total SCF correction =     0.000042


     Computing stress (Cartesian axis) and pressure

          total   stress  (Ry/bohr**3)                   (kbar)     P=        5.78
   0.00004027  -0.00000247   0.00000066            5.92       -0.36        0.10
  -0.00000247   0.00003134  -0.00000190           -0.36        4.61       -0.28
   0.00000066  -0.00000190   0.00004623            0.10       -0.28        6.80

     Energy error            =      1.6E-03 Ry
     Gradient error          =      6.2E-03 Ry/Bohr
     Cell gradient error     =      6.8E+00 kbar

     number of scf cycles    =  14
     number of bfgs steps    =  13

     enthalpy           old  =   -1971.0771009984 Ry
     enthalpy           new  =   -1971.0787066598 Ry

     CASE: enthalpy          _new < enthalpy          _old

     new trust radius        =       0.0326351999 bohr
     new conv_thr            =       0.0000000006 Ry

     new unit-cell volume =   1681.92088 a.u.^3 (   249.23496 Ang^3 )
     density =      3.19622 g/cm^3

CELL_PARAMETERS (angstrom)
   7.507611256  -0.017481240   0.063147016
  -5.033802101   5.804056727   0.006409572
  -2.195000065   1.092058744   5.721989874

ATOMIC_POSITIONS (angstrom)
Ni              -4.1808327314        5.2888161410        5.4979098905
Mg              -2.9429699719        4.8627248788        2.4916914416
Mg               3.2739248555        2.0454953235        3.3124708535
Mg               4.3486044365        1.4295818728        0.4090986032
Mg               0.9142587305        6.4835803535        4.3858453810
Mg              -0.4974756403        0.3492126492        1.4389062759
Mg              -0.4482900872        3.6350901307        4.3406511229
Mg               0.6423196790        3.2784018840        1.4215115477
Ni              -1.6245730954        6.1106892418        5.2349713290
Ni              -1.7898972538        2.4771034869        2.3832172589
Ni               2.0849737407        4.3650861516        3.4271012669
Ni               1.9006552756        0.7624903902        0.5106080787
H               -0.4172054127        5.2376863182        5.6371786075
H               -0.3231488170        2.1276078244        2.6924918249
H                0.6301202326        4.7482043270        3.0696980733
H                0.6605735145        1.6232000458        0.2286252141
H                4.9880270885        1.1054974784        2.3946153516
H                3.9282361142        1.7669840038        5.3366698561
H               -3.4438268369        5.0116195086        0.3967091749
H               -4.7013097015        5.7582667605        3.4811490927
H               -2.6597550467        6.0398237497        4.0998964452
H               -2.2428288872        3.2251862361        1.0761968858
H                2.8620525262        3.9075217048        4.7327990899
H                2.7229653643        0.9288474763        1.8092154977
H                0.5928899975        2.0142577958        4.9657078045
H                2.5991290087        3.5674171710        2.2057699861
H               -2.3279028660        3.3219449943        3.5565104118
H               -0.6453869523        4.8285413266        0.5444341054



     Writing config-only to output data dir ./outdir/mg2nih4_ni.save/ :
     XML data file
     NEW-OLD atomic charge density approx. for the potential
     New effective cutoffs (rho, wfc):  531.36   66.46

     Check: negative core charge=   -0.000001

     total cpu time spent up to now is     7345.4 secs

     Self-consistent Calculation

     iteration #  1     ecut=    60.00 Ry     beta= 0.30
     Davidson diagonalization with overlap
     ethr =  1.00E-06,  avg # of iterations =  4.1

     total cpu time spent up to now is     7401.1 secs

     total energy              =   -1971.07958653 Ry
     estimated scf accuracy    <       0.00160985 Ry

     iteration #  2     ecut=    60.00 Ry     beta= 0.30
     Davidson diagonalization with overlap
     ethr =  1.34E-06,  avg # of iterations =  2.1

     total cpu time spent up to now is     7431.9 secs

     total energy              =   -1971.07938921 Ry
     estimated scf accuracy    <       0.00542199 Ry

     iteration #  3     ecut=    60.00 Ry     beta= 0.30
     Davidson diagonalization with overlap
     ethr =  1.34E-06,  avg # of iterations =  2.0

     total cpu time spent up to now is     7460.8 secs

     total energy              =   -1971.07977174 Ry
     estimated scf accuracy    <       0.00108906 Ry

     iteration #  4     ecut=    60.00 Ry     beta= 0.30
     Davidson diagonalization with overlap
     ethr =  9.08E-07,  avg # of iterations =  2.0

     total cpu time spent up to now is     7488.3 secs

     total energy              =   -1971.07979924 Ry
     estimated scf accuracy    <       0.00110518 Ry

     iteration #  5     ecut=    60.00 Ry     beta= 0.30
     Davidson diagonalization with overlap
     ethr =  9.08E-07,  avg # of iterations =  1.0

     total cpu time spent up to now is     7511.3 secs

     total energy              =   -1971.07986122 Ry
     estimated scf accuracy    <       0.00014464 Ry

     iteration #  6     ecut=    60.00 Ry     beta= 0.30
     Davidson diagonalization with overlap
     ethr =  1.21E-07,  avg # of iterations =  2.0

     total cpu time spent up to now is     7538.7 secs

     total energy              =   -1971.07987430 Ry
     estimated scf accuracy    <       0.00002231 Ry

     iteration #  7     ecut=    60.00 Ry     beta= 0.30
     Davidson diagonalization with overlap
     ethr =  1.86E-08,  avg # of iterations =  2.0

     total cpu time spent up to now is     7567.5 secs

     total energy              =   -1971.07987411 Ry
     estimated scf accuracy    <       0.00004057 Ry

     iteration #  8     ecut=    60.00 Ry     beta= 0.30
     Davidson diagonalization with overlap
     ethr =  1.86E-08,  avg # of iterations =  2.0

     total cpu time spent up to now is     7595.8 secs

     total energy              =   -1971.07987700 Ry
     estimated scf accuracy    <       0.00000124 Ry

     iteration #  9     ecut=    60.00 Ry     beta= 0.30
     Davidson diagonalization with overlap
     ethr =  1.04E-09,  avg # of iterations =  4.1

     total cpu time spent up to now is     7642.1 secs

     total energy              =   -1971.07987743 Ry
     estimated scf accuracy    <       0.00000184 Ry

     iteration # 10     ecut=    60.00 Ry     beta= 0.30
     Davidson diagonalization with overlap
     ethr =  1.04E-09,  avg # of iterations =  1.4

     total cpu time spent up to now is     7669.2 secs

     total energy              =   -1971.07987753 Ry
     estimated scf accuracy    <       0.00000023 Ry

     iteration # 11     ecut=    60.00 Ry     beta= 0.30
     Davidson diagonalization with overlap
     ethr =  1.92E-10,  avg # of iterations =  2.0

     total cpu time spent up to now is     7697.8 secs

     total energy              =   -1971.07987756 Ry
     estimated scf accuracy    <       0.00000003 Ry

     iteration # 12     ecut=    60.00 Ry     beta= 0.30
     Davidson diagonalization with overlap
     ethr =  2.85E-11,  avg # of iterations =  1.5

     total cpu time spent up to now is     7725.3 secs

     total energy              =   -1971.07987756 Ry
     estimated scf accuracy    <          4.7E-09 Ry

     iteration # 13     ecut=    60.00 Ry     beta= 0.30
     Davidson diagonalization with overlap
     ethr =  3.94E-12,  avg # of iterations =  2.0

     total cpu time spent up to now is     7754.1 secs

     End of self-consistent calculation

     Number of k-points >= 100: set verbosity='high' to print the bands.

     the Fermi energy is     6.4657 ev

!    total energy              =   -1971.07987757 Ry
     estimated scf accuracy    <          3.9E-10 Ry
     smearing contrib. (-TS)   =       0.00062163 Ry
     internal energy E=F+TS    =   -1971.08049919 Ry

     The total energy is F=E-TS. E is the sum of the following terms:
     one-electron contribution =   -1761.79870147 Ry
     hartree contribution      =     915.28181522 Ry
     xc contribution           =    -201.24378542 Ry
     ewald contribution        =    -703.90750509 Ry
     DFT-D3 Dispersion         =      -0.36552281 Ry
     one-center paw contrib.   =    -219.04679961 Ry

     convergence has been achieved in  13 iterations

     Forces acting on atoms (cartesian axes, Ry/au):

     atom    1 type  1   force =     0.00185529    0.00331020    0.00060361
     atom    2 type  2   force =     0.00054608    0.00046169    0.00243679
     atom    3 type  2   force =     0.00134077   -0.00220848   -0.00086854
     atom    4 type  2   force =     0.00013014    0.00272288   -0.00215942
     atom    5 type  2   force =    -0.00133195   -0.00016431    0.00108400
     atom    6 type  2   force =    -0.00229148   -0.00152969   -0.00011338
     atom    7 type  2   force =    -0.00153708    0.00238203    0.00010794
     atom    8 type  2   force =    -0.00040593   -0.00149873    0.00052015
     atom    9 type  1   force =     0.00196959    0.00077942   -0.00508742
     atom   10 type  1   force =     0.00414963   -0.00173363    0.00310308
     atom   11 type  1   force =    -0.00247301   -0.00143104    0.00031532
     atom   12 type  1   force =    -0.00007829    0.00185549    0.00121447
     atom   13 type  3   force =     0.00165901   -0.00074052    0.00138769
     atom   14 type  3   force =     0.00411350   -0.00291013    0.00333944
     atom   15 type  3   force =    -0.00246793    0.00260788   -0.00320506
     atom   16 type  3   force =    -0.00306354    0.00012732   -0.00133592
     atom   17 type  3   force =    -0.00076159   -0.00262665   -0.00203575
     atom   18 type  3   force =    -0.00311687    0.00104133   -0.00042304
     atom   19 type  3   force =     0.00217110   -0.00412710   -0.00037128
     atom   20 type  3   force =    -0.00161499    0.00113623    0.00223208
     atom   21 type  3   force =    -0.00175473    0.00211363   -0.00255888
     atom   22 type  3   force =    -0.00541231    0.00254036   -0.00546992
     atom   23 type  3   force =     0.00528144   -0.00695306   -0.00056329
     atom   24 type  3   force =     0.00295072    0.00105822    0.00093307
     atom   25 type  3   force =     0.00172460    0.00462556   -0.00153305
     atom   26 type  3   force =    -0.00033791   -0.00151154   -0.00062519
     atom   27 type  3   force =    -0.00090960    0.00105042    0.00374081
     atom   28 type  3   force =    -0.00033465   -0.00037779    0.00533169

     Total force =     0.022496     Total SCF correction =     0.000077


     Computing stress (Cartesian axis) and pressure

          total   stress  (Ry/bohr**3)                   (kbar)     P=        6.56
   0.00004827  -0.00000343  -0.00000205            7.10       -0.50       -0.30
  -0.00000343   0.00003276   0.00000568           -0.50        4.82        0.84
  -0.00000205   0.00000568   0.00005270           -0.30        0.84        7.75

     Energy error            =      1.2E-03 Ry
     Gradient error          =      7.0E-03 Ry/Bohr
     Cell gradient error     =      7.8E+00 kbar

     number of scf cycles    =  15
     number of bfgs steps    =  14

     enthalpy           old  =   -1971.0787066598 Ry
     enthalpy           new  =   -1971.0798775652 Ry

     CASE: enthalpy          _new < enthalpy          _old

     new trust radius        =       0.0560735014 bohr
     new conv_thr            =       0.0000000007 Ry

     new unit-cell volume =   1679.06615 a.u.^3 (   248.81193 Ang^3 )
     density =      3.20165 g/cm^3

CELL_PARAMETERS (angstrom)
   7.495710789  -0.016870870   0.063429690
  -5.025435398   5.803913266   0.008539035
  -2.191117208   1.094395109   5.721459134

ATOMIC_POSITIONS (angstrom)
Ni              -4.1814446937        5.2847840435        5.4951837857
Mg              -2.9341107505        4.8732196241        2.5079904206
Mg               3.2722087251        2.0378597841        3.3027848647
Mg               4.3438703889        1.4401463427        0.3974436450
Mg               0.9174381559        6.4853665003        4.3942483590
Mg              -0.5006481247        0.3466349976        1.4337953420
Mg              -0.4494298324        3.6546756876        4.3405120948
Mg               0.6331533594        3.2673207330        1.4229187966
Ni              -1.6275139714        6.1077742273        5.2318455147
Ni              -1.7733120062        2.4758809699        2.3860158657
Ni               2.0724740300        4.3579316680        3.4385989551
Ni               1.8975797407        0.7659975953        0.5152813578
H               -0.4148514609        5.2427680102        5.6502752389
H               -0.3065425465        2.1150761884        2.7079734924
H                0.6240479277        4.7630745180        3.0548985895
H                0.6492874741        1.6184984478        0.2227783164
H                4.9788985779        1.1071405118        2.3804519025
H                3.9101594342        1.7729001447        5.3366486362
H               -3.4124856579        4.9992948151        0.3937303468
H               -4.7007431690        5.7595178016        3.4959059051
H               -2.6741075860        6.0490451332        4.0969140032
H               -2.2492304180        3.2137511496        1.0846467776
H                2.8875851858        3.9121936316        4.7342003719
H                2.7252643949        0.9379019056        1.8110561086
H                0.5958254377        2.0325149472        4.9624515858
H                2.5942497776        3.5662058855        2.2081106005
H               -2.3242816370        3.3239238183        3.5596733532
H               -0.6451261922        4.8287259873        0.5416557947



     Writing config-only to output data dir ./outdir/mg2nih4_ni.save/ :
     XML data file
     NEW-OLD atomic charge density approx. for the potential
     New effective cutoffs (rho, wfc):  532.71   66.62

     Check: negative core charge=   -0.000001

     total cpu time spent up to now is     7771.3 secs

     Self-consistent Calculation

     iteration #  1     ecut=    60.00 Ry     beta= 0.30
     Davidson diagonalization with overlap
     ethr =  1.00E-06,  avg # of iterations =  4.7

     total cpu time spent up to now is     7835.5 secs

     total energy              =   -1971.08090013 Ry
     estimated scf accuracy    <       0.00277400 Ry

     iteration #  2     ecut=    60.00 Ry     beta= 0.30
     Davidson diagonalization with overlap
     ethr =  2.31E-06,  avg # of iterations =  2.4

     total cpu time spent up to now is     7870.2 secs

     total energy              =   -1971.08071713 Ry
     estimated scf accuracy    <       0.00387137 Ry

     iteration #  3     ecut=    60.00 Ry     beta= 0.30
     Davidson diagonalization with overlap
     ethr =  2.31E-06,  avg # of iterations =  2.0

     total cpu time spent up to now is     7898.2 secs

     total energy              =   -1971.08103642 Ry
     estimated scf accuracy    <       0.00214514 Ry

     iteration #  4     ecut=    60.00 Ry     beta= 0.30
     Davidson diagonalization with overlap
     ethr =  1.79E-06,  avg # of iterations =  1.5

     total cpu time spent up to now is     7925.9 secs

     total energy              =   -1971.08111282 Ry
     estimated scf accuracy    <       0.00110130 Ry

     iteration #  5     ecut=    60.00 Ry     beta= 0.30
     Davidson diagonalization with overlap
     ethr =  9.18E-07,  avg # of iterations =  1.7

     total cpu time spent up to now is     7954.6 secs

     total energy              =   -1971.08117971 Ry
     estimated scf accuracy    <       0.00031477 Ry

     iteration #  6     ecut=    60.00 Ry     beta= 0.30
     Davidson diagonalization with overlap
     ethr =  2.62E-07,  avg # of iterations =  1.0

     total cpu time spent up to now is     7977.5 secs

     total energy              =   -1971.08120209 Ry
     estimated scf accuracy    <       0.00006376 Ry

     iteration #  7     ecut=    60.00 Ry     beta= 0.30
     Davidson diagonalization with overlap
     ethr =  5.31E-08,  avg # of iterations =  2.0

     total cpu time spent up to now is     8005.3 secs

     total energy              =   -1971.08120498 Ry
     estimated scf accuracy    <       0.00003209 Ry

     iteration #  8     ecut=    60.00 Ry     beta= 0.30
     Davidson diagonalization with overlap
     ethr =  2.67E-08,  avg # of iterations =  1.0

     total cpu time spent up to now is     8028.7 secs

     total energy              =   -1971.08120765 Ry
     estimated scf accuracy    <       0.00000349 Ry

     iteration #  9     ecut=    60.00 Ry     beta= 0.30
     Davidson diagonalization with overlap
     ethr =  2.91E-09,  avg # of iterations =  4.5

     total cpu time spent up to now is     8074.8 secs

     total energy              =   -1971.08120874 Ry
     estimated scf accuracy    <       0.00000084 Ry

     iteration # 10     ecut=    60.00 Ry     beta= 0.30
     Davidson diagonalization with overlap
     ethr =  6.99E-10,  avg # of iterations =  2.0

     total cpu time spent up to now is     8102.1 secs

     total energy              =   -1971.08120881 Ry
     estimated scf accuracy    <       0.00000018 Ry

     iteration # 11     ecut=    60.00 Ry     beta= 0.30
     Davidson diagonalization with overlap
     ethr =  1.52E-10,  avg # of iterations =  2.0

     total cpu time spent up to now is     8130.8 secs

     total energy              =   -1971.08120882 Ry
     estimated scf accuracy    <       0.00000015 Ry

     iteration # 12     ecut=    60.00 Ry     beta= 0.30
     Davidson diagonalization with overlap
     ethr =  1.21E-10,  avg # of iterations =  1.0

     total cpu time spent up to now is     8153.8 secs

     total energy              =   -1971.08120884 Ry
     estimated scf accuracy    <          5.7E-09 Ry

     iteration # 13     ecut=    60.00 Ry     beta= 0.30
     Davidson diagonalization with overlap
     ethr =  4.72E-12,  avg # of iterations =  2.3

     total cpu time spent up to now is     8186.3 secs

     total energy              =   -1971.08120884 Ry
     estimated scf accuracy    <          1.8E-09 Ry

     iteration # 14     ecut=    60.00 Ry     beta= 0.30
     Davidson diagonalization with overlap
     ethr =  1.53E-12,  avg # of iterations =  1.1

     total cpu time spent up to now is     8210.8 secs

     End of self-consistent calculation

     Number of k-points >= 100: set verbosity='high' to print the bands.

     the Fermi energy is     6.4922 ev

!    total energy              =   -1971.08120884 Ry
     estimated scf accuracy    <          1.4E-10 Ry
     smearing contrib. (-TS)   =       0.00063786 Ry
     internal energy E=F+TS    =   -1971.08184670 Ry

     The total energy is F=E-TS. E is the sum of the following terms:
     one-electron contribution =   -1760.02038477 Ry
     hartree contribution      =     914.48515464 Ry
     xc contribution           =    -201.23633666 Ry
     ewald contribution        =    -704.89662250 Ry
     DFT-D3 Dispersion         =      -0.36610123 Ry
     one-center paw contrib.   =    -219.04755619 Ry

     convergence has been achieved in  14 iterations

     Forces acting on atoms (cartesian axes, Ry/au):

     atom    1 type  1   force =     0.00318140    0.00410604    0.00323213
     atom    2 type  2   force =     0.00028909   -0.00133060    0.00070634
     atom    3 type  2   force =     0.00185811   -0.00055238    0.00038512
     atom    4 type  2   force =     0.00009143    0.00264010   -0.00133565
     atom    5 type  2   force =    -0.00161109    0.00068024    0.00023763
     atom    6 type  2   force =    -0.00299643   -0.00292352    0.00136687
     atom    7 type  2   force =    -0.00208690    0.00012520    0.00082281
     atom    8 type  2   force =     0.00068875    0.00029496   -0.00006262
     atom    9 type  1   force =     0.00359746    0.00167739   -0.00676212
     atom   10 type  1   force =     0.00192743   -0.00223413    0.00479388
     atom   11 type  1   force =    -0.00013482    0.00060662   -0.00232910
     atom   12 type  1   force =     0.00021370    0.00121722   -0.00090245
     atom   13 type  3   force =     0.00018867    0.00061777    0.00071785
     atom   14 type  3   force =     0.00057011   -0.00216605    0.00289664
     atom   15 type  3   force =     0.00036679    0.00143435   -0.00241133
     atom   16 type  3   force =    -0.00104896   -0.00101430   -0.00139373
     atom   17 type  3   force =     0.00098079   -0.00110912   -0.00114005
     atom   18 type  3   force =    -0.00327850   -0.00104240   -0.00101461
     atom   19 type  3   force =     0.00061639   -0.00100618    0.00082644
     atom   20 type  3   force =    -0.00267867   -0.00152486    0.00260772
     atom   21 type  3   force =     0.00138119    0.00289496    0.00075876
     atom   22 type  3   force =    -0.00494669    0.00473472   -0.00712513
     atom   23 type  3   force =     0.00389283   -0.00857735   -0.00378400
     atom   24 type  3   force =     0.00194884   -0.00023729   -0.00136483
     atom   25 type  3   force =    -0.00031181    0.00458614    0.00067252
     atom   26 type  3   force =    -0.00138269   -0.00052382    0.00134757
     atom   27 type  3   force =     0.00005284   -0.00063982    0.00192833
     atom   28 type  3   force =    -0.00136926   -0.00073389    0.00632501

     Total force =     0.023075     Total SCF correction =     0.000026


     Computing stress (Cartesian axis) and pressure

          total   stress  (Ry/bohr**3)                   (kbar)     P=        5.06
   0.00003965  -0.00000005  -0.00000993            5.83       -0.01       -1.46
  -0.00000005   0.00002214   0.00001656           -0.01        3.26        2.44
  -0.00000993   0.00001656   0.00004137           -1.46        2.44        6.09

     Energy error            =      1.3E-03 Ry
     Gradient error          =      8.6E-03 Ry/Bohr
     Cell gradient error     =      6.1E+00 kbar

     number of scf cycles    =  16
     number of bfgs steps    =  15

     enthalpy           old  =   -1971.0798775652 Ry
     enthalpy           new  =   -1971.0812088395 Ry

     CASE: enthalpy          _new < enthalpy          _old

     new trust radius        =       0.0381373156 bohr
     new conv_thr            =       0.0000000009 Ry

     new unit-cell volume =   1686.08608 a.u.^3 (   249.85218 Ang^3 )
     density =      3.18832 g/cm^3

CELL_PARAMETERS (angstrom)
   7.504264735  -0.014733219   0.058754844
  -5.029553996   5.807970203   0.016055855
  -2.196869864   1.099384124   5.735618885

ATOMIC_POSITIONS (angstrom)
Ni              -4.1899776942        5.2948170343        5.5066590617
Mg              -2.9370029353        4.8839568735        2.5283551661
Mg               3.2790451988        2.0368077946        3.3031306800
Mg               4.3506906727        1.4507787393        0.3893227120
Mg               0.9155422592        6.4955792987        4.4115739338
Mg              -0.5066327318        0.3450405086        1.4342240404
Mg              -0.4552318809        3.6732683070        4.3520624824
Mg               0.6308055223        3.2636778534        1.4292245469
Ni              -1.6337447512        6.1157693644        5.2429483350
Ni              -1.7668266056        2.4767504522        2.3995886127
Ni               2.0683043195        4.3599299398        3.4522058330
Ni               1.8997296651        0.7691948920        0.5171942742
H               -0.4182589401        5.2542534005        5.6714710559
H               -0.2985891086        2.1099516216        2.7257158736
H                0.6225504261        4.7786855481        3.0542063193
H                0.6441940851        1.6166788289        0.2206121773
H                4.9836091117        1.1122225771        2.3736148603
H                3.9006705985        1.7811468248        5.3461984821
H               -3.4003216561        4.9967328109        0.3986004013
H               -4.7150482193        5.7644467427        3.5173360692
H               -2.6855428131        6.0641334981        4.1081106801
H               -2.2633984975        3.2090799763        1.0952888126
H                2.9068293752        3.9121568545        4.7402282916
H                2.7326949033        0.9453856638        1.8120054971
H                0.5958599869        2.0529269392        4.9749233205
H                2.5949868946        3.5700403088        2.2163901861
H               -2.3279061376        3.3284261643        3.5733517218
H               -0.6372588004        4.8348566895        0.5514707486



     Writing config-only to output data dir ./outdir/mg2nih4_ni.save/ :
     XML data file
     NEW-OLD atomic charge density approx. for the potential
     New effective cutoffs (rho, wfc):  530.71   66.37

     Check: negative core charge=   -0.000001

     total cpu time spent up to now is     8228.0 secs

     Self-consistent Calculation

     iteration #  1     ecut=    60.00 Ry     beta= 0.30
     Davidson diagonalization with overlap
     ethr =  1.00E-06,  avg # of iterations =  4.2

     total cpu time spent up to now is     8284.7 secs

     total energy              =   -1971.08190084 Ry
     estimated scf accuracy    <       0.00174714 Ry

     iteration #  2     ecut=    60.00 Ry     beta= 0.30
     Davidson diagonalization with overlap
     ethr =  1.46E-06,  avg # of iterations =  2.2

     total cpu time spent up to now is     8316.9 secs

     total energy              =   -1971.08188519 Ry
     estimated scf accuracy    <       0.00255217 Ry

     iteration #  3     ecut=    60.00 Ry     beta= 0.30
     Davidson diagonalization with overlap
     ethr =  1.46E-06,  avg # of iterations =  2.0

     total cpu time spent up to now is     8345.3 secs

     total energy              =   -1971.08210141 Ry
     estimated scf accuracy    <       0.00101003 Ry

     iteration #  4     ecut=    60.00 Ry     beta= 0.30
     Davidson diagonalization with overlap
     ethr =  8.42E-07,  avg # of iterations =  2.0

     total cpu time spent up to now is     8372.7 secs

     total energy              =   -1971.08213700 Ry
     estimated scf accuracy    <       0.00102824 Ry

     iteration #  5     ecut=    60.00 Ry     beta= 0.30
     Davidson diagonalization with overlap
     ethr =  8.42E-07,  avg # of iterations =  1.2

     total cpu time spent up to now is     8397.3 secs

     total energy              =   -1971.08219041 Ry
     estimated scf accuracy    <       0.00017879 Ry

     iteration #  6     ecut=    60.00 Ry     beta= 0.30
     Davidson diagonalization with overlap
     ethr =  1.49E-07,  avg # of iterations =  1.6

     total cpu time spent up to now is     8425.9 secs

     total energy              =   -1971.08220399 Ry
     estimated scf accuracy    <       0.00003112 Ry

     iteration #  7     ecut=    60.00 Ry     beta= 0.30
     Davidson diagonalization with overlap
     ethr =  2.59E-08,  avg # of iterations =  2.0

     total cpu time spent up to now is     8454.6 secs

     total energy              =   -1971.08220456 Ry
     estimated scf accuracy    <       0.00003793 Ry

     iteration #  8     ecut=    60.00 Ry     beta= 0.30
     Davidson diagonalization with overlap
     ethr =  2.59E-08,  avg # of iterations =  1.0

     total cpu time spent up to now is     8477.6 secs

     total energy              =   -1971.08220711 Ry
     estimated scf accuracy    <       0.00000170 Ry

     iteration #  9     ecut=    60.00 Ry     beta= 0.30
     Davidson diagonalization with overlap
     ethr =  1.41E-09,  avg # of iterations =  4.3

     total cpu time spent up to now is     8522.0 secs

     total energy              =   -1971.08220775 Ry
     estimated scf accuracy    <       0.00000058 Ry

     iteration # 10     ecut=    60.00 Ry     beta= 0.30
     Davidson diagonalization with overlap
     ethr =  4.86E-10,  avg # of iterations =  1.9

     total cpu time spent up to now is     8551.9 secs

     total energy              =   -1971.08220780 Ry
     estimated scf accuracy    <       0.00000014 Ry

     iteration # 11     ecut=    60.00 Ry     beta= 0.30
     Davidson diagonalization with overlap
     ethr =  1.13E-10,  avg # of iterations =  2.0

     total cpu time spent up to now is     8579.8 secs

     total energy              =   -1971.08220781 Ry
     estimated scf accuracy    <       0.00000008 Ry

     iteration # 12     ecut=    60.00 Ry     beta= 0.30
     Davidson diagonalization with overlap
     ethr =  6.89E-11,  avg # of iterations =  1.0

     total cpu time spent up to now is     8602.7 secs

     total energy              =   -1971.08220781 Ry
     estimated scf accuracy    <          5.8E-09 Ry

     iteration # 13     ecut=    60.00 Ry     beta= 0.30
     Davidson diagonalization with overlap
     ethr =  4.81E-12,  avg # of iterations =  2.0

     total cpu time spent up to now is     8631.8 secs

     End of self-consistent calculation

     Number of k-points >= 100: set verbosity='high' to print the bands.

     the Fermi energy is     6.4552 ev

!    total energy              =   -1971.08220782 Ry
     estimated scf accuracy    <          6.1E-10 Ry
     smearing contrib. (-TS)   =       0.00063342 Ry
     internal energy E=F+TS    =   -1971.08284123 Ry

     The total energy is F=E-TS. E is the sum of the following terms:
     one-electron contribution =   -1760.92563960 Ry
     hartree contribution      =     914.79213303 Ry
     xc contribution           =    -201.19278543 Ry
     ewald contribution        =    -704.34801878 Ry
     DFT-D3 Dispersion         =      -0.36471673 Ry
     one-center paw contrib.   =    -219.04381372 Ry

     convergence has been achieved in  13 iterations

     Forces acting on atoms (cartesian axes, Ry/au):

     atom    1 type  1   force =     0.00327864    0.00186560    0.00551252
     atom    2 type  2   force =     0.00001106   -0.00200767   -0.00051289
     atom    3 type  2   force =     0.00203708    0.00054953    0.00090841
     atom    4 type  2   force =    -0.00022019    0.00211270   -0.00083340
     atom    5 type  2   force =    -0.00083337    0.00065103    0.00009338
     atom    6 type  2   force =    -0.00287609   -0.00326749    0.00200592
     atom    7 type  2   force =    -0.00211684   -0.00121411    0.00106130
     atom    8 type  2   force =     0.00098035    0.00131310   -0.00057505
     atom    9 type  1   force =     0.00356979    0.00112060   -0.00524652
     atom   10 type  1   force =    -0.00072272   -0.00121797    0.00321168
     atom   11 type  1   force =     0.00138675    0.00132634   -0.00312587
     atom   12 type  1   force =     0.00011313    0.00078540   -0.00191054
     atom   13 type  3   force =    -0.00067088    0.00133801    0.00024928
     atom   14 type  3   force =    -0.00161132   -0.00141249    0.00224840
     atom   15 type  3   force =     0.00217343    0.00027606   -0.00155427
     atom   16 type  3   force =     0.00037605   -0.00174864   -0.00113719
     atom   17 type  3   force =     0.00215369   -0.00000491   -0.00053755
     atom   18 type  3   force =    -0.00285526   -0.00166786   -0.00110927
     atom   19 type  3   force =     0.00014320    0.00098694    0.00102303
     atom   20 type  3   force =    -0.00266331   -0.00262682    0.00330728
     atom   21 type  3   force =     0.00246758    0.00304552    0.00212883
     atom   22 type  3   force =    -0.00337991    0.00606540   -0.00729927
     atom   23 type  3   force =     0.00337117   -0.00642164   -0.00493948
     atom   24 type  3   force =     0.00121257   -0.00095613   -0.00270637
     atom   25 type  3   force =    -0.00168471    0.00434800    0.00225456
     atom   26 type  3   force =    -0.00210835    0.00007372    0.00257952
     atom   27 type  3   force =     0.00082996   -0.00183744    0.00030252
     atom   28 type  3   force =    -0.00236150   -0.00147478    0.00460105

     Total force =     0.022627     Total SCF correction =     0.000100


     Computing stress (Cartesian axis) and pressure

          total   stress  (Ry/bohr**3)                   (kbar)     P=       -0.33
   0.00000395  -0.00000025  -0.00001235            0.58       -0.04       -1.82
  -0.00000025  -0.00000981   0.00001965           -0.04       -1.44        2.89
  -0.00001235   0.00001965  -0.00000095           -1.82        2.89       -0.14

     Energy error            =      1.0E-03 Ry
     Gradient error          =      7.3E-03 Ry/Bohr
     Cell gradient error     =      2.9E+00 kbar

     number of scf cycles    =  17
     number of bfgs steps    =  16

     enthalpy           old  =   -1971.0812088395 Ry
     enthalpy           new  =   -1971.0822078157 Ry

     CASE: enthalpy          _new < enthalpy          _old

     new trust radius        =       0.0465974735 bohr
     new conv_thr            =       0.0000000007 Ry

     new unit-cell volume =   1690.80567 a.u.^3 (   250.55155 Ang^3 )
     density =      3.17942 g/cm^3

CELL_PARAMETERS (angstrom)
   7.508834394  -0.012810282   0.052750126
  -5.031130092   5.811353891   0.029126718
  -2.202469826   1.109173765   5.747091303

ATOMIC_POSITIONS (angstrom)
Ni              -4.1977700364        5.3040776029        5.5289099186
Mg              -2.9373195567        4.8950364960        2.5512510482
Mg               3.2836208455        2.0393745058        3.3022451509
Mg               4.3550879897        1.4629213448        0.3798851177
Mg               0.9147082431        6.5097009407        4.4306463736
Mg              -0.5138653597        0.3414104677        1.4359475051
Mg              -0.4618919116        3.6939995294        4.3648505681
Mg               0.6267070720        3.2620580002        1.4355722200
Ni              -1.6377846335        6.1274620720        5.2520580103
Ni              -1.7606174780        2.4790163940        2.4142294960
Ni               2.0632606773        4.3654063081        3.4644130688
Ni               1.9010113215        0.7736330576        0.5180823949
H               -0.4224817674        5.2715755141        5.6961545399
H               -0.2926721618        2.1052410443        2.7456923165
H                0.6215983611        4.7970688143        3.0526359137
H                0.6385510826        1.6126638129        0.2171687352
H                4.9869426696        1.1195940019        2.3642095334
H                3.8873555169        1.7913213547        5.3517610785
H               -3.3834494448        4.9945654743        0.4079933855
H               -4.7282933273        5.7691099847        3.5466415826
H               -2.6981968786        6.0838871538        4.1260410887
H               -2.2753787183        3.2103405343        1.1023881715
H                2.9290244323        3.9177289273        4.7443632509
H                2.7381904272        0.9538533289        1.8107884055
H                0.5927760702        2.0785461433        4.9857396447
H                2.5927358627        3.5761531435        2.2272049455
H               -2.3304509848        3.3338538532        3.5863188207
H               -0.6381156443        4.8384434331        0.5623617681



     Writing config-only to output data dir ./outdir/mg2nih4_ni.save/ :
     XML data file
     NEW-OLD atomic charge density approx. for the potential
     New effective cutoffs (rho, wfc):  529.29   66.19

     Check: negative core charge=   -0.000001

     total cpu time spent up to now is     8649.1 secs

     Self-consistent Calculation

     iteration #  1     ecut=    60.00 Ry     beta= 0.30
     Davidson diagonalization with overlap
     c_bands:  1 eigenvalues not converged
     c_bands:  1 eigenvalues not converged
     ethr =  1.00E-06,  avg # of iterations =  4.4

     total cpu time spent up to now is     8708.8 secs

     total energy              =   -1971.08293719 Ry
     estimated scf accuracy    <       0.00128380 Ry

     iteration #  2     ecut=    60.00 Ry     beta= 0.30
     Davidson diagonalization with overlap
     ethr =  1.07E-06,  avg # of iterations =  2.1

     total cpu time spent up to now is     8739.5 secs

     total energy              =   -1971.08274468 Ry
     estimated scf accuracy    <       0.00369990 Ry

     iteration #  3     ecut=    60.00 Ry     beta= 0.30
     Davidson diagonalization with overlap
     ethr =  1.07E-06,  avg # of iterations =  2.2

     total cpu time spent up to now is     8769.1 secs

     total energy              =   -1971.08300607 Ry
     estimated scf accuracy    <       0.00140741 Ry

     iteration #  4     ecut=    60.00 Ry     beta= 0.30
     Davidson diagonalization with overlap
     ethr =  1.07E-06,  avg # of iterations =  1.9

     total cpu time spent up to now is     8798.6 secs

     total energy              =   -1971.08306891 Ry
     estimated scf accuracy    <       0.00035101 Ry

     iteration #  5     ecut=    60.00 Ry     beta= 0.30
     Davidson diagonalization with overlap
     ethr =  2.93E-07,  avg # of iterations =  1.3

     total cpu time spent up to now is     8824.4 secs

     total energy              =   -1971.08309143 Ry
     estimated scf accuracy    <       0.00005096 Ry

     iteration #  6     ecut=    60.00 Ry     beta= 0.30
     Davidson diagonalization with overlap
     ethr =  4.25E-08,  avg # of iterations =  2.0

     total cpu time spent up to now is     8853.3 secs

     total energy              =   -1971.08309493 Ry
     estimated scf accuracy    <       0.00007306 Ry

     iteration #  7     ecut=    60.00 Ry     beta= 0.30
     Davidson diagonalization with overlap
     ethr =  4.25E-08,  avg # of iterations =  1.4

     total cpu time spent up to now is     8880.3 secs

     total energy              =   -1971.08309932 Ry
     estimated scf accuracy    <       0.00000572 Ry

     iteration #  8     ecut=    60.00 Ry     beta= 0.30
     Davidson diagonalization with overlap
     ethr =  4.76E-09,  avg # of iterations =  2.0

     total cpu time spent up to now is     8909.2 secs

     total energy              =   -1971.08309988 Ry
     estimated scf accuracy    <       0.00000525 Ry

     iteration #  9     ecut=    60.00 Ry     beta= 0.30
     Davidson diagonalization with overlap
     ethr =  4.38E-09,  avg # of iterations =  1.2

     total cpu time spent up to now is     8934.1 secs

     total energy              =   -1971.08310035 Ry
     estimated scf accuracy    <       0.00000055 Ry

     iteration # 10     ecut=    60.00 Ry     beta= 0.30
     Davidson diagonalization with overlap
     ethr =  4.62E-10,  avg # of iterations =  4.0

     total cpu time spent up to now is     8979.6 secs

     total energy              =   -1971.08310058 Ry
     estimated scf accuracy    <       0.00000058 Ry

     iteration # 11     ecut=    60.00 Ry     beta= 0.30
     Davidson diagonalization with overlap
     ethr =  4.62E-10,  avg # of iterations =  1.0

     total cpu time spent up to now is     9002.7 secs

     total energy              =   -1971.08310062 Ry
     estimated scf accuracy    <       0.00000003 Ry

     iteration # 12     ecut=    60.00 Ry     beta= 0.30
     Davidson diagonalization with overlap
     ethr =  2.62E-11,  avg # of iterations =  2.3

     total cpu time spent up to now is     9034.7 secs

     total energy              =   -1971.08310062 Ry
     estimated scf accuracy    <       0.00000001 Ry

     iteration # 13     ecut=    60.00 Ry     beta= 0.30
     Davidson diagonalization with overlap
     ethr =  9.75E-12,  avg # of iterations =  1.0

     total cpu time spent up to now is     9057.6 secs

     End of self-consistent calculation

     Number of k-points >= 100: set verbosity='high' to print the bands.

     the Fermi energy is     6.4319 ev

!    total energy              =   -1971.08310062 Ry
     estimated scf accuracy    <          5.8E-10 Ry
     smearing contrib. (-TS)   =       0.00065555 Ry
     internal energy E=F+TS    =   -1971.08375618 Ry

     The total energy is F=E-TS. E is the sum of the following terms:
     one-electron contribution =   -1761.15329142 Ry
     hartree contribution      =     914.80054277 Ry
     xc contribution           =    -201.16338546 Ry
     ewald contribution        =    -704.16268360 Ry
     DFT-D3 Dispersion         =      -0.36377033 Ry
     one-center paw contrib.   =    -219.04116813 Ry

     convergence has been achieved in  13 iterations

     Forces acting on atoms (cartesian axes, Ry/au):

     atom    1 type  1   force =     0.00346483    0.00039862    0.00447166
     atom    2 type  2   force =    -0.00029236   -0.00187628   -0.00122917
     atom    3 type  2   force =     0.00205943    0.00130374    0.00094443
     atom    4 type  2   force =    -0.00043400    0.00156819   -0.00040984
     atom    5 type  2   force =    -0.00024110    0.00026246    0.00017247
     atom    6 type  2   force =    -0.00241581   -0.00281414    0.00199823
     atom    7 type  2   force =    -0.00207131   -0.00166082    0.00088438
     atom    8 type  2   force =     0.00105334    0.00141101   -0.00076163
     atom    9 type  1   force =     0.00180132   -0.00029296   -0.00171747
     atom   10 type  1   force =    -0.00306124    0.00051637   -0.00000169
     atom   11 type  1   force =     0.00267930    0.00127848   -0.00200375
     atom   12 type  1   force =    -0.00015558   -0.00022504   -0.00196044
     atom   13 type  3   force =    -0.00093748    0.00160918   -0.00026816
     atom   14 type  3   force =    -0.00306807   -0.00062235    0.00142164
     atom   15 type  3   force =     0.00334814   -0.00076950   -0.00066473
     atom   16 type  3   force =     0.00101123   -0.00194485   -0.00074654
     atom   17 type  3   force =     0.00281295    0.00055262   -0.00019047
     atom   18 type  3   force =    -0.00214269   -0.00120016   -0.00083820
     atom   19 type  3   force =    -0.00107677    0.00300727    0.00143165
     atom   20 type  3   force =    -0.00220581   -0.00263003    0.00376860
     atom   21 type  3   force =     0.00275165    0.00295594    0.00193149
     atom   22 type  3   force =    -0.00203951    0.00513953   -0.00448583
     atom   23 type  3   force =     0.00254578   -0.00464068   -0.00612034
     atom   24 type  3   force =     0.00084814   -0.00141009   -0.00337578
     atom   25 type  3   force =    -0.00226980    0.00407274    0.00304320
     atom   26 type  3   force =    -0.00240180    0.00017809    0.00285704
     atom   27 type  3   force =     0.00128168   -0.00267945   -0.00079309
     atom   28 type  3   force =    -0.00084445   -0.00148789    0.00264234

     Total force =     0.020244     Total SCF correction =     0.000070


     Computing stress (Cartesian axis) and pressure

          total   stress  (Ry/bohr**3)                   (kbar)     P=       -4.01
  -0.00002102  -0.00000016  -0.00001219           -3.09       -0.02       -1.79
  -0.00000016  -0.00002847   0.00001769           -0.02       -4.19        2.60
  -0.00001219   0.00001769  -0.00003236           -1.79        2.60       -4.76

     Energy error            =      8.9E-04 Ry
     Gradient error          =      6.1E-03 Ry/Bohr
     Cell gradient error     =      4.8E+00 kbar

     number of scf cycles    =  18
     number of bfgs steps    =  17

     enthalpy           old  =   -1971.0822078157 Ry
     enthalpy           new  =   -1971.0831006229 Ry

     CASE: enthalpy          _new < enthalpy          _old

     new trust radius        =       0.0556727698 bohr
     new conv_thr            =       0.0000000006 Ry

     new unit-cell volume =   1692.85180 a.u.^3 (   250.85476 Ang^3 )
     density =      3.17558 g/cm^3

CELL_PARAMETERS (angstrom)
   7.511498466  -0.010559180   0.042727115
  -5.031125519   5.810793649   0.048919529
  -2.210481057   1.122410751   5.756636612

ATOMIC_POSITIONS (angstrom)
Ni              -4.2041408488        5.3148041602        5.5556907337
Mg              -2.9385065121        4.9031834020        2.5765306911
Mg               3.2876477260        2.0441575442        3.2995377280
Mg               4.3580739011        1.4759268917        0.3688231213
Mg               0.9106765487        6.5232414264        4.4508842505
Mg              -0.5236834949        0.3364107873        1.4385522018
Mg              -0.4723290571        3.7144745413        4.3781543686
Mg               0.6229997448        3.2602674888        1.4426019720
Ni              -1.6426399166        6.1388876550        5.2615899866
Ni              -1.7572411567        2.4818194244        2.4300927963
Ni               2.0581584602        4.3715248687        3.4747519598
Ni               1.9014573779        0.7776668507        0.5167019143
H               -0.4301624994        5.2910102883        5.7204028874
H               -0.2904375598        2.1007616627        2.7664867551
H                0.6219471913        4.8139362229        3.0516488637
H                0.6334412092        1.6061878074        0.2139099388
H                4.9900443702        1.1285990433        2.3511913010
H                3.8683447500        1.8034782388        5.3522773933
H               -3.3667793105        4.9920434366        0.4237338575
H               -4.7439891885        5.7703889926        3.5825809586
H               -2.7093285451        6.1052932071        4.1482345045
H               -2.2894297831        3.2137987651        1.1094587896
H                2.9497942486        3.9192542580        4.7409259991
H                2.7428634336        0.9618508923        1.8046046950
H                0.5854351235        2.1103723971        4.9971174212
H                2.5870230732        3.5817715399        2.2399346888
H               -2.3331230283        3.3373881191        3.5999342361
H               -0.6376297872        4.8385331717        0.5796115768



     Writing config-only to output data dir ./outdir/mg2nih4_ni.save/ :
     XML data file
     NEW-OLD atomic charge density approx. for the potential
     New effective cutoffs (rho, wfc):  527.89   66.02

     Check: negative core charge=   -0.000001

     total cpu time spent up to now is     9074.8 secs

     Self-consistent Calculation

     iteration #  1     ecut=    60.00 Ry     beta= 0.30
     Davidson diagonalization with overlap
     ethr =  1.00E-06,  avg # of iterations =  4.6

     total cpu time spent up to now is     9136.7 secs

     total energy              =   -1971.08388435 Ry
     estimated scf accuracy    <       0.00142065 Ry

     iteration #  2     ecut=    60.00 Ry     beta= 0.30
     Davidson diagonalization with overlap
     ethr =  1.18E-06,  avg # of iterations =  2.5

     total cpu time spent up to now is     9171.7 secs

     total energy              =   -1971.08363200 Ry
     estimated scf accuracy    <       0.00539698 Ry

     iteration #  3     ecut=    60.00 Ry     beta= 0.30
     Davidson diagonalization with overlap
     ethr =  1.18E-06,  avg # of iterations =  2.2

     total cpu time spent up to now is     9201.8 secs

     total energy              =   -1971.08400073 Ry
     estimated scf accuracy    <       0.00095520 Ry

     iteration #  4     ecut=    60.00 Ry     beta= 0.30
     Davidson diagonalization with overlap
     ethr =  7.96E-07,  avg # of iterations =  2.0

     total cpu time spent up to now is     9230.4 secs

     total energy              =   -1971.08400319 Ry
     estimated scf accuracy    <       0.00100703 Ry

     iteration #  5     ecut=    60.00 Ry     beta= 0.30
     Davidson diagonalization with overlap
     ethr =  7.96E-07,  avg # of iterations =  1.0

     total cpu time spent up to now is     9253.3 secs

     total energy              =   -1971.08406742 Ry
     estimated scf accuracy    <       0.00003240 Ry

     iteration #  6     ecut=    60.00 Ry     beta= 0.30
     Davidson diagonalization with overlap
     ethr =  2.70E-08,  avg # of iterations =  2.4

     total cpu time spent up to now is     9287.6 secs

     total energy              =   -1971.08406766 Ry
     estimated scf accuracy    <       0.00007105 Ry

     iteration #  7     ecut=    60.00 Ry     beta= 0.30
     Davidson diagonalization with overlap
     ethr =  2.70E-08,  avg # of iterations =  2.0

     total cpu time spent up to now is     9315.2 secs

     total energy              =   -1971.08407190 Ry
     estimated scf accuracy    <       0.00000610 Ry

     iteration #  8     ecut=    60.00 Ry     beta= 0.30
     Davidson diagonalization with overlap
     ethr =  5.08E-09,  avg # of iterations =  2.0

     total cpu time spent up to now is     9343.6 secs

     total energy              =   -1971.08407260 Ry
     estimated scf accuracy    <       0.00000201 Ry

     iteration #  9     ecut=    60.00 Ry     beta= 0.30
     Davidson diagonalization with overlap
     ethr =  1.67E-09,  avg # of iterations =  4.5

     total cpu time spent up to now is     9388.7 secs

     total energy              =   -1971.08407284 Ry
     estimated scf accuracy    <       0.00000160 Ry

     iteration # 10     ecut=    60.00 Ry     beta= 0.30
     Davidson diagonalization with overlap
     ethr =  1.34E-09,  avg # of iterations =  1.1

     total cpu time spent up to now is     9413.1 secs

     total energy              =   -1971.08407296 Ry
     estimated scf accuracy    <       0.00000016 Ry

     iteration # 11     ecut=    60.00 Ry     beta= 0.30
     Davidson diagonalization with overlap
     ethr =  1.36E-10,  avg # of iterations =  4.0

     total cpu time spent up to now is     9459.5 secs

     total energy              =   -1971.08407306 Ry
     estimated scf accuracy    <       0.00000003 Ry

     iteration # 12     ecut=    60.00 Ry     beta= 0.30
     Davidson diagonalization with overlap
     ethr =  2.53E-11,  avg # of iterations =  1.0

     total cpu time spent up to now is     9482.7 secs

     total energy              =   -1971.08407306 Ry
     estimated scf accuracy    <          3.2E-09 Ry

     iteration # 13     ecut=    60.00 Ry     beta= 0.30
     Davidson diagonalization with overlap
     ethr =  2.66E-12,  avg # of iterations =  2.0

     total cpu time spent up to now is     9512.3 secs

     End of self-consistent calculation

     Number of k-points >= 100: set verbosity='high' to print the bands.

     the Fermi energy is     6.4238 ev

!    total energy              =   -1971.08407307 Ry
     estimated scf accuracy    <          4.2E-10 Ry
     smearing contrib. (-TS)   =       0.00068640 Ry
     internal energy E=F+TS    =   -1971.08475946 Ry

     The total energy is F=E-TS. E is the sum of the following terms:
     one-electron contribution =   -1760.92437171 Ry
     hartree contribution      =     914.63092546 Ry
     xc contribution           =    -201.15037264 Ry
     ewald contribution        =    -704.23759869 Ry
     DFT-D3 Dispersion         =      -0.36336366 Ry
     one-center paw contrib.   =    -219.03997822 Ry

     convergence has been achieved in  13 iterations

     Forces acting on atoms (cartesian axes, Ry/au):

     atom    1 type  1   force =     0.00316313   -0.00201858    0.00196801
     atom    2 type  2   force =    -0.00045015   -0.00100065   -0.00150984
     atom    3 type  2   force =     0.00169778    0.00163687    0.00044430
     atom    4 type  2   force =    -0.00070151    0.00090560   -0.00013155
     atom    5 type  2   force =     0.00043939   -0.00046185    0.00035598
     atom    6 type  2   force =    -0.00153926   -0.00163962    0.00148813
     atom    7 type  2   force =    -0.00179743   -0.00135693    0.00036664
     atom    8 type  2   force =     0.00073998    0.00069078   -0.00067613
     atom    9 type  1   force =    -0.00054270   -0.00199483    0.00273160
     atom   10 type  1   force =    -0.00432553    0.00258874   -0.00429218
     atom   11 type  1   force =     0.00298409    0.00012522    0.00033490
     atom   12 type  1   force =    -0.00069688   -0.00102806   -0.00084725
     atom   13 type  3   force =    -0.00009450    0.00118796   -0.00044447
     atom   14 type  3   force =    -0.00393239    0.00018792    0.00049976
     atom   15 type  3   force =     0.00359390   -0.00156910    0.00007468
     atom   16 type  3   force =     0.00064933   -0.00154741   -0.00041059
     atom   17 type  3   force =     0.00289731    0.00032515   -0.00000263
     atom   18 type  3   force =    -0.00101296    0.00009452   -0.00025390
     atom   19 type  3   force =    -0.00230312    0.00415397    0.00156411
     atom   20 type  3   force =    -0.00090670   -0.00118982    0.00443323
     atom   21 type  3   force =     0.00168104    0.00257119    0.00027404
     atom   22 type  3   force =    -0.00082809    0.00359323   -0.00088801
     atom   23 type  3   force =     0.00232541   -0.00172595   -0.00590940
     atom   24 type  3   force =     0.00106164   -0.00146854   -0.00287149
     atom   25 type  3   force =    -0.00208274    0.00352463    0.00267631
     atom   26 type  3   force =    -0.00225589   -0.00017919    0.00194132
     atom   27 type  3   force =     0.00124075   -0.00306005   -0.00125358
     atom   28 type  3   force =     0.00099610   -0.00134520    0.00033800

     Total force =     0.018140     Total SCF correction =     0.000085


     Computing stress (Cartesian axis) and pressure

          total   stress  (Ry/bohr**3)                   (kbar)     P=       -5.56
  -0.00003195  -0.00000163  -0.00000681           -4.70       -0.24       -1.00
  -0.00000163  -0.00003221   0.00000971           -0.24       -4.74        1.43
  -0.00000681   0.00000971  -0.00004916           -1.00        1.43       -7.23

     Energy error            =      9.7E-04 Ry
     Gradient error          =      5.9E-03 Ry/Bohr
     Cell gradient error     =      7.2E+00 kbar

     number of scf cycles    =  19
     number of bfgs steps    =  18

     enthalpy           old  =   -1971.0831006229 Ry
     enthalpy           new  =   -1971.0840730653 Ry

     CASE: enthalpy          _new < enthalpy          _old

     new trust radius        =       0.0593768617 bohr
     new conv_thr            =       0.0000000006 Ry

     new unit-cell volume =   1689.24679 a.u.^3 (   250.32055 Ang^3 )
     density =      3.18235 g/cm^3

CELL_PARAMETERS (angstrom)
   7.507157484  -0.009109636   0.031976129
  -5.026997788   5.805667144   0.070002022
  -2.217059763   1.135767796   5.757854479

ATOMIC_POSITIONS (angstrom)
Ni              -4.2054616843        5.3209833664        5.5761495759
Mg              -2.9379907461        4.9069759851        2.5974675576
Mg               3.2887776699        2.0485927766        3.2924671806
Mg               4.3562364981        1.4872223229        0.3574516878
Mg               0.9051757025        6.5310669194        4.4654474728
Mg              -0.5337345997        0.3308063285        1.4399991962
Mg              -0.4839439728        3.7309227058        4.3856198413
Mg               0.6188575776        3.2564628620        1.4475136626
Ni              -1.6473299753        6.1444797404        5.2665241578
Ni              -1.7556405230        2.4849604394        2.4394113959
Ni               2.0523096043        4.3741133707        3.4808481767
Ni               1.8994471843        0.7801846961        0.5142625082
H               -0.4380706399        5.3070395998        5.7362772421
H               -0.2911475051        2.0957224674        2.7829357129
H                0.6229233004        4.8253149771        3.0475191978
H                0.6280572736        1.5977136490        0.2104936404
H                4.9897137192        1.1360380890        2.3349777754
H                3.8453379663        1.8148736816        5.3446707120
H               -3.3502239063        4.9883996141        0.4409937467
H               -4.7558113373        5.7678412846        3.6167958909
H               -2.7176825340        6.1234017869        4.1652203365
H               -2.3017395087        3.2175993111        1.1149179349
H                2.9672918338        3.9168004703        4.7274368688
H                2.7453330004        0.9677434700        1.7943389932
H                0.5758662620        2.1425167784        5.0025442072
H                2.5772168628        3.5840790861        2.2501627603
H               -2.3337262305        3.3370563829        3.6082663042
H               -0.6366422326        4.8336420834        0.5969430714



     Writing config-only to output data dir ./outdir/mg2nih4_ni.save/ :
     XML data file
     NEW-OLD atomic charge density approx. for the potential
     New effective cutoffs (rho, wfc):  527.85   66.00

     Check: negative core charge=   -0.000001

     total cpu time spent up to now is     9529.5 secs

     Self-consistent Calculation

     iteration #  1     ecut=    60.00 Ry     beta= 0.30
     Davidson diagonalization with overlap
     ethr =  1.00E-06,  avg # of iterations =  4.6

     total cpu time spent up to now is     9590.4 secs

     total energy              =   -1971.08471006 Ry
     estimated scf accuracy    <       0.00137834 Ry

     iteration #  2     ecut=    60.00 Ry     beta= 0.30
     Davidson diagonalization with overlap
     ethr =  1.15E-06,  avg # of iterations =  2.2

     total cpu time spent up to now is     9622.2 secs

     total energy              =   -1971.08459250 Ry
     estimated scf accuracy    <       0.00370543 Ry

     iteration #  3     ecut=    60.00 Ry     beta= 0.30
     Davidson diagonalization with overlap
     ethr =  1.15E-06,  avg # of iterations =  2.0

     total cpu time spent up to now is     9650.7 secs

     total energy              =   -1971.08485561 Ry
     estimated scf accuracy    <       0.00086151 Ry

     iteration #  4     ecut=    60.00 Ry     beta= 0.30
     Davidson diagonalization with overlap
     ethr =  7.18E-07,  avg # of iterations =  1.9

     total cpu time spent up to now is     9679.6 secs

     total energy              =   -1971.08487508 Ry
     estimated scf accuracy    <       0.00078263 Ry

     iteration #  5     ecut=    60.00 Ry     beta= 0.30
     Davidson diagonalization with overlap
     ethr =  6.52E-07,  avg # of iterations =  1.0

     total cpu time spent up to now is     9702.6 secs

     total energy              =   -1971.08491306 Ry
     estimated scf accuracy    <       0.00026598 Ry

     iteration #  6     ecut=    60.00 Ry     beta= 0.30
     Davidson diagonalization with overlap
     ethr =  2.22E-07,  avg # of iterations =  1.0

     total cpu time spent up to now is     9725.6 secs

     total energy              =   -1971.08493417 Ry
     estimated scf accuracy    <       0.00001785 Ry

     iteration #  7     ecut=    60.00 Ry     beta= 0.30
     Davidson diagonalization with overlap
     ethr =  1.49E-08,  avg # of iterations =  2.0

     total cpu time spent up to now is     9754.6 secs

     total energy              =   -1971.08493454 Ry
     estimated scf accuracy    <       0.00002979 Ry

     iteration #  8     ecut=    60.00 Ry     beta= 0.30
     Davidson diagonalization with overlap
     ethr =  1.49E-08,  avg # of iterations =  1.7

     total cpu time spent up to now is     9783.2 secs

     total energy              =   -1971.08493634 Ry
     estimated scf accuracy    <       0.00000198 Ry

     iteration #  9     ecut=    60.00 Ry     beta= 0.30
     Davidson diagonalization with overlap
     ethr =  1.65E-09,  avg # of iterations =  4.2

     total cpu time spent up to now is     9826.8 secs

     total energy              =   -1971.08493693 Ry
     estimated scf accuracy    <       0.00000101 Ry

     iteration # 10     ecut=    60.00 Ry     beta= 0.30
     Davidson diagonalization with overlap
     ethr =  8.42E-10,  avg # of iterations =  2.0

     total cpu time spent up to now is     9854.8 secs

     total energy              =   -1971.08493695 Ry
     estimated scf accuracy    <       0.00000074 Ry

     iteration # 11     ecut=    60.00 Ry     beta= 0.30
     Davidson diagonalization with overlap
     ethr =  6.20E-10,  avg # of iterations =  1.0

     total cpu time spent up to now is     9877.9 secs

     total energy              =   -1971.08493701 Ry
     estimated scf accuracy    <       0.00000003 Ry

     iteration # 12     ecut=    60.00 Ry     beta= 0.30
     Davidson diagonalization with overlap
     ethr =  2.11E-11,  avg # of iterations =  3.0

     total cpu time spent up to now is     9914.8 secs

     total energy              =   -1971.08493702 Ry
     estimated scf accuracy    <       0.00000001 Ry

     iteration # 13     ecut=    60.00 Ry     beta= 0.30
     Davidson diagonalization with overlap
     ethr =  1.08E-11,  avg # of iterations =  1.0

     total cpu time spent up to now is     9938.1 secs

     End of self-consistent calculation

     Number of k-points >= 100: set verbosity='high' to print the bands.

     the Fermi energy is     6.4492 ev

!    total energy              =   -1971.08493702 Ry
     estimated scf accuracy    <          3.4E-10 Ry
     smearing contrib. (-TS)   =       0.00072504 Ry
     internal energy E=F+TS    =   -1971.08566206 Ry

     The total energy is F=E-TS. E is the sum of the following terms:
     one-electron contribution =   -1759.69483660 Ry
     hartree contribution      =     914.08450512 Ry
     xc contribution           =    -201.16562721 Ry
     ewald contribution        =    -704.90396649 Ry
     DFT-D3 Dispersion         =      -0.36408606 Ry
     one-center paw contrib.   =    -219.04165083 Ry

     convergence has been achieved in  13 iterations

     Forces acting on atoms (cartesian axes, Ry/au):

     atom    1 type  1   force =     0.00266737   -0.00376943   -0.00135820
     atom    2 type  2   force =    -0.00040416    0.00009199   -0.00140184
     atom    3 type  2   force =     0.00111352    0.00150909   -0.00023280
     atom    4 type  2   force =    -0.00088037    0.00031765    0.00003125
     atom    5 type  2   force =     0.00078165   -0.00109353    0.00038785
     atom    6 type  2   force =    -0.00061636   -0.00021000    0.00072990
     atom    7 type  2   force =    -0.00149658   -0.00060283   -0.00030753
     atom    8 type  2   force =     0.00033478   -0.00051965   -0.00033068
     atom    9 type  1   force =    -0.00227695   -0.00281502    0.00585497
     atom   10 type  1   force =    -0.00399259    0.00387483   -0.00756305
     atom   11 type  1   force =     0.00236986   -0.00125489    0.00268605
     atom   12 type  1   force =    -0.00137148   -0.00130791    0.00087254
     atom   13 type  3   force =     0.00147597    0.00034518   -0.00026412
     atom   14 type  3   force =    -0.00441426    0.00089088   -0.00032709
     atom   15 type  3   force =     0.00314871   -0.00199748    0.00056156
     atom   16 type  3   force =    -0.00039489   -0.00080990   -0.00027137
     atom   17 type  3   force =     0.00254862   -0.00046920    0.00006258
     atom   18 type  3   force =     0.00010013    0.00122106    0.00036949
     atom   19 type  3   force =    -0.00341093    0.00425720    0.00156067
     atom   20 type  3   force =     0.00065151    0.00080605    0.00517094
     atom   21 type  3   force =     0.00015509    0.00213440   -0.00171670
     atom   22 type  3   force =    -0.00048627    0.00199763    0.00220149
     atom   23 type  3   force =     0.00263815    0.00070113   -0.00466384
     atom   24 type  3   force =     0.00176001   -0.00126908   -0.00152639
     atom   25 type  3   force =    -0.00132813    0.00280107    0.00133253
     atom   26 type  3   force =    -0.00179668   -0.00083062    0.00020832
     atom   27 type  3   force =     0.00069757   -0.00294664   -0.00104447
     atom   28 type  3   force =     0.00242671   -0.00105197   -0.00102207

     Total force =     0.019567     Total SCF correction =     0.000040


     Computing stress (Cartesian axis) and pressure

          total   stress  (Ry/bohr**3)                   (kbar)     P=       -3.66
  -0.00002019  -0.00000345   0.00000080           -2.97       -0.51        0.12
  -0.00000345  -0.00001553  -0.00000051           -0.51       -2.28       -0.07
   0.00000080  -0.00000051  -0.00003895            0.12       -0.07       -5.73

     Energy error            =      8.6E-04 Ry
     Gradient error          =      7.6E-03 Ry/Bohr
     Cell gradient error     =      5.7E+00 kbar

     number of scf cycles    =  20
     number of bfgs steps    =  19

     enthalpy           old  =   -1971.0840730653 Ry
     enthalpy           new  =   -1971.0849370235 Ry

     CASE: enthalpy          _new < enthalpy          _old

     new trust radius        =       0.0564647829 bohr
     new conv_thr            =       0.0000000008 Ry

     new unit-cell volume =   1682.94251 a.u.^3 (   249.38635 Ang^3 )
     density =      3.19428 g/cm^3

CELL_PARAMETERS (angstrom)
   7.500585906  -0.008932937   0.022638769
  -5.022315537   5.799158321   0.087671662
  -2.222078791   1.146458072   5.752919527

ATOMIC_POSITIONS (angstrom)
Ni              -4.2029636063        5.3230581225        5.5851218000
Mg              -2.9378720599        4.9077959685        2.6110955755
Mg               3.2891948105        2.0516231286        3.2831420005
Mg               4.3520975307        1.4955048976        0.3477521634
Mg               0.8988319210        6.5330493299        4.4731302384
Mg              -0.5427430973        0.3259930676        1.4401698723
Mg              -0.4955737245        3.7420698886        4.3869362084
Mg               0.6155177463        3.2511447288        1.4500854312
Ni              -1.6527421416        6.1445082500        5.2686780479
Ni              -1.7566592349        2.4889317066        2.4401284197
Ni               2.0475550014        4.3727561182        3.4838447497
Ni               1.8958505332        0.7807178353        0.5120903830
H               -0.4444039486        5.3175988590        5.7424517195
H               -0.2951032601        2.0913587983        2.7931790669
H                0.6249560081        4.8303697350        3.0416497833
H                0.6229480482        1.5893624497        0.2075434983
H                4.9889872672        1.1401000481        2.3190958876
H                3.8239255213        1.8238780706        5.3328788496
H               -3.3392658687        4.9864568962        0.4564000651
H               -4.7644762078        5.7644412230        3.6447959477
H               -2.7232438872        6.1373978527        4.1732796796
H               -2.3131625078        3.2213256366        1.1194623887
H                2.9809888844        3.9100911502        4.7069501853
H                2.7477509635        0.9705015844        1.7825039070
H                0.5664670009        2.1708020100        5.0031900017
H                2.5660817024        3.5828477172        2.2562638269
H               -2.3334621502        3.3332050472        3.6112912271
H               -0.6327991507        4.8266782741        0.6121084791



     Writing config-only to output data dir ./outdir/mg2nih4_ni.save/ :
     XML data file
     NEW-OLD atomic charge density approx. for the potential
     New effective cutoffs (rho, wfc):  528.46   66.09

     Check: negative core charge=   -0.000001

     total cpu time spent up to now is     9955.2 secs

     Self-consistent Calculation

     iteration #  1     ecut=    60.00 Ry     beta= 0.30
     Davidson diagonalization with overlap
     ethr =  1.00E-06,  avg # of iterations =  4.4

     total cpu time spent up to now is    10013.2 secs

     total energy              =   -1971.08541163 Ry
     estimated scf accuracy    <       0.00137926 Ry

     iteration #  2     ecut=    60.00 Ry     beta= 0.30
     Davidson diagonalization with overlap
     ethr =  1.15E-06,  avg # of iterations =  2.9

     total cpu time spent up to now is    10050.9 secs

     total energy              =   -1971.08532327 Ry
     estimated scf accuracy    <       0.00410596 Ry

     iteration #  3     ecut=    60.00 Ry     beta= 0.30
     Davidson diagonalization with overlap
     ethr =  1.15E-06,  avg # of iterations =  2.0

     total cpu time spent up to now is    10080.0 secs

     total energy              =   -1971.08562297 Ry
     estimated scf accuracy    <       0.00090769 Ry

     iteration #  4     ecut=    60.00 Ry     beta= 0.30
     Davidson diagonalization with overlap
     ethr =  7.56E-07,  avg # of iterations =  2.0

     total cpu time spent up to now is    10107.2 secs

     total energy              =   -1971.08566316 Ry
     estimated scf accuracy    <       0.00055134 Ry

     iteration #  5     ecut=    60.00 Ry     beta= 0.30
     Davidson diagonalization with overlap
     ethr =  4.59E-07,  avg # of iterations =  1.4

     total cpu time spent up to now is    10133.6 secs

     total energy              =   -1971.08568352 Ry
     estimated scf accuracy    <       0.00024719 Ry

     iteration #  6     ecut=    60.00 Ry     beta= 0.30
     Davidson diagonalization with overlap
     ethr =  2.06E-07,  avg # of iterations =  1.0

     total cpu time spent up to now is    10156.6 secs

     total energy              =   -1971.08570294 Ry
     estimated scf accuracy    <       0.00001609 Ry

     iteration #  7     ecut=    60.00 Ry     beta= 0.30
     Davidson diagonalization with overlap
     ethr =  1.34E-08,  avg # of iterations =  2.0

     total cpu time spent up to now is    10185.7 secs

     total energy              =   -1971.08570333 Ry
     estimated scf accuracy    <       0.00002545 Ry

     iteration #  8     ecut=    60.00 Ry     beta= 0.30
     Davidson diagonalization with overlap
     ethr =  1.34E-08,  avg # of iterations =  1.2

     total cpu time spent up to now is    10211.1 secs

     total energy              =   -1971.08570476 Ry
     estimated scf accuracy    <       0.00000212 Ry

     iteration #  9     ecut=    60.00 Ry     beta= 0.30
     Davidson diagonalization with overlap
     ethr =  1.77E-09,  avg # of iterations =  2.4

     total cpu time spent up to now is    10244.6 secs

     total energy              =   -1971.08570520 Ry
     estimated scf accuracy    <       0.00000129 Ry

     iteration # 10     ecut=    60.00 Ry     beta= 0.30
     Davidson diagonalization with overlap
     ethr =  1.07E-09,  avg # of iterations =  1.6

     total cpu time spent up to now is    10273.3 secs

     total energy              =   -1971.08570524 Ry
     estimated scf accuracy    <       0.00000072 Ry

     iteration # 11     ecut=    60.00 Ry     beta= 0.30
     Davidson diagonalization with overlap
     ethr =  6.01E-10,  avg # of iterations =  1.9

     total cpu time spent up to now is    10303.8 secs

     total energy              =   -1971.08570532 Ry
     estimated scf accuracy    <       0.00000003 Ry

     iteration # 12     ecut=    60.00 Ry     beta= 0.30
     Davidson diagonalization with overlap
     ethr =  2.10E-11,  avg # of iterations =  4.9

     total cpu time spent up to now is    10361.7 secs

     total energy              =   -1971.08570539 Ry
     estimated scf accuracy    <       0.00000001 Ry

     iteration # 13     ecut=    60.00 Ry     beta= 0.30
     Davidson diagonalization with overlap
     ethr =  9.36E-12,  avg # of iterations =  1.0

     total cpu time spent up to now is    10384.6 secs

     End of self-consistent calculation

     Number of k-points >= 100: set verbosity='high' to print the bands.

     the Fermi energy is     6.4915 ev

!    total energy              =   -1971.08570539 Ry
     estimated scf accuracy    <          3.6E-10 Ry
     smearing contrib. (-TS)   =       0.00075896 Ry
     internal energy E=F+TS    =   -1971.08646435 Ry

     The total energy is F=E-TS. E is the sum of the following terms:
     one-electron contribution =   -1758.24174282 Ry
     hartree contribution      =     913.49077650 Ry
     xc contribution           =    -201.19411498 Ry
     ewald contribution        =    -705.73133522 Ry
     DFT-D3 Dispersion         =      -0.36536366 Ry
     one-center paw contrib.   =    -219.04468417 Ry

     convergence has been achieved in  13 iterations

     Forces acting on atoms (cartesian axes, Ry/au):

     atom    1 type  1   force =     0.00162080   -0.00458302   -0.00383473
     atom    2 type  2   force =    -0.00019231    0.00098160   -0.00101612
     atom    3 type  2   force =     0.00046677    0.00093674   -0.00077324
     atom    4 type  2   force =    -0.00094016   -0.00018259    0.00005421
     atom    5 type  2   force =     0.00083060   -0.00137394    0.00018487
     atom    6 type  2   force =     0.00016304    0.00104637   -0.00000564
     atom    7 type  2   force =    -0.00121528    0.00020715   -0.00094620
     atom    8 type  2   force =    -0.00002743   -0.00177015    0.00013655
     atom    9 type  1   force =    -0.00285383   -0.00230313    0.00642726
     atom   10 type  1   force =    -0.00231332    0.00389691   -0.00866628
     atom   11 type  1   force =     0.00109725   -0.00210621    0.00395844
     atom   12 type  1   force =    -0.00193940   -0.00073974    0.00244413
     atom   13 type  3   force =     0.00301767   -0.00049805    0.00011537
     atom   14 type  3   force =    -0.00466814    0.00144196   -0.00097035
     atom   15 type  3   force =     0.00234383   -0.00209270    0.00084181
     atom   16 type  3   force =    -0.00152519   -0.00008324   -0.00029202
     atom   17 type  3   force =     0.00202738   -0.00135595    0.00009010
     atom   18 type  3   force =     0.00093303    0.00151663    0.00082722
     atom   19 type  3   force =    -0.00371475    0.00315817    0.00120133
     atom   20 type  3   force =     0.00198833    0.00237589    0.00594030
     atom   21 type  3   force =    -0.00100548    0.00171991   -0.00295450
     atom   22 type  3   force =    -0.00094165    0.00112775    0.00361089
     atom   23 type  3   force =     0.00349358    0.00238398   -0.00258653
     atom   24 type  3   force =     0.00262437   -0.00094341    0.00009555
     atom   25 type  3   force =    -0.00049611    0.00200689   -0.00031361
     atom   26 type  3   force =    -0.00130115   -0.00144243   -0.00155536
     atom   27 type  3   force =    -0.00013132   -0.00246502   -0.00055480
     atom   28 type  3   force =     0.00265885   -0.00086033   -0.00145865

     Total force =     0.021179     Total SCF correction =     0.000032


     Computing stress (Cartesian axis) and pressure

          total   stress  (Ry/bohr**3)                   (kbar)     P=       -0.30
   0.00000114  -0.00000494   0.00000819            0.17       -0.73        1.20
  -0.00000494   0.00000738  -0.00000939           -0.73        1.09       -1.38
   0.00000819  -0.00000939  -0.00001463            1.20       -1.38       -2.15

     Energy error            =      7.7E-04 Ry
     Gradient error          =      8.7E-03 Ry/Bohr
     Cell gradient error     =      2.2E+00 kbar

     number of scf cycles    =  21
     number of bfgs steps    =  20

     enthalpy           old  =   -1971.0849370235 Ry
     enthalpy           new  =   -1971.0857053930 Ry

     CASE: enthalpy          _new < enthalpy          _old

     new trust radius        =       0.0693180639 bohr
     new conv_thr            =       0.0000000008 Ry

     new unit-cell volume =   1675.12639 a.u.^3 (   248.22812 Ang^3 )
     density =      3.20918 g/cm^3

CELL_PARAMETERS (angstrom)
   7.492771791  -0.010124139   0.014311111
  -5.017801031   5.793574774   0.104186431
  -2.226138375   1.156976726   5.743368311

ATOMIC_POSITIONS (angstrom)
Ni              -4.1983286356        5.3218491866        5.5860034276
Mg              -2.9378269811        4.9100710392        2.6224689892
Mg               3.2905561900        2.0537069748        3.2704432842
Mg               4.3464185393        1.5042349625        0.3371424727
Mg               0.8922868570        6.5333493774        4.4779773813
Mg              -0.5525519383        0.3209969647        1.4391210416
Mg              -0.5090691955        3.7543904811        4.3840805599
Mg               0.6113599801        3.2432058078        1.4515067730
Ni              -1.6603193794        6.1423533883        5.2698207840
Ni              -1.7583705331        2.4955401410        2.4328476642
Ni               2.0425910588        4.3685106117        3.4876063845
Ni               1.8902937112        0.7806770743        0.5115130534
H               -0.4486854175        5.3279051702        5.7448787385
H               -0.3018420553        2.0865384800        2.8021767628
H                0.6286183828        4.8343227639        3.0322715726
H                0.6155697162        1.5798031311        0.2034623488
H                4.9897088939        1.1419329705        2.3007159340
H                3.8009812629        1.8328316622        5.3180626038
H               -3.3293823055        4.9871941770        0.4715976347
H               -4.7728669746        5.7630996215        3.6758207138
H               -2.7303133967        6.1545054385        4.1751805894
H               -2.3276027740        3.2266539883        1.1249530012
H                3.0002658122        3.9020385599        4.6792912133
H                2.7528817571        0.9721145474        1.7689292051
H                0.5567409340        2.2032186572        5.0006291544
H                2.5524008620        3.5794190221        2.2604035296
H               -2.3327565491        3.3267182505        3.6108001475
H               -0.6271044127        4.8188006025        0.6264169592



     Writing config-only to output data dir ./outdir/mg2nih4_ni.save/ :
     XML data file
     NEW-OLD atomic charge density approx. for the potential
     New effective cutoffs (rho, wfc):  529.82   66.29

     Check: negative core charge=   -0.000001

     total cpu time spent up to now is    10401.7 secs

     Self-consistent Calculation

     iteration #  1     ecut=    60.00 Ry     beta= 0.30
     Davidson diagonalization with overlap
     ethr =  1.00E-06,  avg # of iterations =  4.6

     total cpu time spent up to now is    10464.7 secs

     total energy              =   -1971.08592865 Ry
     estimated scf accuracy    <       0.00293287 Ry

     iteration #  2     ecut=    60.00 Ry     beta= 0.30
     Davidson diagonalization with overlap
     ethr =  2.44E-06,  avg # of iterations =  3.1

     total cpu time spent up to now is    10506.6 secs

     total energy              =   -1971.08542717 Ry
     estimated scf accuracy    <       0.01455327 Ry

     iteration #  3     ecut=    60.00 Ry     beta= 0.30
     Davidson diagonalization with overlap
     ethr =  2.44E-06,  avg # of iterations =  2.6

     total cpu time spent up to now is    10541.4 secs

     total energy              =   -1971.08640603 Ry
     estimated scf accuracy    <       0.00205356 Ry

     iteration #  4     ecut=    60.00 Ry     beta= 0.30
     Davidson diagonalization with overlap
     ethr =  1.71E-06,  avg # of iterations =  2.0

     total cpu time spent up to now is    10568.6 secs

     total energy              =   -1971.08651736 Ry
     estimated scf accuracy    <       0.00087418 Ry

     iteration #  5     ecut=    60.00 Ry     beta= 0.30
     Davidson diagonalization with overlap
     ethr =  7.28E-07,  avg # of iterations =  1.0

     total cpu time spent up to now is    10592.1 secs

     total energy              =   -1971.08656458 Ry
     estimated scf accuracy    <       0.00021270 Ry

     iteration #  6     ecut=    60.00 Ry     beta= 0.30
     Davidson diagonalization with overlap
     ethr =  1.77E-07,  avg # of iterations =  2.0

     total cpu time spent up to now is    10620.6 secs

     total energy              =   -1971.08658360 Ry
     estimated scf accuracy    <       0.00004173 Ry

     iteration #  7     ecut=    60.00 Ry     beta= 0.30
     Davidson diagonalization with overlap
     ethr =  3.48E-08,  avg # of iterations =  2.0

     total cpu time spent up to now is    10648.3 secs

     total energy              =   -1971.08658524 Ry
     estimated scf accuracy    <       0.00002326 Ry

     iteration #  8     ecut=    60.00 Ry     beta= 0.30
     Davidson diagonalization with overlap
     ethr =  1.94E-08,  avg # of iterations =  1.0

     total cpu time spent up to now is    10671.3 secs

     total energy              =   -1971.08658697 Ry
     estimated scf accuracy    <       0.00000344 Ry

     iteration #  9     ecut=    60.00 Ry     beta= 0.30
     Davidson diagonalization with overlap
     ethr =  2.87E-09,  avg # of iterations =  2.0

     total cpu time spent up to now is    10700.2 secs

     total energy              =   -1971.08658742 Ry
     estimated scf accuracy    <       0.00000127 Ry

     iteration # 10     ecut=    60.00 Ry     beta= 0.30
     Davidson diagonalization with overlap
     ethr =  1.06E-09,  avg # of iterations =  5.3

     total cpu time spent up to now is    10746.9 secs

     total energy              =   -1971.08658776 Ry
     estimated scf accuracy    <       0.00000081 Ry

     iteration # 11     ecut=    60.00 Ry     beta= 0.30
     Davidson diagonalization with overlap
     ethr =  6.78E-10,  avg # of iterations =  1.1

     total cpu time spent up to now is    10770.9 secs

     total energy              =   -1971.08658783 Ry
     estimated scf accuracy    <       0.00000003 Ry

     iteration # 12     ecut=    60.00 Ry     beta= 0.30
     Davidson diagonalization with overlap
     ethr =  2.75E-11,  avg # of iterations =  3.0

     total cpu time spent up to now is    10808.2 secs

     total energy              =   -1971.08658784 Ry
     estimated scf accuracy    <       0.00000001 Ry

     iteration # 13     ecut=    60.00 Ry     beta= 0.30
     Davidson diagonalization with overlap
     ethr =  8.53E-12,  avg # of iterations =  1.2

     total cpu time spent up to now is    10833.3 secs

     total energy              =   -1971.08658784 Ry
     estimated scf accuracy    <          1.3E-09 Ry

     iteration # 14     ecut=    60.00 Ry     beta= 0.30
     Davidson diagonalization with overlap
     ethr =  1.06E-12,  avg # of iterations =  2.2

     total cpu time spent up to now is    10863.2 secs

     End of self-consistent calculation

     Number of k-points >= 100: set verbosity='high' to print the bands.

     the Fermi energy is     6.5468 ev

!    total energy              =   -1971.08658784 Ry
     estimated scf accuracy    <          8.1E-11 Ry
     smearing contrib. (-TS)   =       0.00079931 Ry
     internal energy E=F+TS    =   -1971.08738715 Ry

     The total energy is F=E-TS. E is the sum of the following terms:
     one-electron contribution =   -1756.66348768 Ry
     hartree contribution      =     912.87621954 Ry
     xc contribution           =    -201.22733396 Ry
     ewald contribution        =    -706.65748991 Ry
     DFT-D3 Dispersion         =      -0.36696247 Ry
     one-center paw contrib.   =    -219.04833267 Ry

     convergence has been achieved in  14 iterations

     Forces acting on atoms (cartesian axes, Ry/au):

     atom    1 type  1   force =     0.00005332   -0.00437524   -0.00566196
     atom    2 type  2   force =     0.00012836    0.00153845   -0.00046040
     atom    3 type  2   force =    -0.00015802    0.00003111   -0.00100569
     atom    4 type  2   force =    -0.00083463   -0.00074365    0.00004756
     atom    5 type  2   force =     0.00054543   -0.00119717   -0.00027945
     atom    6 type  2   force =     0.00081328    0.00209267   -0.00069695
     atom    7 type  2   force =    -0.00100577    0.00085771   -0.00154263
     atom    8 type  2   force =    -0.00017238   -0.00287741    0.00064705
     atom    9 type  1   force =    -0.00222443   -0.00062025    0.00448884
     atom   10 type  1   force =     0.00009357    0.00255801   -0.00739252
     atom   11 type  1   force =    -0.00019774   -0.00193489    0.00386784
     atom   12 type  1   force =    -0.00228964    0.00061892    0.00350655
     atom   13 type  3   force =     0.00388556   -0.00096610    0.00034670
     atom   14 type  3   force =    -0.00492016    0.00203442   -0.00164990
     atom   15 type  3   force =     0.00154112   -0.00213304    0.00124200
     atom   16 type  3   force =    -0.00234405    0.00047676   -0.00035538
     atom   17 type  3   force =     0.00156318   -0.00196172    0.00019870
     atom   18 type  3   force =     0.00160094    0.00081004    0.00111554
     atom   19 type  3   force =    -0.00354269    0.00139390    0.00066418
     atom   20 type  3   force =     0.00296548    0.00290275    0.00682641
     atom   21 type  3   force =    -0.00116337    0.00127080   -0.00298932
     atom   22 type  3   force =    -0.00216143    0.00091682    0.00362191
     atom   23 type  3   force =     0.00447936    0.00339703   -0.00001820
     atom   24 type  3   force =     0.00342120   -0.00069096    0.00154316
     atom   25 type  3   force =     0.00007387    0.00105571   -0.00182379
     atom   26 type  3   force =    -0.00093106   -0.00186680   -0.00294518
     atom   27 type  3   force =    -0.00112822   -0.00179430   -0.00017564
     atom   28 type  3   force =     0.00190892   -0.00079359   -0.00111942

     Total force =     0.021329     Total SCF correction =     0.000041


     Computing stress (Cartesian axis) and pressure

          total   stress  (Ry/bohr**3)                   (kbar)     P=        3.50
   0.00002541  -0.00000529   0.00001313            3.74       -0.78        1.93
  -0.00000529   0.00002976  -0.00001575           -0.78        4.38       -2.32
   0.00001313  -0.00001575   0.00001629            1.93       -2.32        2.40

     Energy error            =      8.8E-04 Ry
     Gradient error          =      7.4E-03 Ry/Bohr
     Cell gradient error     =      4.4E+00 kbar

     number of scf cycles    =  22
     number of bfgs steps    =  21

     enthalpy           old  =   -1971.0857053930 Ry
     enthalpy           new  =   -1971.0865878401 Ry

     CASE: enthalpy          _new < enthalpy          _old

     new trust radius        =       0.0863667999 bohr
     new conv_thr            =       0.0000000007 Ry

     new unit-cell volume =   1669.03738 a.u.^3 (   247.32582 Ang^3 )
     density =      3.22089 g/cm^3

CELL_PARAMETERS (angstrom)
   7.488718056  -0.012725065   0.007566128
  -5.016837822   5.792497683   0.119006121
  -2.230299486   1.167799169   5.732711441

ATOMIC_POSITIONS (angstrom)
Ni              -4.1944929107        5.3186775673        5.5808202386
Mg              -2.9394910054        4.9171089485        2.6331851850
Mg               3.2955558700        2.0556678896        3.2562172332
Mg               4.3420898143        1.5144512777        0.3257977213
Mg               0.8862823197        6.5359431164        4.4824049250
Mg              -0.5635394232        0.3161150994        1.4376008082
Mg              -0.5250606847        3.7706361970        4.3793407190
Mg               0.6068325020        3.2333870992        1.4527837577
Ni              -1.6708351030        6.1422441589        5.2726093692
Ni              -1.7611038058        2.5060281299        2.4182831450
Ni               2.0389306501        4.3638992341        3.4945580625
Ni               1.8835063303        0.7813093030        0.5137102014
H               -0.4502063062        5.3413266007        5.7474862593
H               -0.3131402476        2.0826932604        2.8116973778
H                0.6354837590        4.8396973503        3.0210701997
H                0.6056137798        1.5695618261        0.1979057764
H                4.9962842213        1.1420486562        2.2812797835
H                3.7791786547        1.8418404725        5.3040109623
H               -3.3226385066        4.9939307377        0.4865899070
H               -4.7838705014        5.7670291137        3.7146251093
H               -2.7404647709        6.1793131253        4.1734775196
H               -2.3480674461        3.2362080559        1.1323313834
H                3.0302056317        3.8956136760        4.6473626903
H                2.7638540403        0.9728888002        1.7548360101
H                0.5469691555        2.2418868014        4.9979304313
H                2.5373869208        3.5754518418        2.2637980131
H               -2.3332133462        3.3185169825        3.6083000847
H               -0.6199191350        4.8125297007        0.6399587814



     Writing config-only to output data dir ./outdir/mg2nih4_ni.save/ :
     XML data file
     NEW-OLD atomic charge density approx. for the potential
     New effective cutoffs (rho, wfc):  532.71   66.62

     Check: negative core charge=   -0.000001

     total cpu time spent up to now is    10880.8 secs

     Self-consistent Calculation

     iteration #  1     ecut=    60.00 Ry     beta= 0.30
     Davidson diagonalization with overlap
     ethr =  1.00E-06,  avg # of iterations =  5.4

     total cpu time spent up to now is    10952.0 secs

     total energy              =   -1971.08636031 Ry
     estimated scf accuracy    <       0.00584979 Ry

     iteration #  2     ecut=    60.00 Ry     beta= 0.30
     Davidson diagonalization with overlap
     ethr =  4.87E-06,  avg # of iterations =  3.1

     total cpu time spent up to now is    10991.5 secs

     total energy              =   -1971.08503284 Ry
     estimated scf accuracy    <       0.03583667 Ry

     iteration #  3     ecut=    60.00 Ry     beta= 0.30
     Davidson diagonalization with overlap
     ethr =  4.87E-06,  avg # of iterations =  2.9

     total cpu time spent up to now is    11025.3 secs

     total energy              =   -1971.08737892 Ry
     estimated scf accuracy    <       0.00281744 Ry

     iteration #  4     ecut=    60.00 Ry     beta= 0.30
     Davidson diagonalization with overlap
     ethr =  2.35E-06,  avg # of iterations =  2.0

     total cpu time spent up to now is    11052.8 secs

     total energy              =   -1971.08744980 Ry
     estimated scf accuracy    <       0.00261304 Ry

     iteration #  5     ecut=    60.00 Ry     beta= 0.30
     Davidson diagonalization with overlap
     ethr =  2.18E-06,  avg # of iterations =  1.0

     total cpu time spent up to now is    11076.2 secs

     total energy              =   -1971.08761628 Ry
     estimated scf accuracy    <       0.00015116 Ry

     iteration #  6     ecut=    60.00 Ry     beta= 0.30
     Davidson diagonalization with overlap
     ethr =  1.26E-07,  avg # of iterations =  2.1

     total cpu time spent up to now is    11105.9 secs

     total energy              =   -1971.08763098 Ry
     estimated scf accuracy    <       0.00011988 Ry

     iteration #  7     ecut=    60.00 Ry     beta= 0.30
     Davidson diagonalization with overlap
     ethr =  9.99E-08,  avg # of iterations =  1.1

     total cpu time spent up to now is    11130.3 secs

     total energy              =   -1971.08763869 Ry
     estimated scf accuracy    <       0.00001775 Ry

     iteration #  8     ecut=    60.00 Ry     beta= 0.30
     Davidson diagonalization with overlap
     ethr =  1.48E-08,  avg # of iterations =  2.0

     total cpu time spent up to now is    11159.0 secs

     total energy              =   -1971.08764071 Ry
     estimated scf accuracy    <       0.00001035 Ry

     iteration #  9     ecut=    60.00 Ry     beta= 0.30
     Davidson diagonalization with overlap
     ethr =  8.63E-09,  avg # of iterations =  1.3

     total cpu time spent up to now is    11184.8 secs

     total energy              =   -1971.08764158 Ry
     estimated scf accuracy    <       0.00000138 Ry

     iteration # 10     ecut=    60.00 Ry     beta= 0.30
     Davidson diagonalization with overlap
     ethr =  1.15E-09,  avg # of iterations =  4.0

     total cpu time spent up to now is    11230.5 secs

     total energy              =   -1971.08764212 Ry
     estimated scf accuracy    <       0.00000218 Ry

     iteration # 11     ecut=    60.00 Ry     beta= 0.30
     Davidson diagonalization with overlap
     ethr =  1.15E-09,  avg # of iterations =  1.6

     total cpu time spent up to now is    11260.0 secs

     total energy              =   -1971.08764227 Ry
     estimated scf accuracy    <       0.00000010 Ry

     iteration # 12     ecut=    60.00 Ry     beta= 0.30
     Davidson diagonalization with overlap
     ethr =  8.70E-11,  avg # of iterations =  2.0

     total cpu time spent up to now is    11289.3 secs

     total energy              =   -1971.08764229 Ry
     estimated scf accuracy    <       0.00000002 Ry

     iteration # 13     ecut=    60.00 Ry     beta= 0.30
     Davidson diagonalization with overlap
     ethr =  1.65E-11,  avg # of iterations =  1.7

     total cpu time spent up to now is    11318.4 secs

     total energy              =   -1971.08764229 Ry
     estimated scf accuracy    <          2.7E-09 Ry

     iteration # 14     ecut=    60.00 Ry     beta= 0.30
     Davidson diagonalization with overlap
     ethr =  2.28E-12,  avg # of iterations =  2.0

     total cpu time spent up to now is    11346.8 secs

     End of self-consistent calculation

     Number of k-points >= 100: set verbosity='high' to print the bands.

     the Fermi energy is     6.5972 ev

!    total energy              =   -1971.08764230 Ry
     estimated scf accuracy    <          2.1E-10 Ry
     smearing contrib. (-TS)   =       0.00085154 Ry
     internal energy E=F+TS    =   -1971.08849383 Ry

     The total energy is F=E-TS. E is the sum of the following terms:
     one-electron contribution =   -1755.73842219 Ry
     hartree contribution      =     912.55668298 Ry
     xc contribution           =    -201.25007534 Ry
     ewald contribution        =    -707.23757176 Ry
     DFT-D3 Dispersion         =      -0.36822373 Ry
     one-center paw contrib.   =    -219.05088379 Ry

     convergence has been achieved in  14 iterations

     Forces acting on atoms (cartesian axes, Ry/au):

     atom    1 type  1   force =    -0.00210824   -0.00300016   -0.00640887
     atom    2 type  2   force =     0.00053032    0.00168405    0.00026724
     atom    3 type  2   force =    -0.00066521   -0.00114909   -0.00087952
     atom    4 type  2   force =    -0.00047134   -0.00145709    0.00001028
     atom    5 type  2   force =    -0.00001380   -0.00053854   -0.00082515
     atom    6 type  2   force =     0.00129079    0.00277773   -0.00137072
     atom    7 type  2   force =    -0.00086713    0.00123646   -0.00202926
     atom    8 type  2   force =    -0.00002865   -0.00351023    0.00102898
     atom    9 type  1   force =    -0.00020051    0.00169177    0.00032870
     atom   10 type  1   force =     0.00250062    0.00001615   -0.00354150
     atom   11 type  1   force =    -0.00085311   -0.00068113    0.00225059
     atom   12 type  1   force =    -0.00214582    0.00267111    0.00367042
     atom   13 type  3   force =     0.00334968   -0.00075771    0.00013065
     atom   14 type  3   force =    -0.00476355    0.00262293   -0.00235689
     atom   15 type  3   force =     0.00078736   -0.00216273    0.00189528
     atom   16 type  3   force =    -0.00253281    0.00075118   -0.00036376
     atom   17 type  3   force =     0.00117111   -0.00202940    0.00037515
     atom   18 type  3   force =     0.00213665   -0.00068206    0.00125141
     atom   19 type  3   force =    -0.00271773   -0.00075760   -0.00007882
     atom   20 type  3   force =     0.00347968    0.00197892    0.00779665
     atom   21 type  3   force =    -0.00006257    0.00062609   -0.00171871
     atom   22 type  3   force =    -0.00404215    0.00140922    0.00214100
     atom   23 type  3   force =     0.00506662    0.00389819    0.00266596
     atom   24 type  3   force =     0.00383344   -0.00061829    0.00234451
     atom   25 type  3   force =     0.00009729   -0.00005438   -0.00268629
     atom   26 type  3   force =    -0.00080527   -0.00196963   -0.00342356
     atom   27 type  3   force =    -0.00213760   -0.00100463   -0.00018724
     atom   28 type  3   force =     0.00017195   -0.00099110   -0.00028654

     Total force =     0.020804     Total SCF correction =     0.000046


     Computing stress (Cartesian axis) and pressure

          total   stress  (Ry/bohr**3)                   (kbar)     P=        5.87
   0.00004061  -0.00000397   0.00001364            5.97       -0.58        2.01
  -0.00000397   0.00003946  -0.00001784           -0.58        5.80       -2.62
   0.00001364  -0.00001784   0.00003972            2.01       -2.62        5.84

     Energy error            =      1.1E-03 Ry
     Gradient error          =      7.8E-03 Ry/Bohr
     Cell gradient error     =      6.0E+00 kbar

     number of scf cycles    =  23
     number of bfgs steps    =  22

     enthalpy           old  =   -1971.0865878401 Ry
     enthalpy           new  =   -1971.0876422952 Ry

     CASE: enthalpy          _new < enthalpy          _old

     new trust radius        =       0.0916007319 bohr
     new conv_thr            =       0.0000000008 Ry

     new unit-cell volume =   1667.67929 a.u.^3 (   247.12457 Ang^3 )
     density =      3.22351 g/cm^3

CELL_PARAMETERS (angstrom)
   7.492218108  -0.016446312   0.004301695
  -5.021785002   5.798359445   0.128788599
  -2.234233310   1.177190835   5.724758349

ATOMIC_POSITIONS (angstrom)
Ni              -4.1945883446        5.3141545170        5.5718799837
Mg              -2.9431323944        4.9296496806        2.6420098624
Mg               3.3048014442        2.0573487977        3.2442232772
Mg               4.3416319570        1.5244885686        0.3158561248
Mg               0.8828144654        6.5428018375        4.4866817549
Mg              -0.5737448647        0.3124849785        1.4362631133
Mg              -0.5410435747        3.7892872050        4.3745402931
Mg               0.6029715325        3.2236461460        1.4540903160
Ni              -1.6818755578        6.1470387350        5.2767553790
Ni              -1.7643671133        2.5188024309        2.3995407883
Ni               2.0386218535        4.3616632008        3.5044713651
Ni               1.8770370261        0.7842298995        0.5193509803
H               -0.4480478820        5.3576495788        5.7520984185
H               -0.3287761793        2.0817682517        2.8206603250
H                0.6454684052        4.8465408609        3.0112677543
H                0.5944439233        1.5606866349        0.1913594783
H                5.0106362469        1.1403578796        2.2654364788
H                3.7648841399        1.8485796349        5.2956276031
H               -3.3216895928        5.0072235486        0.4982937765
H               -4.7964892801        5.7771080648        3.7587882422
H               -2.7525777452        6.2101306119        4.1703310804
H               -2.3733530356        3.2512537239        1.1396382890
H                3.0697639735        3.8948510990        4.6193957997
H                2.7811168134        0.9724926895        1.7437571387
H                0.5388321269        2.2807042009        4.9969045562
H                2.5242078677        3.5723876450        2.2663546261
H               -2.3360575294        3.3103451937        3.6045680698
H               -0.6146915520        4.8097799250        0.6497361338



     Writing config-only to output data dir ./outdir/mg2nih4_ni.save/ :
     XML data file
     NEW-OLD atomic charge density approx. for the potential
     New effective cutoffs (rho, wfc):  535.16   66.90

     Check: negative core charge=   -0.000001

     total cpu time spent up to now is    11363.8 secs

     Self-consistent Calculation

     iteration #  1     ecut=    60.00 Ry     beta= 0.30
     Davidson diagonalization with overlap
     ethr =  1.00E-06,  avg # of iterations =  5.7

     total cpu time spent up to now is    11437.5 secs

     total energy              =   -1971.08712223 Ry
     estimated scf accuracy    <       0.00782770 Ry

     iteration #  2     ecut=    60.00 Ry     beta= 0.30
     Davidson diagonalization with overlap
     ethr =  6.52E-06,  avg # of iterations =  3.1

     total cpu time spent up to now is    11475.1 secs

     total energy              =   -1971.08542754 Ry
     estimated scf accuracy    <       0.04426401 Ry

     iteration #  3     ecut=    60.00 Ry     beta= 0.30
     Davidson diagonalization with overlap
     ethr =  6.52E-06,  avg # of iterations =  2.8

     total cpu time spent up to now is    11508.9 secs

     total energy              =   -1971.08839599 Ry
     estimated scf accuracy    <       0.00396605 Ry

     iteration #  4     ecut=    60.00 Ry     beta= 0.30
     Davidson diagonalization with overlap
     ethr =  3.31E-06,  avg # of iterations =  2.0

     total cpu time spent up to now is    11536.4 secs

     total energy              =   -1971.08848574 Ry
     estimated scf accuracy    <       0.00389228 Ry

     iteration #  5     ecut=    60.00 Ry     beta= 0.30
     Davidson diagonalization with overlap
     ethr =  3.24E-06,  avg # of iterations =  1.0

     total cpu time spent up to now is    11559.3 secs

     total energy              =   -1971.08874062 Ry
     estimated scf accuracy    <       0.00012958 Ry

     iteration #  6     ecut=    60.00 Ry     beta= 0.30
     Davidson diagonalization with overlap
     ethr =  1.08E-07,  avg # of iterations =  2.2

     total cpu time spent up to now is    11590.9 secs

     total energy              =   -1971.08874831 Ry
     estimated scf accuracy    <       0.00017416 Ry

     iteration #  7     ecut=    60.00 Ry     beta= 0.30
     Davidson diagonalization with overlap
     ethr =  1.08E-07,  avg # of iterations =  2.0

     total cpu time spent up to now is    11618.3 secs

     total energy              =   -1971.08875982 Ry
     estimated scf accuracy    <       0.00003250 Ry

     iteration #  8     ecut=    60.00 Ry     beta= 0.30
     Davidson diagonalization with overlap
     ethr =  2.71E-08,  avg # of iterations =  2.0

     total cpu time spent up to now is    11645.8 secs

     total energy              =   -1971.08876191 Ry
     estimated scf accuracy    <       0.00001551 Ry

     iteration #  9     ecut=    60.00 Ry     beta= 0.30
     Davidson diagonalization with overlap
     ethr =  1.29E-08,  avg # of iterations =  1.2

     total cpu time spent up to now is    11671.1 secs

     total energy              =   -1971.08876327 Ry
     estimated scf accuracy    <       0.00000231 Ry

     iteration # 10     ecut=    60.00 Ry     beta= 0.30
     Davidson diagonalization with overlap
     ethr =  1.92E-09,  avg # of iterations =  4.0

     total cpu time spent up to now is    11715.9 secs

     total energy              =   -1971.08876419 Ry
     estimated scf accuracy    <       0.00000278 Ry

     iteration # 11     ecut=    60.00 Ry     beta= 0.30
     Davidson diagonalization with overlap
     ethr =  1.92E-09,  avg # of iterations =  1.0

     total cpu time spent up to now is    11738.9 secs

     total energy              =   -1971.08876437 Ry
     estimated scf accuracy    <       0.00000026 Ry

     iteration # 12     ecut=    60.00 Ry     beta= 0.30
     Davidson diagonalization with overlap
     ethr =  2.17E-10,  avg # of iterations =  2.0

     total cpu time spent up to now is    11767.6 secs

     total energy              =   -1971.08876440 Ry
     estimated scf accuracy    <       0.00000004 Ry

     iteration # 13     ecut=    60.00 Ry     beta= 0.30
     Davidson diagonalization with overlap
     ethr =  3.28E-11,  avg # of iterations =  1.8

     total cpu time spent up to now is    11797.0 secs

     total energy              =   -1971.08876441 Ry
     estimated scf accuracy    <          4.4E-09 Ry

     iteration # 14     ecut=    60.00 Ry     beta= 0.30
     Davidson diagonalization with overlap
     ethr =  3.65E-12,  avg # of iterations =  2.0

     total cpu time spent up to now is    11825.7 secs

     End of self-consistent calculation

     Number of k-points >= 100: set verbosity='high' to print the bands.

     the Fermi energy is     6.6228 ev

!    total energy              =   -1971.08876441 Ry
     estimated scf accuracy    <          2.4E-10 Ry
     smearing contrib. (-TS)   =       0.00091070 Ry
     internal energy E=F+TS    =   -1971.08967511 Ry

     The total energy is F=E-TS. E is the sum of the following terms:
     one-electron contribution =   -1756.03727746 Ry
     hartree contribution      =     912.74586838 Ry
     xc contribution           =    -201.24940597 Ry
     ewald contribution        =    -707.12949400 Ry
     DFT-D3 Dispersion         =      -0.36851102 Ry
     one-center paw contrib.   =    -219.05085503 Ry

     convergence has been achieved in  14 iterations

     Forces acting on atoms (cartesian axes, Ry/au):

     atom    1 type  1   force =    -0.00423054   -0.00046508   -0.00592735
     atom    2 type  2   force =     0.00091865    0.00139463    0.00101049
     atom    3 type  2   force =    -0.00087208   -0.00218330   -0.00047735
     atom    4 type  2   force =     0.00018783   -0.00224386   -0.00002534
     atom    5 type  2   force =    -0.00075576    0.00043997   -0.00113522
     atom    6 type  2   force =     0.00143859    0.00283644   -0.00197775
     atom    7 type  2   force =    -0.00080517    0.00131938   -0.00226872
     atom    8 type  2   force =     0.00043041   -0.00318757    0.00101373
     atom    9 type  1   force =     0.00250271    0.00344324   -0.00442046
     atom   10 type  1   force =     0.00354873   -0.00268687    0.00170314
     atom   11 type  1   force =    -0.00016803    0.00101869   -0.00044399
     atom   12 type  1   force =    -0.00128558    0.00450964    0.00272634
     atom   13 type  3   force =     0.00111728    0.00016730   -0.00066999
     atom   14 type  3   force =    -0.00360073    0.00295223   -0.00283397
     atom   15 type  3   force =     0.00021022   -0.00210794    0.00271543
     atom   16 type  3   force =    -0.00190964    0.00067557   -0.00025021
     atom   17 type  3   force =     0.00081982   -0.00142899    0.00049027
     atom   18 type  3   force =     0.00245117   -0.00220253    0.00125959
     atom   19 type  3   force =    -0.00141264   -0.00227848   -0.00076241
     atom   20 type  3   force =     0.00342703   -0.00026854    0.00854945
     atom   21 type  3   force =     0.00206582   -0.00022320    0.00035500
     atom   22 type  3   force =    -0.00603822    0.00198256    0.00012996
     atom   23 type  3   force =     0.00449806    0.00384286    0.00442560
     atom   24 type  3   force =     0.00344226   -0.00083581    0.00191040
     atom   25 type  3   force =    -0.00051474   -0.00111077   -0.00242797
     atom   26 type  3   force =    -0.00093241   -0.00168757   -0.00252385
     atom   27 type  3   force =    -0.00284037   -0.00026638   -0.00070857
     atom   28 type  3   force =    -0.00169267   -0.00140561    0.00056375

     Total force =     0.022280     Total SCF correction =     0.000051


     Computing stress (Cartesian axis) and pressure

          total   stress  (Ry/bohr**3)                   (kbar)     P=        5.34
   0.00003742  -0.00000081   0.00000798            5.50       -0.12        1.17
  -0.00000081   0.00002866  -0.00001378           -0.12        4.22       -2.03
   0.00000798  -0.00001378   0.00004282            1.17       -2.03        6.30

     Energy error            =      1.1E-03 Ry
     Gradient error          =      8.5E-03 Ry/Bohr
     Cell gradient error     =      6.3E+00 kbar

     number of scf cycles    =  24
     number of bfgs steps    =  23

     enthalpy           old  =   -1971.0876422952 Ry
     enthalpy           new  =   -1971.0887644112 Ry

     CASE: enthalpy          _new < enthalpy          _old

     new trust radius        =       0.0759321218 bohr
     new conv_thr            =       0.0000000009 Ry

     new unit-cell volume =   1671.78982 a.u.^3 (   247.73369 Ang^3 )
     density =      3.21559 g/cm^3

CELL_PARAMETERS (angstrom)
   7.503827557  -0.020172171   0.004966395
  -5.032218462   5.808993137   0.130991101
  -2.237643197   1.182320381   5.722358625

ATOMIC_POSITIONS (angstrom)
Ni              -4.2003060536        5.3094275801        5.5615081730
Mg              -2.9482703463        4.9434874273        2.6464586552
Mg               3.3161849077        2.0579325770        3.2382221132
Mg               4.3460937392        1.5305084486        0.3100976222
Mg               0.8823797729        6.5516690662        4.4894070060
Mg              -0.5803457332        0.3115314549        1.4354393537
Mg              -0.5533929193        3.8042730691        4.3707850617
Mg               0.6016218772        3.2162917769        1.4551193235
Ni              -1.6895187458        6.1555658552        5.2801786365
Ni              -1.7681556011        2.5294748990        2.3827248262
Ni               2.0432935170        4.3628285084        3.5137312661
Ni               1.8728934700        0.7898931598        0.5270080933
H               -0.4435606537        5.3721855419        5.7569631200
H               -0.3462279649        2.0850742831        2.8256792175
H                0.6564843871        4.8512724666        3.0071318138
H                0.5853655937        1.5556070424        0.1856689186
H                5.0303132229        1.1369970706        2.2580798877
H                3.7635172272        1.8501444151        5.2956924987
H               -3.3288924708        5.0233124166        0.5037470645
H               -4.8072528406        5.7891560282        3.7994052738
H               -2.7620321799        6.2377519830        4.1675664291
H               -2.3988750619        3.2691238311        1.1441427259
H                3.1085676782        3.9001657659        4.6036691637
H                2.8010755011        0.9700349210        1.7383950271
H                0.5336320224        2.3082263485        4.9982206739
H                2.5163020142        3.5703598979        2.2672845837
H               -2.3418251452        3.3035987994        3.6004930826
H               -0.6135466353        4.8100842216        0.6536060908



     Writing config-only to output data dir ./outdir/mg2nih4_ni.save/ :
     XML data file
     NEW-OLD atomic charge density approx. for the potential
     New effective cutoffs (rho, wfc):  535.66   66.97

     Check: negative core charge=   -0.000001

     total cpu time spent up to now is    11843.1 secs

     Self-consistent Calculation

     iteration #  1     ecut=    60.00 Ry     beta= 0.30
     Davidson diagonalization with overlap
     ethr =  1.00E-06,  avg # of iterations =  5.0

     total cpu time spent up to now is    11910.5 secs

     total energy              =   -1971.08864701 Ry
     estimated scf accuracy    <       0.00597751 Ry

     iteration #  2     ecut=    60.00 Ry     beta= 0.30
     Davidson diagonalization with overlap
     ethr =  4.98E-06,  avg # of iterations =  3.0

     total cpu time spent up to now is    11949.3 secs

     total energy              =   -1971.08776399 Ry
     estimated scf accuracy    <       0.02357510 Ry

     iteration #  3     ecut=    60.00 Ry     beta= 0.30
     Davidson diagonalization with overlap
     ethr =  4.98E-06,  avg # of iterations =  2.6

     total cpu time spent up to now is    11983.2 secs

     total energy              =   -1971.08944473 Ry
     estimated scf accuracy    <       0.00409959 Ry

     iteration #  4     ecut=    60.00 Ry     beta= 0.30
     Davidson diagonalization with overlap
     ethr =  3.42E-06,  avg # of iterations =  1.8

     total cpu time spent up to now is    12012.6 secs

     total energy              =   -1971.08961986 Ry
     estimated scf accuracy    <       0.00274438 Ry

     iteration #  5     ecut=    60.00 Ry     beta= 0.30
     Davidson diagonalization with overlap
     ethr =  2.29E-06,  avg # of iterations =  1.0

     total cpu time spent up to now is    12035.6 secs

     total energy              =   -1971.08979601 Ry
     estimated scf accuracy    <       0.00028442 Ry

     iteration #  6     ecut=    60.00 Ry     beta= 0.30
     Davidson diagonalization with overlap
     ethr =  2.37E-07,  avg # of iterations =  2.0

     total cpu time spent up to now is    12063.9 secs

     total energy              =   -1971.08982387 Ry
     estimated scf accuracy    <       0.00008072 Ry

     iteration #  7     ecut=    60.00 Ry     beta= 0.30
     Davidson diagonalization with overlap
     ethr =  6.73E-08,  avg # of iterations =  1.0

     total cpu time spent up to now is    12086.8 secs

     total energy              =   -1971.08982678 Ry
     estimated scf accuracy    <       0.00001879 Ry

     iteration #  8     ecut=    60.00 Ry     beta= 0.30
     Davidson diagonalization with overlap
     ethr =  1.57E-08,  avg # of iterations =  2.0

     total cpu time spent up to now is    12115.4 secs

     total energy              =   -1971.08982884 Ry
     estimated scf accuracy    <       0.00001394 Ry

     iteration #  9     ecut=    60.00 Ry     beta= 0.30
     Davidson diagonalization with overlap
     ethr =  1.16E-08,  avg # of iterations =  1.0

     total cpu time spent up to now is    12138.9 secs

     total energy              =   -1971.08982993 Ry
     estimated scf accuracy    <       0.00000070 Ry

     iteration # 10     ecut=    60.00 Ry     beta= 0.30
     Davidson diagonalization with overlap
     ethr =  5.84E-10,  avg # of iterations =  4.0

     total cpu time spent up to now is    12189.5 secs

     total energy              =   -1971.08983061 Ry
     estimated scf accuracy    <       0.00000148 Ry

     iteration # 11     ecut=    60.00 Ry     beta= 0.30
     Davidson diagonalization with overlap
     ethr =  5.84E-10,  avg # of iterations =  2.0

     total cpu time spent up to now is    12217.0 secs

     total energy              =   -1971.08983072 Ry
     estimated scf accuracy    <       0.00000008 Ry

     iteration # 12     ecut=    60.00 Ry     beta= 0.30
     Davidson diagonalization with overlap
     ethr =  6.31E-11,  avg # of iterations =  2.0

     total cpu time spent up to now is    12245.8 secs

     total energy              =   -1971.08983073 Ry
     estimated scf accuracy    <       0.00000002 Ry

     iteration # 13     ecut=    60.00 Ry     beta= 0.30
     Davidson diagonalization with overlap
     ethr =  1.44E-11,  avg # of iterations =  1.0

     total cpu time spent up to now is    12268.8 secs

     total energy              =   -1971.08983073 Ry
     estimated scf accuracy    <          1.1E-09 Ry

     iteration # 14     ecut=    60.00 Ry     beta= 0.30
     Davidson diagonalization with overlap
     ethr =  8.79E-13,  avg # of iterations =  2.0

     total cpu time spent up to now is    12298.6 secs

     End of self-consistent calculation

     Number of k-points >= 100: set verbosity='high' to print the bands.

     the Fermi energy is     6.6138 ev

!    total energy              =   -1971.08983073 Ry
     estimated scf accuracy    <          1.5E-10 Ry
     smearing contrib. (-TS)   =       0.00095133 Ry
     internal energy E=F+TS    =   -1971.09078206 Ry

     The total energy is F=E-TS. E is the sum of the following terms:
     one-electron contribution =   -1757.51040581 Ry
     hartree contribution      =     913.39515844 Ry
     xc contribution           =    -201.22547592 Ry
     ewald contribution        =    -706.33431848 Ry
     DFT-D3 Dispersion         =      -0.36766223 Ry
     one-center paw contrib.   =    -219.04807806 Ry

     convergence has been achieved in  14 iterations

     Forces acting on atoms (cartesian axes, Ry/au):

     atom    1 type  1   force =    -0.00555839    0.00250690   -0.00403777
     atom    2 type  2   force =     0.00118660    0.00088993    0.00153861
     atom    3 type  2   force =    -0.00070873   -0.00263870   -0.00013165
     atom    4 type  2   force =     0.00090006   -0.00285281   -0.00012095
     atom    5 type  2   force =    -0.00137364    0.00131548   -0.00101451
     atom    6 type  2   force =     0.00119812    0.00217980   -0.00236183
     atom    7 type  2   force =    -0.00074603    0.00126992   -0.00217109
     atom    8 type  2   force =     0.00095570   -0.00183565    0.00050623
     atom    9 type  1   force =     0.00420895    0.00349342   -0.00711592
     atom   10 type  1   force =     0.00228753   -0.00390813    0.00556446
     atom   11 type  1   force =     0.00141675    0.00208172   -0.00308809
     atom   12 type  1   force =     0.00002119    0.00496506    0.00105825
     atom   13 type  3   force =    -0.00175054    0.00124870   -0.00167540
     atom   14 type  3   force =    -0.00105485    0.00268463   -0.00266427
     atom   15 type  3   force =    -0.00025384   -0.00171862    0.00323589
     atom   16 type  3   force =    -0.00083552    0.00042541   -0.00007709
     atom   17 type  3   force =     0.00041902   -0.00055238    0.00038712
     atom   18 type  3   force =     0.00248473   -0.00274969    0.00119584
     atom   19 type  3   force =     0.00003705   -0.00241692   -0.00117846
     atom   20 type  3   force =     0.00291792   -0.00264455    0.00883654
     atom   21 type  3   force =     0.00410239   -0.00102281    0.00195939
     atom   22 type  3   force =    -0.00711416    0.00188838   -0.00112275
     atom   23 type  3   force =     0.00300889    0.00305661    0.00470285
     atom   24 type  3   force =     0.00232200   -0.00120932    0.00044680
     atom   25 type  3   force =    -0.00135687   -0.00174948   -0.00125206
     atom   26 type  3   force =    -0.00108765   -0.00120410   -0.00063788
     atom   27 type  3   force =    -0.00307423    0.00034350   -0.00136466
     atom   28 type  3   force =    -0.00255247   -0.00184632    0.00058237

     Total force =     0.024203     Total SCF correction =     0.000044


     Computing stress (Cartesian axis) and pressure

          total   stress  (Ry/bohr**3)                   (kbar)     P=        2.11
   0.00001710   0.00000236  -0.00000085            2.52        0.35       -0.13
   0.00000236   0.00000188  -0.00000457            0.35        0.28       -0.67
  -0.00000085  -0.00000457   0.00002394           -0.13       -0.67        3.52

     Energy error            =      1.1E-03 Ry
     Gradient error          =      8.8E-03 Ry/Bohr
     Cell gradient error     =      3.5E+00 kbar

     number of scf cycles    =  25
     number of bfgs steps    =  24

     enthalpy           old  =   -1971.0887644112 Ry
     enthalpy           new  =   -1971.0898307328 Ry

     CASE: enthalpy          _new < enthalpy          _old

     new trust radius        =       0.0733312330 bohr
     new conv_thr            =       0.0000000009 Ry

     new unit-cell volume =   1678.05144 a.u.^3 (   248.66157 Ang^3 )
     density =      3.20359 g/cm^3

CELL_PARAMETERS (angstrom)
   7.518520115  -0.023164721   0.007166630
  -5.044204909   5.819109015   0.129124883
  -2.240745897   1.184168134   5.723804212

ATOMIC_POSITIONS (angstrom)
Ni              -4.2109370617        5.3050221331        5.5515522562
Mg              -2.9529685028        4.9552043024        2.6489381696
Mg               3.3269063755        2.0564088847        3.2361124810
Mg               4.3531968703        1.5319529370        0.3068201056
Mg               0.8832494544        6.5593911977        4.4908966726
Mg              -0.5838549121        0.3127190563        1.4342267785
Mg              -0.5626940508        3.8148038053        4.3675364734
Mg               0.6022175111        3.2099663247        1.4558355820
Ni              -1.6928266595        6.1641447037        5.2806193673
Ni              -1.7717868495        2.5357718174        2.3711917808
Ni               2.0511004541        4.3653371128        3.5201756453
Ni               1.8707571166        0.7981951236        0.5350430476
H               -0.4395335386        5.3831270820        5.7610504686
H               -0.3624399753        2.0907283851        2.8272191174
H                0.6664245298        4.8523612103        3.0080344215
H                0.5783251082        1.5530177767        0.1810066229
H                5.0505012913        1.1327122040        2.2561731636
H                3.7703476523        1.8475216891        5.3008836161
H               -3.3394910720        5.0366374464        0.5048521630
H               -4.8143407774        5.7979006827        3.8376804797
H               -2.7672936153        6.2578801041        4.1665098768
H               -2.4241376416        3.2863362353        1.1461460501
H                3.1430968836        3.9087066507        4.5985161979
H                2.8207604067        0.9659262578        1.7366590064
H                0.5297134210        2.3247496287        5.0004194899
H                2.5117862398        3.5677598095        2.2671431765
H               -2.3499594216        3.2977276638        3.5965506470
H               -0.6161489136        4.8095637842        0.6535472901



     Writing config-only to output data dir ./outdir/mg2nih4_ni.save/ :
     XML data file
     NEW-OLD atomic charge density approx. for the potential
     New effective cutoffs (rho, wfc):  535.03   66.89

     Check: negative core charge=   -0.000001

     total cpu time spent up to now is    12315.9 secs

     Self-consistent Calculation

     iteration #  1     ecut=    60.00 Ry     beta= 0.30
     Davidson diagonalization with overlap
     ethr =  1.00E-06,  avg # of iterations =  4.5

     total cpu time spent up to now is    12376.9 secs

     total energy              =   -1971.09018841 Ry
     estimated scf accuracy    <       0.00372878 Ry

     iteration #  2     ecut=    60.00 Ry     beta= 0.30
     Davidson diagonalization with overlap
     ethr =  3.11E-06,  avg # of iterations =  2.4

     total cpu time spent up to now is    12411.6 secs

     total energy              =   -1971.08999764 Ry
     estimated scf accuracy    <       0.00784220 Ry

     iteration #  3     ecut=    60.00 Ry     beta= 0.30
     Davidson diagonalization with overlap
     ethr =  3.11E-06,  avg # of iterations =  2.0

     total cpu time spent up to now is    12440.2 secs

     total energy              =   -1971.09068291 Ry
     estimated scf accuracy    <       0.00152148 Ry

     iteration #  4     ecut=    60.00 Ry     beta= 0.30
     Davidson diagonalization with overlap
     ethr =  1.27E-06,  avg # of iterations =  2.0

     total cpu time spent up to now is    12467.8 secs

     total energy              =   -1971.09072573 Ry
     estimated scf accuracy    <       0.00138205 Ry

     iteration #  5     ecut=    60.00 Ry     beta= 0.30
     Davidson diagonalization with overlap
     ethr =  1.15E-06,  avg # of iterations =  1.0

     total cpu time spent up to now is    12490.8 secs

     total energy              =   -1971.09080130 Ry
     estimated scf accuracy    <       0.00040780 Ry

     iteration #  6     ecut=    60.00 Ry     beta= 0.30
     Davidson diagonalization with overlap
     ethr =  3.40E-07,  avg # of iterations =  1.4

     total cpu time spent up to now is    12517.6 secs

     total energy              =   -1971.09083373 Ry
     estimated scf accuracy    <       0.00005608 Ry

     iteration #  7     ecut=    60.00 Ry     beta= 0.30
     Davidson diagonalization with overlap
     ethr =  4.67E-08,  avg # of iterations =  1.2

     total cpu time spent up to now is    12542.4 secs

     total energy              =   -1971.09083616 Ry
     estimated scf accuracy    <       0.00001155 Ry

     iteration #  8     ecut=    60.00 Ry     beta= 0.30
     Davidson diagonalization with overlap
     ethr =  9.62E-09,  avg # of iterations =  2.0

     total cpu time spent up to now is    12570.4 secs

     total energy              =   -1971.09083720 Ry
     estimated scf accuracy    <       0.00000695 Ry

     iteration #  9     ecut=    60.00 Ry     beta= 0.30
     Davidson diagonalization with overlap
     ethr =  5.79E-09,  avg # of iterations =  1.7

     total cpu time spent up to now is    12601.1 secs

     total energy              =   -1971.09083788 Ry
     estimated scf accuracy    <       0.00000043 Ry

     iteration # 10     ecut=    60.00 Ry     beta= 0.30
     Davidson diagonalization with overlap
     ethr =  3.55E-10,  avg # of iterations =  4.3

     total cpu time spent up to now is    12655.4 secs

     total energy              =   -1971.09083840 Ry
     estimated scf accuracy    <       0.00000006 Ry

     iteration # 11     ecut=    60.00 Ry     beta= 0.30
     Davidson diagonalization with overlap
     ethr =  5.20E-11,  avg # of iterations =  2.0

     total cpu time spent up to now is    12682.7 secs

     total energy              =   -1971.09083841 Ry
     estimated scf accuracy    <       0.00000004 Ry

     iteration # 12     ecut=    60.00 Ry     beta= 0.30
     Davidson diagonalization with overlap
     ethr =  3.43E-11,  avg # of iterations =  2.0

     total cpu time spent up to now is    12710.7 secs

     total energy              =   -1971.09083841 Ry
     estimated scf accuracy    <       0.00000002 Ry

     iteration # 13     ecut=    60.00 Ry     beta= 0.30
     Davidson diagonalization with overlap
     ethr =  1.58E-11,  avg # of iterations =  1.8

     total cpu time spent up to now is    12740.4 secs

     End of self-consistent calculation

     Number of k-points >= 100: set verbosity='high' to print the bands.

     the Fermi energy is     6.5889 ev

!    total energy              =   -1971.09083841 Ry
     estimated scf accuracy    <          7.5E-10 Ry
     smearing contrib. (-TS)   =       0.00096727 Ry
     internal energy E=F+TS    =   -1971.09180568 Ry

     The total energy is F=E-TS. E is the sum of the following terms:
     one-electron contribution =   -1759.14046330 Ry
     hartree contribution      =     914.06956987 Ry
     xc contribution           =    -201.19431216 Ry
     ewald contribution        =    -705.41580664 Ry
     DFT-D3 Dispersion         =      -0.36636414 Ry
     one-center paw contrib.   =    -219.04442931 Ry

     convergence has been achieved in  13 iterations

     Forces acting on atoms (cartesian axes, Ry/au):

     atom    1 type  1   force =    -0.00599673    0.00522635   -0.00096183
     atom    2 type  2   force =     0.00129597    0.00036706    0.00170942
     atom    3 type  2   force =    -0.00027413   -0.00237072   -0.00007639
     atom    4 type  2   force =     0.00146646   -0.00318721   -0.00021820
     atom    5 type  2   force =    -0.00174792    0.00187177   -0.00066181
     atom    6 type  2   force =     0.00070929    0.00107162   -0.00244467
     atom    7 type  2   force =    -0.00063530    0.00119578   -0.00183124
     atom    8 type  2   force =     0.00137716    0.00015677   -0.00030588
     atom    9 type  1   force =     0.00389538    0.00186061   -0.00667696
     atom   10 type  1   force =    -0.00090027   -0.00308352    0.00643605
     atom   11 type  1   force =     0.00316239    0.00216287   -0.00474075
     atom   12 type  1   force =     0.00132656    0.00363876   -0.00080257
     atom   13 type  3   force =    -0.00395721    0.00192988   -0.00246284
     atom   14 type  3   force =     0.00237287    0.00191252   -0.00188067
     atom   15 type  3   force =    -0.00058883   -0.00098892    0.00329677
     atom   16 type  3   force =     0.00024958    0.00020848    0.00004108
     atom   17 type  3   force =    -0.00005043    0.00012119    0.00009970
     atom   18 type  3   force =     0.00239061   -0.00209537    0.00109788
     atom   19 type  3   force =     0.00123741   -0.00110071   -0.00122730
     atom   20 type  3   force =     0.00218067   -0.00423861    0.00872137
     atom   21 type  3   force =     0.00526579   -0.00153031    0.00232828
     atom   22 type  3   force =    -0.00682343    0.00081456   -0.00097278
     atom   23 type  3   force =     0.00110450    0.00165033    0.00364657
     atom   24 type  3   force =     0.00092218   -0.00160009   -0.00140353
     atom   25 type  3   force =    -0.00204903   -0.00192455    0.00022597
     atom   26 type  3   force =    -0.00106952   -0.00079340    0.00134357
     atom   27 type  3   force =    -0.00297429    0.00080727   -0.00172665
     atom   28 type  3   force =    -0.00188970   -0.00208243   -0.00055259

     Total force =     0.024084     Total SCF correction =     0.000085


     Computing stress (Cartesian axis) and pressure

          total   stress  (Ry/bohr**3)                   (kbar)     P=       -1.76
  -0.00000723   0.00000412  -0.00000923           -1.06        0.61       -1.36
   0.00000412  -0.00002575   0.00000685            0.61       -3.79        1.01
  -0.00000923   0.00000685  -0.00000282           -1.36        1.01       -0.41

     Energy error            =      1.0E-03 Ry
     Gradient error          =      8.7E-03 Ry/Bohr
     Cell gradient error     =      3.8E+00 kbar

     number of scf cycles    =  26
     number of bfgs steps    =  25

     enthalpy           old  =   -1971.0898307328 Ry
     enthalpy           new  =   -1971.0908384142 Ry

     CASE: enthalpy          _new < enthalpy          _old

     new trust radius        =       0.0776895014 bohr
     new conv_thr            =       0.0000000009 Ry

     new unit-cell volume =   1683.05728 a.u.^3 (   249.40336 Ang^3 )
     density =      3.19406 g/cm^3

CELL_PARAMETERS (angstrom)
   7.531863123  -0.025039542   0.007591123
  -5.054445685   5.824197860   0.128956566
  -2.244664186   1.185591346   5.726818438

ATOMIC_POSITIONS (angstrom)
Ni              -4.2258149718        5.3022744272        5.5442267881
Mg              -2.9562015082        4.9632362548        2.6537732453
Mg               3.3355229419        2.0527171963        3.2342598309
Mg               4.3607865155        1.5298621467        0.3031189480
Mg               0.8827059789        6.5643875414        4.4928786411
Mg              -0.5863679123        0.3149388231        1.4317142846
Mg              -0.5717248010        3.8231740786        4.3644769908
Mg               0.6037789223        3.2027692799        1.4567151976
Ni              -1.6936212400        6.1699020357        5.2785095075
Ni              -1.7758587060        2.5380002021        2.3659149345
Ni               2.0599483083        4.3670546797        3.5234492409
Ni               1.8697079191        0.8083054237        0.5419810040
H               -0.4389035115        5.3913815086        5.7645882780
H               -0.3755504409        2.0966868786        2.8276155184
H                0.6743660068        4.8500400467        3.0124598140
H                0.5721755020        1.5505200936        0.1770213569
H                5.0679680165        1.1286296657        2.2543798452
H                3.7781531000        1.8437848061        5.3068679735
H               -3.3483258146        5.0441108187        0.5059805515
H               -4.8185480407        5.7999525054        3.8802190902
H               -2.7686410430        6.2707357528        4.1686838621
H               -2.4512811908        3.3002182219        1.1484171504
H                3.1738418015        3.9170326336        4.5982454796
H                2.8389105685        0.9608873966        1.7345668169
H                0.5242324308        2.3364212270        5.0028493806
H                2.5072847413        3.5631056845        2.2674521378
H               -2.3602153094        3.2917368781        3.5935370355
H               -0.6197827489        4.8046290972        0.6532228741



     Writing config-only to output data dir ./outdir/mg2nih4_ni.save/ :
     XML data file
     NEW-OLD atomic charge density approx. for the potential
     New effective cutoffs (rho, wfc):  534.45   66.82

     Check: negative core charge=   -0.000001

     total cpu time spent up to now is    12758.0 secs

     Self-consistent Calculation

     iteration #  1     ecut=    60.00 Ry     beta= 0.30
     Davidson diagonalization with overlap
     ethr =  1.00E-06,  avg # of iterations =  4.3

     total cpu time spent up to now is    12816.6 secs

     total energy              =   -1971.09138203 Ry
     estimated scf accuracy    <       0.00289247 Ry

     iteration #  2     ecut=    60.00 Ry     beta= 0.30
     Davidson diagonalization with overlap
     ethr =  2.41E-06,  avg # of iterations =  2.5

     total cpu time spent up to now is    12851.7 secs

     total energy              =   -1971.09102760 Ry
     estimated scf accuracy    <       0.00887750 Ry

     iteration #  3     ecut=    60.00 Ry     beta= 0.30
     Davidson diagonalization with overlap
     ethr =  2.41E-06,  avg # of iterations =  2.0

     total cpu time spent up to now is    12880.4 secs

     total energy              =   -1971.09169389 Ry
     estimated scf accuracy    <       0.00173983 Ry

     iteration #  4     ecut=    60.00 Ry     beta= 0.30
     Davidson diagonalization with overlap
     ethr =  1.45E-06,  avg # of iterations =  2.0

     total cpu time spent up to now is    12908.0 secs

     total energy              =   -1971.09172659 Ry
     estimated scf accuracy    <       0.00176436 Ry

     iteration #  5     ecut=    60.00 Ry     beta= 0.30
     Davidson diagonalization with overlap
     ethr =  1.45E-06,  avg # of iterations =  1.1

     total cpu time spent up to now is    12932.4 secs

     total energy              =   -1971.09183089 Ry
     estimated scf accuracy    <       0.00019436 Ry

     iteration #  6     ecut=    60.00 Ry     beta= 0.30
     Davidson diagonalization with overlap
     ethr =  1.62E-07,  avg # of iterations =  2.0

     total cpu time spent up to now is    12960.8 secs

     total energy              =   -1971.09185162 Ry
     estimated scf accuracy    <       0.00004195 Ry

     iteration #  7     ecut=    60.00 Ry     beta= 0.30
     Davidson diagonalization with overlap
     ethr =  3.50E-08,  avg # of iterations =  1.0

     total cpu time spent up to now is    12983.7 secs

     total energy              =   -1971.09185391 Ry
     estimated scf accuracy    <       0.00000314 Ry

     iteration #  8     ecut=    60.00 Ry     beta= 0.30
     Davidson diagonalization with overlap
     ethr =  2.62E-09,  avg # of iterations =  4.3

     total cpu time spent up to now is    13027.6 secs

     total energy              =   -1971.09185456 Ry
     estimated scf accuracy    <       0.00000512 Ry

     iteration #  9     ecut=    60.00 Ry     beta= 0.30
     Davidson diagonalization with overlap
     ethr =  2.62E-09,  avg # of iterations =  2.0

     total cpu time spent up to now is    13055.6 secs

     total energy              =   -1971.09185494 Ry
     estimated scf accuracy    <       0.00000044 Ry

     iteration # 10     ecut=    60.00 Ry     beta= 0.30
     Davidson diagonalization with overlap
     ethr =  3.69E-10,  avg # of iterations =  2.0

     total cpu time spent up to now is    13084.5 secs

     total energy              =   -1971.09185499 Ry
     estimated scf accuracy    <       0.00000009 Ry

     iteration # 11     ecut=    60.00 Ry     beta= 0.30
     Davidson diagonalization with overlap
     ethr =  7.78E-11,  avg # of iterations =  2.4

     total cpu time spent up to now is    13116.0 secs

     total energy              =   -1971.09185500 Ry
     estimated scf accuracy    <       0.00000013 Ry

     iteration # 12     ecut=    60.00 Ry     beta= 0.30
     Davidson diagonalization with overlap
     ethr =  7.78E-11,  avg # of iterations =  1.5

     total cpu time spent up to now is    13144.1 secs

     total energy              =   -1971.09185501 Ry
     estimated scf accuracy    <          8.8E-09 Ry

     iteration # 13     ecut=    60.00 Ry     beta= 0.30
     Davidson diagonalization with overlap
     ethr =  7.32E-12,  avg # of iterations =  3.0

     total cpu time spent up to now is    13179.1 secs

     total energy              =   -1971.09185501 Ry
     estimated scf accuracy    <          1.4E-09 Ry

     iteration # 14     ecut=    60.00 Ry     beta= 0.30
     Davidson diagonalization with overlap
     ethr =  1.19E-12,  avg # of iterations =  1.4

     total cpu time spent up to now is    13205.0 secs

     End of self-consistent calculation

     Number of k-points >= 100: set verbosity='high' to print the bands.

     the Fermi energy is     6.5695 ev

!    total energy              =   -1971.09185501 Ry
     estimated scf accuracy    <          1.2E-10 Ry
     smearing contrib. (-TS)   =       0.00097209 Ry
     internal energy E=F+TS    =   -1971.09282710 Ry

     The total energy is F=E-TS. E is the sum of the following terms:
     one-electron contribution =   -1760.15501915 Ry
     hartree contribution      =     914.45827018 Ry
     xc contribution           =    -201.17125571 Ry
     ewald contribution        =    -704.81774438 Ry
     DFT-D3 Dispersion         =      -0.36531630 Ry
     one-center paw contrib.   =    -219.04176175 Ry

     convergence has been achieved in  14 iterations

     Forces acting on atoms (cartesian axes, Ry/au):

     atom    1 type  1   force =    -0.00591294    0.00674251    0.00304451
     atom    2 type  2   force =     0.00125634   -0.00001758    0.00152952
     atom    3 type  2   force =     0.00021608   -0.00152506   -0.00041879
     atom    4 type  2   force =     0.00178986   -0.00327894   -0.00027567
     atom    5 type  2   force =    -0.00179750    0.00203754   -0.00036029
     atom    6 type  2   force =     0.00021087   -0.00007983   -0.00221901
     atom    7 type  2   force =    -0.00041352    0.00111266   -0.00141073
     atom    8 type  2   force =     0.00154117    0.00223309   -0.00111530
     atom    9 type  1   force =     0.00190298   -0.00056445   -0.00355360
     atom   10 type  1   force =    -0.00428475   -0.00073461    0.00451195
     atom   11 type  1   force =     0.00440701    0.00132349   -0.00490107
     atom   12 type  1   force =     0.00215178    0.00120761   -0.00235589
     atom   13 type  3   force =    -0.00463549    0.00183399   -0.00274772
     atom   14 type  3   force =     0.00560427    0.00104509   -0.00090000
     atom   15 type  3   force =    -0.00081046   -0.00003518    0.00299268
     atom   16 type  3   force =     0.00105369    0.00016931    0.00004153
     atom   17 type  3   force =    -0.00062873    0.00023616   -0.00024167
     atom   18 type  3   force =     0.00232629   -0.00054395    0.00098064
     atom   19 type  3   force =     0.00202203    0.00090377   -0.00103028
     atom   20 type  3   force =     0.00142285   -0.00455132    0.00816598
     atom   21 type  3   force =     0.00510140   -0.00169335    0.00119749
     atom   22 type  3   force =    -0.00537596   -0.00082252    0.00004619
     atom   23 type  3   force =    -0.00083232    0.00024015    0.00192248
     atom   24 type  3   force =    -0.00028186   -0.00188149   -0.00295101
     atom   25 type  3   force =    -0.00234568   -0.00178556    0.00138917
     atom   26 type  3   force =    -0.00078859   -0.00067254    0.00262487
     atom   27 type  3   force =    -0.00273569    0.00113046   -0.00148931
     atom   28 type  3   force =    -0.00016312   -0.00202944   -0.00247669

     Total force =     0.023300     Total SCF correction =     0.000024


     Computing stress (Cartesian axis) and pressure

          total   stress  (Ry/bohr**3)                   (kbar)     P=       -4.63
  -0.00002602   0.00000381  -0.00001438           -3.83        0.56       -2.12
   0.00000381  -0.00004392   0.00001655            0.56       -6.46        2.43
  -0.00001438   0.00001655  -0.00002453           -2.12        2.43       -3.61

     Energy error            =      1.0E-03 Ry
     Gradient error          =      8.2E-03 Ry/Bohr
     Cell gradient error     =      6.5E+00 kbar

     number of scf cycles    =  27
     number of bfgs steps    =  26

     enthalpy           old  =   -1971.0908384142 Ry
     enthalpy           new  =   -1971.0918550082 Ry

     CASE: enthalpy          _new < enthalpy          _old

     new trust radius        =       0.0930490689 bohr
     new conv_thr            =       0.0000000008 Ry

     new unit-cell volume =   1684.60007 a.u.^3 (   249.63198 Ang^3 )
     density =      3.19113 g/cm^3

CELL_PARAMETERS (angstrom)
   7.541194345  -0.026087079   0.004805119
  -5.061338804   5.821815143   0.133489330
  -2.249726998   1.188368901   5.729457573

ATOMIC_POSITIONS (angstrom)
Ni              -4.2459463984        5.3015390898        5.5409871081
Mg              -2.9570187706        4.9670136370        2.6630602837
Mg               3.3410767384        2.0465205663        3.2300944499
Mg               4.3675971002        1.5235453752        0.2974312381
Mg               0.8792706125        6.5656405433        4.4957193167
Mg              -0.5887239923        0.3178665721        1.4268972607
Mg              -0.5822160603        3.8307559881        4.3604829263
Mg               0.6056900871        3.1935313007        1.4576844144
Ni              -1.6932250226        6.1707812605        5.2741886890
Ni              -1.7815376842        2.5371249265        2.3657043201
Ni               2.0694165948        4.3663282238        3.5232479956
Ni               1.8689340667        0.8199406471        0.5473687046
H               -0.4428712713        5.3973258806        5.7671125240
H               -0.3847454117        2.1025154220        2.8274213859
H                0.6799107667        4.8438087451        3.0201020600
H                0.5658488817        1.5467461964        0.1732388107
H                5.0811072730        1.1243760672        2.2497675021
H                3.7840680840        1.8405105011        5.3113113127
H               -3.3530106502        5.0447115206        0.5093909628
H               -4.8192890714        5.7936352696        3.9338235709
H               -2.7661138044        6.2764109529        4.1739997394
H               -2.4826120417        3.3098743271        1.1526415328
H                3.2021469204        3.9244222315        4.5999048018
H                2.8555272491        0.9544631386        1.7296973546
H                0.5151423986        2.3463142762        5.0043654110
H                2.5003973448        3.5546298474        2.2686519449
H               -2.3732632713        3.2848293357        3.5911460056
H               -0.6237610646        4.7921956638        0.6530866854



     Writing config-only to output data dir ./outdir/mg2nih4_ni.save/ :
     XML data file
     NEW-OLD atomic charge density approx. for the potential
     New effective cutoffs (rho, wfc):  534.72   66.84

     Check: negative core charge=   -0.000001

     total cpu time spent up to now is    13222.6 secs

     Self-consistent Calculation

     iteration #  1     ecut=    60.00 Ry     beta= 0.30
     Davidson diagonalization with overlap
     ethr =  1.00E-06,  avg # of iterations =  4.5

     total cpu time spent up to now is    13284.6 secs

     total energy              =   -1971.09131150 Ry
     estimated scf accuracy    <       0.00369503 Ry

     iteration #  2     ecut=    60.00 Ry     beta= 0.30
     Davidson diagonalization with overlap
     ethr =  3.08E-06,  avg # of iterations =  2.8

     total cpu time spent up to now is    13322.4 secs

     total energy              =   -1971.09062551 Ry
     estimated scf accuracy    <       0.01733289 Ry

     iteration #  3     ecut=    60.00 Ry     beta= 0.30
     Davidson diagonalization with overlap
     ethr =  3.08E-06,  avg # of iterations =  2.4

     total cpu time spent up to now is    13355.5 secs

     total energy              =   -1971.09185186 Ry
     estimated scf accuracy    <       0.00145059 Ry

     iteration #  4     ecut=    60.00 Ry     beta= 0.30
     Davidson diagonalization with overlap
     ethr =  1.21E-06,  avg # of iterations =  2.0

     total cpu time spent up to now is    13383.0 secs

     total energy              =   -1971.09184332 Ry
     estimated scf accuracy    <       0.00180317 Ry

     iteration #  5     ecut=    60.00 Ry     beta= 0.30
     Davidson diagonalization with overlap
     ethr =  1.21E-06,  avg # of iterations =  1.0

     total cpu time spent up to now is    13406.1 secs

     total energy              =   -1971.09196157 Ry
     estimated scf accuracy    <       0.00005606 Ry

     iteration #  6     ecut=    60.00 Ry     beta= 0.30
     Davidson diagonalization with overlap
     ethr =  4.67E-08,  avg # of iterations =  2.9

     total cpu time spent up to now is    13441.5 secs

     total energy              =   -1971.09196730 Ry
     estimated scf accuracy    <       0.00005494 Ry

     iteration #  7     ecut=    60.00 Ry     beta= 0.30
     Davidson diagonalization with overlap
     ethr =  4.58E-08,  avg # of iterations =  1.0

     total cpu time spent up to now is    13464.4 secs

     total energy              =   -1971.09196897 Ry
     estimated scf accuracy    <       0.00001493 Ry

     iteration #  8     ecut=    60.00 Ry     beta= 0.30
     Davidson diagonalization with overlap
     ethr =  1.24E-08,  avg # of iterations =  2.0

     total cpu time spent up to now is    13492.2 secs

     total energy              =   -1971.09197059 Ry
     estimated scf accuracy    <       0.00000324 Ry

     iteration #  9     ecut=    60.00 Ry     beta= 0.30
     Davidson diagonalization with overlap
     ethr =  2.70E-09,  avg # of iterations =  5.3

     total cpu time spent up to now is    13541.1 secs

     total energy              =   -1971.09197105 Ry
     estimated scf accuracy    <       0.00000167 Ry

     iteration # 10     ecut=    60.00 Ry     beta= 0.30
     Davidson diagonalization with overlap
     ethr =  1.39E-09,  avg # of iterations =  2.8

     total cpu time spent up to now is    13575.5 secs

     total energy              =   -1971.09197131 Ry
     estimated scf accuracy    <       0.00000013 Ry

     iteration # 11     ecut=    60.00 Ry     beta= 0.30
     Davidson diagonalization with overlap
     ethr =  1.08E-10,  avg # of iterations =  3.2

     total cpu time spent up to now is    13614.5 secs

     total energy              =   -1971.09197137 Ry
     estimated scf accuracy    <       0.00000002 Ry

     iteration # 12     ecut=    60.00 Ry     beta= 0.30
     Davidson diagonalization with overlap
     ethr =  1.31E-11,  avg # of iterations =  2.2

     total cpu time spent up to now is    13643.3 secs

     total energy              =   -1971.09197137 Ry
     estimated scf accuracy    <          5.3E-09 Ry

     iteration # 13     ecut=    60.00 Ry     beta= 0.30
     Davidson diagonalization with overlap
     ethr =  4.42E-12,  avg # of iterations =  2.1

     total cpu time spent up to now is    13671.6 secs

     total energy              =   -1971.09197137 Ry
     estimated scf accuracy    <          1.8E-09 Ry

     iteration # 14     ecut=    60.00 Ry     beta= 0.30
     Davidson diagonalization with overlap
     ethr =  1.53E-12,  avg # of iterations =  1.3

     total cpu time spent up to now is    13696.8 secs

     End of self-consistent calculation

     Number of k-points >= 100: set verbosity='high' to print the bands.

     the Fermi energy is     6.5690 ev

!    total energy              =   -1971.09197137 Ry
     estimated scf accuracy    <          1.3E-10 Ry
     smearing contrib. (-TS)   =       0.00098292 Ry
     internal energy E=F+TS    =   -1971.09295430 Ry

     The total energy is F=E-TS. E is the sum of the following terms:
     one-electron contribution =   -1760.15680726 Ry
     hartree contribution      =     914.41347366 Ry
     xc contribution           =    -201.16674436 Ry
     ewald contribution        =    -704.77778390 Ry
     DFT-D3 Dispersion         =      -0.36387247 Ry
     one-center paw contrib.   =    -219.04121996 Ry

     convergence has been achieved in  14 iterations

     Forces acting on atoms (cartesian axes, Ry/au):

     atom    1 type  1   force =    -0.00522101    0.00655107    0.00812589
     atom    2 type  2   force =     0.00101637   -0.00023900    0.00098694
     atom    3 type  2   force =     0.00067860   -0.00018693   -0.00118273
     atom    4 type  2   force =     0.00180667   -0.00309421   -0.00032724
     atom    5 type  2   force =    -0.00150473    0.00180451   -0.00028539
     atom    6 type  2   force =    -0.00021309   -0.00112320   -0.00156440
     atom    7 type  2   force =    -0.00003858    0.00096218   -0.00094083
     atom    8 type  2   force =     0.00137858    0.00415638   -0.00175685
     atom    9 type  1   force =    -0.00115753   -0.00305454    0.00141518
     atom   10 type  1   force =    -0.00626765    0.00222781    0.00076985
     atom   11 type  1   force =     0.00472420   -0.00007269   -0.00337440
     atom   12 type  1   force =     0.00235149   -0.00185339   -0.00346800
     atom   13 type  3   force =    -0.00342777    0.00077286   -0.00239628
     atom   14 type  3   force =     0.00768769    0.00040758   -0.00007278
     atom   15 type  3   force =    -0.00083181    0.00113006    0.00237668
     atom   16 type  3   force =     0.00153271    0.00035328   -0.00010056
     atom   17 type  3   force =    -0.00131499   -0.00022519   -0.00056760
     atom   18 type  3   force =     0.00220533    0.00153782    0.00075306
     atom   19 type  3   force =     0.00227720    0.00301259   -0.00062827
     atom   20 type  3   force =     0.00036174   -0.00335041    0.00645035
     atom   21 type  3   force =     0.00346670   -0.00145658   -0.00151014
     atom   22 type  3   force =    -0.00327505   -0.00275566    0.00149176
     atom   23 type  3   force =    -0.00263134   -0.00093273   -0.00005121
     atom   24 type  3   force =    -0.00109290   -0.00198862   -0.00394902
     atom   25 type  3   force =    -0.00210370   -0.00136481    0.00196158
     atom   26 type  3   force =    -0.00020599   -0.00087339    0.00289828
     atom   27 type  3   force =    -0.00237464    0.00126577   -0.00052639
     atom   28 type  3   force =     0.00217348   -0.00161058   -0.00452750

     Total force =     0.024164     Total SCF correction =     0.000034


     Computing stress (Cartesian axis) and pressure

          total   stress  (Ry/bohr**3)                   (kbar)     P=       -5.03
  -0.00003026   0.00000126  -0.00001581           -4.45        0.19       -2.33
   0.00000126  -0.00004389   0.00002167            0.19       -6.46        3.19
  -0.00001581   0.00002167  -0.00002849           -2.33        3.19       -4.19

     Energy error            =      1.2E-04 Ry
     Gradient error          =      8.1E-03 Ry/Bohr
     Cell gradient error     =      6.5E+00 kbar

     number of scf cycles    =  28
     number of bfgs steps    =  27

     enthalpy           old  =   -1971.0918550082 Ry
     enthalpy           new  =   -1971.0919713720 Ry

     CASE: enthalpy          _new < enthalpy          _old

     new trust radius        =       0.0715576647 bohr
     new conv_thr            =       0.0000000001 Ry

     new unit-cell volume =   1682.60430 a.u.^3 (   249.33623 Ang^3 )
     density =      3.19492 g/cm^3

CELL_PARAMETERS (angstrom)
   7.543737193  -0.025786300  -0.000457488
  -5.062677426   5.811653592   0.140894552
  -2.254483660   1.190959393   5.733039441

ATOMIC_POSITIONS (angstrom)
Ni              -4.2674992454        5.3052270680        5.5485171965
Mg              -2.9552428340        4.9633305998        2.6730226740
Mg               3.3402886083        2.0402608345        3.2267762398
Mg               4.3721903441        1.5115035344        0.2933677188
Mg               0.8735012114        6.5621287618        4.4983812173
Mg              -0.5883872452        0.3214937527        1.4215089529
Mg              -0.5888158321        3.8321691884        4.3580167681
Mg               0.6083979664        3.1881097886        1.4583452584
Ni              -1.6918162694        6.1653871592        5.2718769389
Ni              -1.7889616813        2.5330718737        2.3727410724
Ni               2.0778483102        4.3636852766        3.5183706720
Ni               1.8700232790        0.8278139867        0.5478593481
H               -0.4511967226        5.3965018438        5.7673570829
H               -0.3845823448        2.1079920840        2.8247887969
H                0.6797069206        4.8342399791        3.0325248194
H                0.5636960525        1.5446394253        0.1722072542
H                5.0835523778        1.1211007749        2.2466697175
H                3.7898277181        1.8386610908        5.3149342155
H               -3.3537668428        5.0379994181        0.5133391292
H               -4.8147569252        5.7796732688        3.9780712374
H               -2.7582617864        6.2679079096        4.1813906334
H               -2.5051662696        3.3093154194        1.1581092972
H                3.2109142902        3.9295544774        4.6080058951
H                2.8625770801        0.9476523848        1.7243197841
H                0.5054360707        2.3445519620        5.0056779562
H                2.4952836506        3.5448804837        2.2704540994
H               -2.3860766011        3.2808663611        3.5914900942
H               -0.6266477860        4.7758548816        0.6505470005



     Writing config-only to output data dir ./outdir/mg2nih4_ni.save/ :
     XML data file
     NEW-OLD atomic charge density approx. for the potential
     New effective cutoffs (rho, wfc):  535.40   66.93

     Check: negative core charge=   -0.000001

     total cpu time spent up to now is    13714.1 secs

     Self-consistent Calculation

     iteration #  1     ecut=    60.00 Ry     beta= 0.30
     Davidson diagonalization with overlap
     ethr =  1.00E-06,  avg # of iterations =  4.4

     total cpu time spent up to now is    13774.1 secs

     total energy              =   -1971.09246848 Ry
     estimated scf accuracy    <       0.00358361 Ry

     iteration #  2     ecut=    60.00 Ry     beta= 0.30
     Davidson diagonalization with overlap
     ethr =  2.99E-06,  avg # of iterations =  2.9

     total cpu time spent up to now is    13812.4 secs

     total energy              =   -1971.09191403 Ry
     estimated scf accuracy    <       0.01525824 Ry

     iteration #  3     ecut=    60.00 Ry     beta= 0.30
     Davidson diagonalization with overlap
     ethr =  2.99E-06,  avg # of iterations =  2.7

     total cpu time spent up to now is    13847.2 secs

     total energy              =   -1971.09302278 Ry
     estimated scf accuracy    <       0.00158318 Ry

     iteration #  4     ecut=    60.00 Ry     beta= 0.30
     Davidson diagonalization with overlap
     ethr =  1.32E-06,  avg # of iterations =  2.0

     total cpu time spent up to now is    13874.7 secs

     total energy              =   -1971.09306603 Ry
     estimated scf accuracy    <       0.00127016 Ry

     iteration #  5     ecut=    60.00 Ry     beta= 0.30
     Davidson diagonalization with overlap
     ethr =  1.06E-06,  avg # of iterations =  1.0

     total cpu time spent up to now is    13897.6 secs

     total energy              =   -1971.09315098 Ry
     estimated scf accuracy    <       0.00012061 Ry

     iteration #  6     ecut=    60.00 Ry     beta= 0.30
     Davidson diagonalization with overlap
     ethr =  1.01E-07,  avg # of iterations =  2.0

     total cpu time spent up to now is    13926.5 secs

     total energy              =   -1971.09316326 Ry
     estimated scf accuracy    <       0.00006541 Ry

     iteration #  7     ecut=    60.00 Ry     beta= 0.30
     Davidson diagonalization with overlap
     ethr =  5.45E-08,  avg # of iterations =  1.0

     total cpu time spent up to now is    13949.5 secs

     total energy              =   -1971.09316797 Ry
     estimated scf accuracy    <       0.00000482 Ry

     iteration #  8     ecut=    60.00 Ry     beta= 0.30
     Davidson diagonalization with overlap
     ethr =  4.02E-09,  avg # of iterations =  4.7

     total cpu time spent up to now is    13995.3 secs

     total energy              =   -1971.09316939 Ry
     estimated scf accuracy    <       0.00000248 Ry

     iteration #  9     ecut=    60.00 Ry     beta= 0.30
     Davidson diagonalization with overlap
     ethr =  2.07E-09,  avg # of iterations =  1.5

     total cpu time spent up to now is    14022.0 secs

     total energy              =   -1971.09316950 Ry
     estimated scf accuracy    <       0.00000118 Ry

     iteration # 10     ecut=    60.00 Ry     beta= 0.30
     Davidson diagonalization with overlap
     ethr =  9.85E-10,  avg # of iterations =  1.8

     total cpu time spent up to now is    14050.9 secs

     total energy              =   -1971.09316961 Ry
     estimated scf accuracy    <       0.00000007 Ry

     iteration # 11     ecut=    60.00 Ry     beta= 0.30
     Davidson diagonalization with overlap
     ethr =  6.05E-11,  avg # of iterations =  2.8

     total cpu time spent up to now is    14086.6 secs

     total energy              =   -1971.09316962 Ry
     estimated scf accuracy    <       0.00000014 Ry

     iteration # 12     ecut=    60.00 Ry     beta= 0.30
     Davidson diagonalization with overlap
     ethr =  6.05E-11,  avg # of iterations =  1.5

     total cpu time spent up to now is    14114.5 secs

     total energy              =   -1971.09316963 Ry
     estimated scf accuracy    <          6.7E-09 Ry

     iteration # 13     ecut=    60.00 Ry     beta= 0.30
     Davidson diagonalization with overlap
     ethr =  5.57E-12,  avg # of iterations =  2.5

     total cpu time spent up to now is    14147.0 secs

     total energy              =   -1971.09316963 Ry
     estimated scf accuracy    <          2.1E-09 Ry

     iteration # 14     ecut=    60.00 Ry     beta= 0.30
     Davidson diagonalization with overlap
     ethr =  1.78E-12,  avg # of iterations =  1.2

     total cpu time spent up to now is    14171.1 secs

     End of self-consistent calculation

     Number of k-points >= 100: set verbosity='high' to print the bands.

     the Fermi energy is     6.5813 ev

!    total energy              =   -1971.09316964 Ry
     estimated scf accuracy    <          1.1E-10 Ry
     smearing contrib. (-TS)   =       0.00100559 Ry
     internal energy E=F+TS    =   -1971.09417523 Ry

     The total energy is F=E-TS. E is the sum of the following terms:
     one-electron contribution =   -1759.37278890 Ry
     hartree contribution      =     914.05159303 Ry
     xc contribution           =    -201.18322076 Ry
     ewald contribution        =    -705.18272009 Ry
     DFT-D3 Dispersion         =      -0.36422012 Ry
     one-center paw contrib.   =    -219.04281839 Ry

     convergence has been achieved in  14 iterations

     Forces acting on atoms (cartesian axes, Ry/au):

     atom    1 type  1   force =    -0.00384800    0.00384335    0.01152842
     atom    2 type  2   force =     0.00052968   -0.00010742    0.00013991
     atom    3 type  2   force =     0.00096919    0.00097609   -0.00210282
     atom    4 type  2   force =     0.00127142   -0.00249241   -0.00055767
     atom    5 type  2   force =    -0.00075947    0.00104597   -0.00035320
     atom    6 type  2   force =    -0.00037689   -0.00163799   -0.00047003
     atom    7 type  2   force =     0.00029031    0.00073436   -0.00036480
     atom    8 type  2   force =     0.00082630    0.00496683   -0.00199843
     atom    9 type  1   force =    -0.00395163   -0.00412270    0.00620353
     atom   10 type  1   force =    -0.00463415    0.00418984   -0.00310688
     atom   11 type  1   force =     0.00334694   -0.00126983    0.00003356
     atom   12 type  1   force =     0.00138616   -0.00413756   -0.00346647
     atom   13 type  3   force =    -0.00017194   -0.00118692   -0.00130263
     atom   14 type  3   force =     0.00695179    0.00034232    0.00015318
     atom   15 type  3   force =    -0.00048157    0.00216530    0.00143226
     atom   16 type  3   force =     0.00138056    0.00078607   -0.00036748
     atom   17 type  3   force =    -0.00170195   -0.00105883   -0.00078704
     atom   18 type  3   force =     0.00175891    0.00320760    0.00032984
     atom   19 type  3   force =     0.00164988    0.00393869   -0.00018893
     atom   20 type  3   force =    -0.00090293   -0.00066057    0.00402839
     atom   21 type  3   force =     0.00066044   -0.00068711   -0.00524434
     atom   22 type  3   force =    -0.00172925   -0.00391068    0.00259453
     atom   23 type  3   force =    -0.00312123   -0.00159193   -0.00132843
     atom   24 type  3   force =    -0.00080498   -0.00163603   -0.00360994
     atom   25 type  3   force =    -0.00114854   -0.00050948    0.00151344
     atom   26 type  3   force =     0.00047185   -0.00128881    0.00181120
     atom   27 type  3   force =    -0.00184567    0.00102725    0.00094431
     atom   28 type  3   force =     0.00398477   -0.00092540   -0.00546348

     Total force =     0.025214     Total SCF correction =     0.000036


     Computing stress (Cartesian axis) and pressure

          total   stress  (Ry/bohr**3)                   (kbar)     P=       -2.96
  -0.00001927  -0.00000394  -0.00001215           -2.84       -0.58       -1.79
  -0.00000394  -0.00002628   0.00001763           -0.58       -3.87        2.59
  -0.00001215   0.00001763  -0.00001486           -1.79        2.59       -2.19

     Energy error            =      1.2E-03 Ry
     Gradient error          =      1.2E-02 Ry/Bohr
     Cell gradient error     =      3.9E+00 kbar

     number of scf cycles    =  29
     number of bfgs steps    =  28

     enthalpy           old  =   -1971.0919713720 Ry
     enthalpy           new  =   -1971.0931696357 Ry

     CASE: enthalpy          _new < enthalpy          _old

     new trust radius        =       0.0462393755 bohr
     new conv_thr            =       0.0000000010 Ry

     new unit-cell volume =   1677.52015 a.u.^3 (   248.58284 Ang^3 )
     density =      3.20460 g/cm^3

CELL_PARAMETERS (angstrom)
   7.538642487  -0.025781555  -0.007961367
  -5.059101124   5.798958138   0.152324473
  -2.258656869   1.195798538   5.735882063

ATOMIC_POSITIONS (angstrom)
Ni              -4.2851648133        5.3115304086        5.5673229937
Mg              -2.9522037518        4.9578181039        2.6850268386
Mg               3.3352382940        2.0360052528        3.2216903025
Mg               4.3725958550        1.5003309517        0.2883394689
Mg               0.8660049625        6.5574394824        4.5029334288
Mg              -0.5884430061        0.3231630476        1.4172613735
Mg              -0.5938493487        3.8335641925        4.3582603077
Mg               0.6088504981        3.1862124622        1.4589828664
Ni              -1.6942038881        6.1570433456        5.2755058528
Ni              -1.7947293496        2.5307158914        2.3813901369
Ni               2.0807132731        4.3592581997        3.5150821261
Ni               1.8706970413        0.8295740207        0.5442737421
H               -0.4607214497        5.3936200522        5.7693596704
H               -0.3773797372        2.1105508056        2.8247727725
H                0.6750744552        4.8284185241        3.0429989642
H                0.5629344724        1.5424666532        0.1720483407
H                5.0766709283        1.1191070409        2.2409545572
H                3.7880993360        1.8415175347        5.3151695213
H               -3.3475142579        5.0289772184        0.5198846016
H               -4.8111068109        5.7663790344        4.0121652256
H               -2.7532606477        6.2569564260        4.1878959540
H               -2.5189453649        3.3014779023        1.1659374356
H                3.2079941428        3.9308553380        4.6142414127
H                2.8618990093        0.9431056312        1.7174249716
H                0.4958883011        2.3431069881        5.0070306560
H                2.4898058800        3.5360867570        2.2736955622
H               -2.3956775053        3.2801197537        3.5954915843
H               -0.6268835951        4.7602506900        0.6482917035



     Writing config-only to output data dir ./outdir/mg2nih4_ni.save/ :
     XML data file
     NEW-OLD atomic charge density approx. for the potential
     New effective cutoffs (rho, wfc):  536.91   67.14

     Check: negative core charge=   -0.000001

     total cpu time spent up to now is    14188.7 secs

     Self-consistent Calculation

     iteration #  1     ecut=    60.00 Ry     beta= 0.30
     Davidson diagonalization with overlap
     ethr =  1.00E-06,  avg # of iterations =  4.2

     total cpu time spent up to now is    14246.3 secs

     total energy              =   -1971.09373579 Ry
     estimated scf accuracy    <       0.00241622 Ry

     iteration #  2     ecut=    60.00 Ry     beta= 0.30
     Davidson diagonalization with overlap
     ethr =  2.01E-06,  avg # of iterations =  2.4

     total cpu time spent up to now is    14281.8 secs

     total energy              =   -1971.09363688 Ry
     estimated scf accuracy    <       0.00503962 Ry

     iteration #  3     ecut=    60.00 Ry     beta= 0.30
     Davidson diagonalization with overlap
     ethr =  2.01E-06,  avg # of iterations =  2.0

     total cpu time spent up to now is    14310.4 secs

     total energy              =   -1971.09406983 Ry
     estimated scf accuracy    <       0.00096927 Ry

     iteration #  4     ecut=    60.00 Ry     beta= 0.30
     Davidson diagonalization with overlap
     ethr =  8.08E-07,  avg # of iterations =  2.0

     total cpu time spent up to now is    14338.2 secs

     total energy              =   -1971.09409966 Ry
     estimated scf accuracy    <       0.00097415 Ry

     iteration #  5     ecut=    60.00 Ry     beta= 0.30
     Davidson diagonalization with overlap
     ethr =  8.08E-07,  avg # of iterations =  1.0

     total cpu time spent up to now is    14361.2 secs

     total energy              =   -1971.09415552 Ry
     estimated scf accuracy    <       0.00019085 Ry

     iteration #  6     ecut=    60.00 Ry     beta= 0.30
     Davidson diagonalization with overlap
     ethr =  1.59E-07,  avg # of iterations =  2.0

     total cpu time spent up to now is    14388.6 secs

     total energy              =   -1971.09417175 Ry
     estimated scf accuracy    <       0.00003679 Ry

     iteration #  7     ecut=    60.00 Ry     beta= 0.30
     Davidson diagonalization with overlap
     ethr =  3.07E-08,  avg # of iterations =  2.0

     total cpu time spent up to now is    14416.6 secs

     total energy              =   -1971.09417361 Ry
     estimated scf accuracy    <       0.00001078 Ry

     iteration #  8     ecut=    60.00 Ry     beta= 0.30
     Davidson diagonalization with overlap
     ethr =  8.99E-09,  avg # of iterations =  2.7

     total cpu time spent up to now is    14455.5 secs

     total energy              =   -1971.09417453 Ry
     estimated scf accuracy    <       0.00000300 Ry

     iteration #  9     ecut=    60.00 Ry     beta= 0.30
     Davidson diagonalization with overlap
     ethr =  2.50E-09,  avg # of iterations =  5.2

     total cpu time spent up to now is    14503.2 secs

     total energy              =   -1971.09417516 Ry
     estimated scf accuracy    <       0.00000050 Ry

     iteration # 10     ecut=    60.00 Ry     beta= 0.30
     Davidson diagonalization with overlap
     ethr =  4.18E-10,  avg # of iterations =  4.5

     total cpu time spent up to now is    14549.6 secs

     total energy              =   -1971.09417532 Ry
     estimated scf accuracy    <       0.00000020 Ry

     iteration # 11     ecut=    60.00 Ry     beta= 0.30
     Davidson diagonalization with overlap
     ethr =  1.69E-10,  avg # of iterations =  1.3

     total cpu time spent up to now is    14574.8 secs

     total energy              =   -1971.09417534 Ry
     estimated scf accuracy    <       0.00000003 Ry

     iteration # 12     ecut=    60.00 Ry     beta= 0.30
     Davidson diagonalization with overlap
     ethr =  2.13E-11,  avg # of iterations =  2.1

     total cpu time spent up to now is    14604.5 secs

     total energy              =   -1971.09417535 Ry
     estimated scf accuracy    <          3.8E-09 Ry

     iteration # 13     ecut=    60.00 Ry     beta= 0.30
     Davidson diagonalization with overlap
     ethr =  3.18E-12,  avg # of iterations =  1.3

     total cpu time spent up to now is    14630.7 secs

     End of self-consistent calculation

     Number of k-points >= 100: set verbosity='high' to print the bands.

     the Fermi energy is     6.6078 ev

!    total energy              =   -1971.09417535 Ry
     estimated scf accuracy    <          3.7E-10 Ry
     smearing contrib. (-TS)   =       0.00104935 Ry
     internal energy E=F+TS    =   -1971.09522470 Ry

     The total energy is F=E-TS. E is the sum of the following terms:
     one-electron contribution =   -1758.08857159 Ry
     hartree contribution      =     913.51675059 Ry
     xc contribution           =    -201.21161027 Ry
     ewald contribution        =    -705.90046214 Ry
     DFT-D3 Dispersion         =      -0.36521426 Ry
     one-center paw contrib.   =    -219.04611704 Ry

     convergence has been achieved in  13 iterations

     Forces acting on atoms (cartesian axes, Ry/au):

     atom    1 type  1   force =    -0.00231611   -0.00033316    0.01089778
     atom    2 type  2   force =    -0.00005267    0.00020480   -0.00078362
     atom    3 type  2   force =     0.00094288    0.00137438   -0.00249314
     atom    4 type  2   force =     0.00057169   -0.00191222   -0.00072818
     atom    5 type  2   force =    -0.00008177    0.00026544   -0.00055731
     atom    6 type  2   force =    -0.00014300   -0.00130320    0.00054373
     atom    7 type  2   force =     0.00053119    0.00031842    0.00005092
     atom    8 type  2   force =     0.00022780    0.00432795   -0.00172900
     atom    9 type  1   force =    -0.00499064   -0.00255172    0.00742584
     atom   10 type  1   force =    -0.00049258    0.00397991   -0.00467592
     atom   11 type  1   force =     0.00135619   -0.00148805    0.00329096
     atom   12 type  1   force =    -0.00027655   -0.00417694   -0.00239458
     atom   13 type  3   force =     0.00309920   -0.00292698   -0.00024392
     atom   14 type  3   force =     0.00355783    0.00099513   -0.00047227
     atom   15 type  3   force =     0.00039888    0.00247323    0.00090908
     atom   16 type  3   force =     0.00103330    0.00116515   -0.00051561
     atom   17 type  3   force =    -0.00150834   -0.00137947   -0.00066149
     atom   18 type  3   force =     0.00112471    0.00312898   -0.00024602
     atom   19 type  3   force =     0.00013055    0.00336827    0.00032041
     atom   20 type  3   force =    -0.00171301    0.00164321    0.00225275
     atom   21 type  3   force =    -0.00107786    0.00013378   -0.00744804
     atom   22 type  3   force =    -0.00153083   -0.00391766    0.00309690
     atom   23 type  3   force =    -0.00295569   -0.00090109   -0.00123193
     atom   24 type  3   force =     0.00018693   -0.00110027   -0.00241677
     atom   25 type  3   force =    -0.00002325    0.00016520    0.00024621
     atom   26 type  3   force =     0.00081470   -0.00149533    0.00034293
     atom   27 type  3   force =    -0.00110766    0.00025248    0.00180961
     atom   28 type  3   force =     0.00429411   -0.00031024   -0.00458930

     Total force =     0.023554     Total SCF correction =     0.000068


     Computing stress (Cartesian axis) and pressure

          total   stress  (Ry/bohr**3)                   (kbar)     P=        0.38
   0.00000009  -0.00000837  -0.00000808            0.01       -1.23       -1.19
  -0.00000837  -0.00000086   0.00000643           -1.23       -0.13        0.95
  -0.00000808   0.00000643   0.00000855           -1.19        0.95        1.26

     Energy error            =      1.0E-03 Ry
     Gradient error          =      1.1E-02 Ry/Bohr
     Cell gradient error     =      1.3E+00 kbar

     number of scf cycles    =  30
     number of bfgs steps    =  29

     enthalpy           old  =   -1971.0931696357 Ry
     enthalpy           new  =   -1971.0941753492 Ry

     CASE: enthalpy          _new < enthalpy          _old

     new trust radius        =       0.0372641839 bohr
     new conv_thr            =       0.0000000010 Ry

     new unit-cell volume =   1673.92248 a.u.^3 (   248.04972 Ang^3 )
     density =      3.21149 g/cm^3

CELL_PARAMETERS (angstrom)
   7.535030792  -0.027770798  -0.016007220
  -5.057951712   5.790193752   0.163250689
  -2.263892586   1.200731827   5.740074346

ATOMIC_POSITIONS (angstrom)
Ni              -4.3022029478        5.3176526107        5.5908261948
Mg              -2.9526318070        4.9539772848        2.6946813850
Mg               3.3308178125        2.0336415781        3.2166453542
Mg               4.3728025340        1.4888902441        0.2836416044
Mg               0.8568512385        6.5537154637        4.5071507218
Mg              -0.5889133111        0.3241764819        1.4151888483
Mg              -0.5995514595        3.8343229102        4.3600870778
Mg               0.6087815853        3.1878569568        1.4591351215
Ni              -1.7024654075        6.1503346643        5.2863089521
Ni              -1.8013262227        2.5323297797        2.3860383938
Ni               2.0822378517        4.3548704755        3.5151510794
Ni               1.8705324896        0.8269475706        0.5391795591
H               -0.4689524385        5.3895957035        5.7716569693
H               -0.3725795346        2.1143013484        2.8244923421
H                0.6706741305        4.8247463347        3.0535352920
H                0.5634186100        1.5415050428        0.1722601322
H                5.0700399897        1.1159083281        2.2359429352
H                3.7857974055        1.8451744555        5.3153741935
H               -3.3458821398        5.0261448541        0.5274088089
H               -4.8123400999        5.7589314216        4.0411294214
H               -2.7515931967        6.2491016644        4.1903213886
H               -2.5311597649        3.2935678112        1.1757179060
H                3.1996658263        3.9302252762        4.6178098271
H                2.8605676133        0.9377784458        1.7097099958
H                0.4864315778        2.3421201695        5.0100331999
H                2.4847014767        3.5279468080        2.2765700724
H               -2.4051731993        3.2801540181        3.6012608001
H               -0.6239376933        4.7482492274        0.6451918370



     Writing config-only to output data dir ./outdir/mg2nih4_ni.save/ :
     XML data file
     NEW-OLD atomic charge density approx. for the potential
     New effective cutoffs (rho, wfc):  538.16   67.30

     Check: negative core charge=   -0.000001

     total cpu time spent up to now is    14647.8 secs

     Self-consistent Calculation

     iteration #  1     ecut=    60.00 Ry     beta= 0.30
     Davidson diagonalization with overlap
     ethr =  1.00E-06,  avg # of iterations =  4.1

     total cpu time spent up to now is    14703.5 secs

     total energy              =   -1971.09454324 Ry
     estimated scf accuracy    <       0.00223086 Ry

     iteration #  2     ecut=    60.00 Ry     beta= 0.30
     Davidson diagonalization with overlap
     ethr =  1.86E-06,  avg # of iterations =  2.7

     total cpu time spent up to now is    14741.9 secs

     total energy              =   -1971.09422795 Ry
     estimated scf accuracy    <       0.00943197 Ry

     iteration #  3     ecut=    60.00 Ry     beta= 0.30
     Davidson diagonalization with overlap
     ethr =  1.86E-06,  avg # of iterations =  2.2

     total cpu time spent up to now is    14773.3 secs

     total energy              =   -1971.09492219 Ry
     estimated scf accuracy    <       0.00087849 Ry

     iteration #  4     ecut=    60.00 Ry     beta= 0.30
     Davidson diagonalization with overlap
     ethr =  7.32E-07,  avg # of iterations =  2.0

     total cpu time spent up to now is    14801.0 secs

     total energy              =   -1971.09494391 Ry
     estimated scf accuracy    <       0.00095889 Ry

     iteration #  5     ecut=    60.00 Ry     beta= 0.30
     Davidson diagonalization with overlap
     ethr =  7.32E-07,  avg # of iterations =  1.0

     total cpu time spent up to now is    14823.9 secs

     total energy              =   -1971.09500589 Ry
     estimated scf accuracy    <       0.00005782 Ry

     iteration #  6     ecut=    60.00 Ry     beta= 0.30
     Davidson diagonalization with overlap
     ethr =  4.82E-08,  avg # of iterations =  2.0

     total cpu time spent up to now is    14852.8 secs

     total energy              =   -1971.09501178 Ry
     estimated scf accuracy    <       0.00003545 Ry

     iteration #  7     ecut=    60.00 Ry     beta= 0.30
     Davidson diagonalization with overlap
     ethr =  2.95E-08,  avg # of iterations =  1.8

     total cpu time spent up to now is    14882.6 secs

     total energy              =   -1971.09501357 Ry
     estimated scf accuracy    <       0.00000965 Ry

     iteration #  8     ecut=    60.00 Ry     beta= 0.30
     Davidson diagonalization with overlap
     ethr =  8.04E-09,  avg # of iterations =  2.4

     total cpu time spent up to now is    14915.2 secs

     total energy              =   -1971.09501463 Ry
     estimated scf accuracy    <       0.00000255 Ry

     iteration #  9     ecut=    60.00 Ry     beta= 0.30
     Davidson diagonalization with overlap
     ethr =  2.12E-09,  avg # of iterations =  5.2

     total cpu time spent up to now is    14961.0 secs

     total energy              =   -1971.09501509 Ry
     estimated scf accuracy    <       0.00000025 Ry

     iteration # 10     ecut=    60.00 Ry     beta= 0.30
     Davidson diagonalization with overlap
     ethr =  2.05E-10,  avg # of iterations =  4.1

     total cpu time spent up to now is    15008.2 secs

     total energy              =   -1971.09501521 Ry
     estimated scf accuracy    <       0.00000015 Ry

     iteration # 11     ecut=    60.00 Ry     beta= 0.30
     Davidson diagonalization with overlap
     ethr =  1.24E-10,  avg # of iterations =  1.3

     total cpu time spent up to now is    15033.5 secs

     total energy              =   -1971.09501522 Ry
     estimated scf accuracy    <       0.00000002 Ry

     iteration # 12     ecut=    60.00 Ry     beta= 0.30
     Davidson diagonalization with overlap
     ethr =  1.80E-11,  avg # of iterations =  2.0

     total cpu time spent up to now is    15061.3 secs

     total energy              =   -1971.09501523 Ry
     estimated scf accuracy    <          2.0E-09 Ry

     iteration # 13     ecut=    60.00 Ry     beta= 0.30
     Davidson diagonalization with overlap
     ethr =  1.67E-12,  avg # of iterations =  2.0

     total cpu time spent up to now is    15089.2 secs

     End of self-consistent calculation

     Number of k-points >= 100: set verbosity='high' to print the bands.

     the Fermi energy is     6.6244 ev

!    total energy              =   -1971.09501523 Ry
     estimated scf accuracy    <          3.6E-10 Ry
     smearing contrib. (-TS)   =       0.00110503 Ry
     internal energy E=F+TS    =   -1971.09612026 Ry

     The total energy is F=E-TS. E is the sum of the following terms:
     one-electron contribution =   -1757.77960504 Ry
     hartree contribution      =     913.44239294 Ry
     xc contribution           =    -201.23335485 Ry
     ewald contribution        =    -706.11107587 Ry
     DFT-D3 Dispersion         =      -0.36592625 Ry
     one-center paw contrib.   =    -219.04855119 Ry

     convergence has been achieved in  13 iterations

     Forces acting on atoms (cartesian axes, Ry/au):

     atom    1 type  1   force =    -0.00119904   -0.00390833    0.00848521
     atom    2 type  2   force =    -0.00053080    0.00047177   -0.00145639
     atom    3 type  2   force =     0.00073874    0.00078019   -0.00228041
     atom    4 type  2   force =    -0.00007391   -0.00150247   -0.00100797
     atom    5 type  2   force =     0.00039390   -0.00030664   -0.00069098
     atom    6 type  2   force =     0.00023561   -0.00060638    0.00124975
     atom    7 type  2   force =     0.00067846   -0.00008630    0.00043948
     atom    8 type  2   force =    -0.00045271    0.00287312   -0.00114537
     atom    9 type  1   force =    -0.00362497    0.00018411    0.00446977
     atom   10 type  1   force =     0.00358592    0.00221823   -0.00344001
     atom   11 type  1   force =    -0.00095655   -0.00110377    0.00472596
     atom   12 type  1   force =    -0.00150894   -0.00210950   -0.00084648
     atom   13 type  3   force =     0.00465645   -0.00364489    0.00015218
     atom   14 type  3   force =     0.00037091    0.00164205   -0.00113811
     atom   15 type  3   force =     0.00109992    0.00255160    0.00055862
     atom   16 type  3   force =     0.00065941    0.00150042   -0.00051197
     atom   17 type  3   force =    -0.00098730   -0.00093804   -0.00034732
     atom   18 type  3   force =     0.00036406    0.00195507   -0.00087988
     atom   19 type  3   force =    -0.00133200    0.00109937    0.00057546
     atom   20 type  3   force =    -0.00215031    0.00296121    0.00127072
     atom   21 type  3   force =    -0.00102687    0.00071261   -0.00755525
     atom   22 type  3   force =    -0.00239664   -0.00306714    0.00244335
     atom   23 type  3   force =    -0.00202850   -0.00017770   -0.00005984
     atom   24 type  3   force =     0.00114965   -0.00038131   -0.00109696
     atom   25 type  3   force =     0.00090250    0.00060060   -0.00112922
     atom   26 type  3   force =     0.00077500   -0.00109941   -0.00032164
     atom   27 type  3   force =    -0.00019893   -0.00068091    0.00185486
     atom   28 type  3   force =     0.00285695    0.00006244   -0.00231752

     Total force =     0.019808     Total SCF correction =     0.000084


     Computing stress (Cartesian axis) and pressure

          total   stress  (Ry/bohr**3)                   (kbar)     P=        2.89
   0.00001516  -0.00001055  -0.00000499            2.23       -1.55       -0.73
  -0.00001055   0.00001782  -0.00000554           -1.55        2.62       -0.81
  -0.00000499  -0.00000554   0.00002592           -0.73       -0.81        3.81

     Energy error            =      8.4E-04 Ry
     Gradient error          =      8.5E-03 Ry/Bohr
     Cell gradient error     =      3.8E+00 kbar

     number of scf cycles    =  31
     number of bfgs steps    =  30

     enthalpy           old  =   -1971.0941753492 Ry
     enthalpy           new  =   -1971.0950152265 Ry

     CASE: enthalpy          _new < enthalpy          _old

     new trust radius        =       0.0484898149 bohr
     new conv_thr            =       0.0000000008 Ry

     new unit-cell volume =   1673.28327 a.u.^3 (   247.95500 Ang^3 )
     density =      3.21272 g/cm^3

CELL_PARAMETERS (angstrom)
   7.535975706  -0.032667113  -0.025193686
  -5.061919576   5.787601706   0.174299943
  -2.271668728   1.206590307   5.746952015

ATOMIC_POSITIONS (angstrom)
Ni              -4.3236238226        5.3219892246        5.6189303072
Mg              -2.9573008782        4.9554507392        2.7049040162
Mg               3.3292507928        2.0312003361        3.2100512269
Mg               4.3745354751        1.4775598909        0.2763016574
Mg               0.8457737667        6.5530951374        4.5124303416
Mg              -0.5911736607        0.3245325972        1.4148436358
Mg              -0.6092152408        3.8386499689        4.3633628877
Mg               0.6071854624        3.1904562373        1.4589979888
Ni              -1.7170583509        6.1480034606        5.3018874928
Ni              -1.8080271519        2.5382814751        2.3865283870
Ni               2.0827587401        4.3508828003        3.5204304670
Ni               1.8687915885        0.8239603231        0.5349454939
H               -0.4761550327        5.3876885723        5.7768887126
H               -0.3730841897        2.1199330067        2.8258899756
H                0.6681158065        4.8248674031        3.0637315475
H                0.5624021115        1.5407097492        0.1708399171
H                5.0680617112        1.1106436783        2.2293941093
H                3.7826013036        1.8485480775        5.3166246410
H               -3.3491568421        5.0303455503        0.5364179736
H               -4.8211576574        5.7588752290        4.0796129978
H               -2.7553029926        6.2499734048        4.1896663009
H               -2.5511755527        3.2896062437        1.1881177124
H                3.1971065158        3.9301197488        4.6185795640
H                2.8640814418        0.9311073438        1.7003336949
H                0.4752392283        2.3472227257        5.0150942870
H                2.4777831877        3.5196116828        2.2798608636
H               -2.4172897819        3.2792805734        3.6085315887
H               -0.6205423337        4.7387534079        0.6416180116



     Writing config-only to output data dir ./outdir/mg2nih4_ni.save/ :
     XML data file
     NEW-OLD atomic charge density approx. for the potential
     New effective cutoffs (rho, wfc):  538.83   67.39

     Check: negative core charge=   -0.000001

     total cpu time spent up to now is    15106.4 secs

     Self-consistent Calculation

     iteration #  1     ecut=    60.00 Ry     beta= 0.30
     Davidson diagonalization with overlap
     ethr =  1.00E-06,  avg # of iterations =  4.1

     total cpu time spent up to now is    15162.8 secs

     total energy              =   -1971.09483037 Ry
     estimated scf accuracy    <       0.00350639 Ry

     iteration #  2     ecut=    60.00 Ry     beta= 0.30
     Davidson diagonalization with overlap
     ethr =  2.92E-06,  avg # of iterations =  3.2

     total cpu time spent up to now is    15200.9 secs

     total energy              =   -1971.09407976 Ry
     estimated scf accuracy    <       0.02329250 Ry

     iteration #  3     ecut=    60.00 Ry     beta= 0.30
     Davidson diagonalization with overlap
     ethr =  2.92E-06,  avg # of iterations =  3.0

     total cpu time spent up to now is    15233.8 secs

     total energy              =   -1971.09565721 Ry
     estimated scf accuracy    <       0.00080774 Ry

     iteration #  4     ecut=    60.00 Ry     beta= 0.30
     Davidson diagonalization with overlap
     ethr =  6.73E-07,  avg # of iterations =  2.0

     total cpu time spent up to now is    15262.5 secs

     total energy              =   -1971.09566997 Ry
     estimated scf accuracy    <       0.00112908 Ry

     iteration #  5     ecut=    60.00 Ry     beta= 0.30
     Davidson diagonalization with overlap
     ethr =  6.73E-07,  avg # of iterations =  1.0

     total cpu time spent up to now is    15285.4 secs

     total energy              =   -1971.09574390 Ry
     estimated scf accuracy    <       0.00003978 Ry

     iteration #  6     ecut=    60.00 Ry     beta= 0.30
     Davidson diagonalization with overlap
     ethr =  3.31E-08,  avg # of iterations =  2.4

     total cpu time spent up to now is    15318.3 secs

     total energy              =   -1971.09574765 Ry
     estimated scf accuracy    <       0.00005514 Ry

     iteration #  7     ecut=    60.00 Ry     beta= 0.30
     Davidson diagonalization with overlap
     ethr =  3.31E-08,  avg # of iterations =  2.0

     total cpu time spent up to now is    15345.5 secs

     total energy              =   -1971.09575111 Ry
     estimated scf accuracy    <       0.00000914 Ry

     iteration #  8     ecut=    60.00 Ry     beta= 0.30
     Davidson diagonalization with overlap
     ethr =  7.62E-09,  avg # of iterations =  2.0

     total cpu time spent up to now is    15373.8 secs

     total energy              =   -1971.09575168 Ry
     estimated scf accuracy    <       0.00000641 Ry

     iteration #  9     ecut=    60.00 Ry     beta= 0.30
     Davidson diagonalization with overlap
     ethr =  5.34E-09,  avg # of iterations =  2.0

     total cpu time spent up to now is    15409.0 secs

     total energy              =   -1971.09575222 Ry
     estimated scf accuracy    <       0.00000054 Ry

     iteration # 10     ecut=    60.00 Ry     beta= 0.30
     Davidson diagonalization with overlap
     ethr =  4.51E-10,  avg # of iterations =  4.0

     total cpu time spent up to now is    15455.5 secs

     total energy              =   -1971.09575258 Ry
     estimated scf accuracy    <       0.00000018 Ry

     iteration # 11     ecut=    60.00 Ry     beta= 0.30
     Davidson diagonalization with overlap
     ethr =  1.46E-10,  avg # of iterations =  1.1

     total cpu time spent up to now is    15479.3 secs

     total energy              =   -1971.09575259 Ry
     estimated scf accuracy    <       0.00000011 Ry

     iteration # 12     ecut=    60.00 Ry     beta= 0.30
     Davidson diagonalization with overlap
     ethr =  9.29E-11,  avg # of iterations =  1.6

     total cpu time spent up to now is    15506.9 secs

     total energy              =   -1971.09575260 Ry
     estimated scf accuracy    <          4.8E-09 Ry

     iteration # 13     ecut=    60.00 Ry     beta= 0.30
     Davidson diagonalization with overlap
     ethr =  4.00E-12,  avg # of iterations =  2.0

     total cpu time spent up to now is    15535.9 secs

     total energy              =   -1971.09575260 Ry
     estimated scf accuracy    <          1.8E-09 Ry

     iteration # 14     ecut=    60.00 Ry     beta= 0.30
     Davidson diagonalization with overlap
     ethr =  1.50E-12,  avg # of iterations =  2.0

     total cpu time spent up to now is    15563.8 secs

     End of self-consistent calculation

     Number of k-points >= 100: set verbosity='high' to print the bands.

     the Fermi energy is     6.6251 ev

!    total energy              =   -1971.09575260 Ry
     estimated scf accuracy    <          1.5E-10 Ry
     smearing contrib. (-TS)   =       0.00117310 Ry
     internal energy E=F+TS    =   -1971.09692570 Ry

     The total energy is F=E-TS. E is the sum of the following terms:
     one-electron contribution =   -1758.49466359 Ry
     hartree contribution      =     913.81871107 Ry
     xc contribution           =    -201.24003588 Ry
     ewald contribution        =    -705.76556356 Ry
     DFT-D3 Dispersion         =      -0.36603841 Ry
     one-center paw contrib.   =    -219.04933532 Ry

     convergence has been achieved in  14 iterations

     Forces acting on atoms (cartesian axes, Ry/au):

     atom    1 type  1   force =    -0.00028309   -0.00617301    0.00623947
     atom    2 type  2   force =    -0.00092981    0.00034099   -0.00197834
     atom    3 type  2   force =     0.00054804   -0.00008445   -0.00166549
     atom    4 type  2   force =    -0.00047231   -0.00128754   -0.00118474
     atom    5 type  2   force =     0.00065578   -0.00051485   -0.00077930
     atom    6 type  2   force =     0.00060782    0.00016720    0.00167900
     atom    7 type  2   force =     0.00088385   -0.00062371    0.00076143
     atom    8 type  2   force =    -0.00112382    0.00130876   -0.00044149
     atom    9 type  1   force =    -0.00028814    0.00258833   -0.00096102
     atom   10 type  1   force =     0.00573664   -0.00017170   -0.00038096
     atom   11 type  1   force =    -0.00256450   -0.00025601    0.00422901
     atom   12 type  1   force =    -0.00177215    0.00081155    0.00039289
     atom   13 type  3   force =     0.00381187   -0.00301358   -0.00036839
     atom   14 type  3   force =    -0.00161217    0.00210646   -0.00163929
     atom   15 type  3   force =     0.00158673    0.00248656    0.00046401
     atom   16 type  3   force =     0.00062508    0.00164452   -0.00031164
     atom   17 type  3   force =    -0.00028091    0.00025610    0.00008437
     atom   18 type  3   force =    -0.00034702    0.00033176   -0.00149980
     atom   19 type  3   force =    -0.00236564   -0.00175036    0.00067305
     atom   20 type  3   force =    -0.00268466    0.00313088   -0.00002145
     atom   21 type  3   force =     0.00063900    0.00101781   -0.00584186
     atom   22 type  3   force =    -0.00359357   -0.00224215    0.00149418
     atom   23 type  3   force =    -0.00126358    0.00034896    0.00146993
     atom   24 type  3   force =     0.00155547    0.00027045   -0.00038730
     atom   25 type  3   force =     0.00124766    0.00074934   -0.00187675
     atom   26 type  3   force =     0.00041118   -0.00003036    0.00026601
     atom   27 type  3   force =     0.00093564   -0.00161618    0.00101689
     atom   28 type  3   force =     0.00033659    0.00020423    0.00056757

     Total force =     0.017736     Total SCF correction =     0.000030


     Computing stress (Cartesian axis) and pressure

          total   stress  (Ry/bohr**3)                   (kbar)     P=        3.50
   0.00001818  -0.00000919  -0.00000448            2.67       -1.35       -0.66
  -0.00000919   0.00002303  -0.00001553           -1.35        3.39       -2.29
  -0.00000448  -0.00001553   0.00003026           -0.66       -2.29        4.45

     Energy error            =      7.4E-04 Ry
     Gradient error          =      6.2E-03 Ry/Bohr
     Cell gradient error     =      4.5E+00 kbar

     number of scf cycles    =  32
     number of bfgs steps    =  31

     enthalpy           old  =   -1971.0950152265 Ry
     enthalpy           new  =   -1971.0957525994 Ry

     CASE: enthalpy          _new < enthalpy          _old

     new trust radius        =       0.0395259871 bohr
     new conv_thr            =       0.0000000006 Ry

     new unit-cell volume =   1676.77997 a.u.^3 (   248.47316 Ang^3 )
     density =      3.20602 g/cm^3

CELL_PARAMETERS (angstrom)
   7.540847681  -0.038910026  -0.032178686
  -5.069519074   5.790937421   0.177406592
  -2.279105655   1.206985928   5.757817255

ATOMIC_POSITIONS (angstrom)
Ni              -4.3453067459        5.3229120207        5.6485551650
Mg              -2.9650097100        4.9568817653        2.7070420735
Mg               3.3275048442        2.0278862659        3.2075204657
Mg               4.3775889132        1.4634503723        0.2716094320
Mg               0.8361121722        6.5520957374        4.5134493138
Mg              -0.5904225871        0.3257904698        1.4173057604
Mg              -0.6148588704        3.8364849686        4.3679116470
Mg               0.6056773114        3.1975559035        1.4571084677
Ni              -1.7307196468        6.1483295382        5.3154732567
Ni              -1.8132452686        2.5428670710        2.3876705706
Ni               2.0823836605        4.3483595137        3.5252931627
Ni               1.8680309652        0.8203547847        0.5305568635
H               -0.4814861940        5.3804052875        5.7794093098
H               -0.3746600797        2.1275406993        2.8232170364
H                0.6646612033        4.8251921016        3.0750647333
H                0.5646895091        1.5444835750        0.1703583481
H                5.0666300532        1.1038995755        2.2295126581
H                3.7860318005        1.8463276281        5.3212695316
H               -3.3606944664        5.0370108861        0.5394031016
H               -4.8315685658        5.7632644288        4.1016426129
H               -2.7581644855        6.2475249307        4.1840817588
H               -2.5663940782        3.2854928241        1.1970311989
H                3.1845723692        3.9301646254        4.6264226263
H                2.8657963697        0.9233357792        1.6951199091
H                0.4676061401        2.3405712707        5.0204521470
H                2.4753073905        3.5135465503        2.2809567103
H               -2.4286922413        3.2793394488        3.6158078749
H               -0.6202484336        4.7351185013        0.6333865222



     Writing config-only to output data dir ./outdir/mg2nih4_ni.save/ :
     XML data file
     NEW-OLD atomic charge density approx. for the potential
     New effective cutoffs (rho, wfc):  537.47   67.22

     Check: negative core charge=   -0.000001

     total cpu time spent up to now is    15581.0 secs

     Self-consistent Calculation

     iteration #  1     ecut=    60.00 Ry     beta= 0.30
     Davidson diagonalization with overlap
     ethr =  1.00E-06,  avg # of iterations =  4.1

     total cpu time spent up to now is    15636.9 secs

     total energy              =   -1971.09544092 Ry
     estimated scf accuracy    <       0.00344431 Ry

     iteration #  2     ecut=    60.00 Ry     beta= 0.30
     Davidson diagonalization with overlap
     ethr =  2.87E-06,  avg # of iterations =  3.1

     total cpu time spent up to now is    15674.4 secs

     total energy              =   -1971.09481112 Ry
     estimated scf accuracy    <       0.02068404 Ry

     iteration #  3     ecut=    60.00 Ry     beta= 0.30
     Davidson diagonalization with overlap
     ethr =  2.87E-06,  avg # of iterations =  3.0

     total cpu time spent up to now is    15707.6 secs

     total energy              =   -1971.09624093 Ry
     estimated scf accuracy    <       0.00108602 Ry

     iteration #  4     ecut=    60.00 Ry     beta= 0.30
     Davidson diagonalization with overlap
     ethr =  9.05E-07,  avg # of iterations =  2.0

     total cpu time spent up to now is    15735.8 secs

     total energy              =   -1971.09630345 Ry
     estimated scf accuracy    <       0.00098039 Ry

     iteration #  5     ecut=    60.00 Ry     beta= 0.30
     Davidson diagonalization with overlap
     ethr =  8.17E-07,  avg # of iterations =  1.0

     total cpu time spent up to now is    15758.9 secs

     total energy              =   -1971.09636685 Ry
     estimated scf accuracy    <       0.00009144 Ry

     iteration #  6     ecut=    60.00 Ry     beta= 0.30
     Davidson diagonalization with overlap
     ethr =  7.62E-08,  avg # of iterations =  2.0

     total cpu time spent up to now is    15787.8 secs

     total energy              =   -1971.09637811 Ry
     estimated scf accuracy    <       0.00003110 Ry

     iteration #  7     ecut=    60.00 Ry     beta= 0.30
     Davidson diagonalization with overlap
     ethr =  2.59E-08,  avg # of iterations =  1.0

     total cpu time spent up to now is    15810.8 secs

     total energy              =   -1971.09637930 Ry
     estimated scf accuracy    <       0.00000647 Ry

     iteration #  8     ecut=    60.00 Ry     beta= 0.30
     Davidson diagonalization with overlap
     ethr =  5.39E-09,  avg # of iterations =  4.3

     total cpu time spent up to now is    15860.4 secs

     total energy              =   -1971.09638027 Ry
     estimated scf accuracy    <       0.00000442 Ry

     iteration #  9     ecut=    60.00 Ry     beta= 0.30
     Davidson diagonalization with overlap
     ethr =  3.68E-09,  avg # of iterations =  2.2

     total cpu time spent up to now is    15895.7 secs

     total energy              =   -1971.09638064 Ry
     estimated scf accuracy    <       0.00000020 Ry

     iteration # 10     ecut=    60.00 Ry     beta= 0.30
     Davidson diagonalization with overlap
     ethr =  1.66E-10,  avg # of iterations =  4.3

     total cpu time spent up to now is    15949.4 secs

     total energy              =   -1971.09638081 Ry
     estimated scf accuracy    <       0.00000005 Ry

     iteration # 11     ecut=    60.00 Ry     beta= 0.30
     Davidson diagonalization with overlap
     ethr =  4.40E-11,  avg # of iterations =  2.0

     total cpu time spent up to now is    15976.7 secs

     total energy              =   -1971.09638082 Ry
     estimated scf accuracy    <       0.00000004 Ry

     iteration # 12     ecut=    60.00 Ry     beta= 0.30
     Davidson diagonalization with overlap
     ethr =  3.11E-11,  avg # of iterations =  1.5

     total cpu time spent up to now is    16004.8 secs

     total energy              =   -1971.09638082 Ry
     estimated scf accuracy    <          7.4E-09 Ry

     iteration # 13     ecut=    60.00 Ry     beta= 0.30
     Davidson diagonalization with overlap
     ethr =  6.20E-12,  avg # of iterations =  1.9

     total cpu time spent up to now is    16032.8 secs

     End of self-consistent calculation

     Number of k-points >= 100: set verbosity='high' to print the bands.

     the Fermi energy is     6.5982 ev

!    total energy              =   -1971.09638082 Ry
     estimated scf accuracy    <          3.9E-10 Ry
     smearing contrib. (-TS)   =       0.00121501 Ry
     internal energy E=F+TS    =   -1971.09759583 Ry

     The total energy is F=E-TS. E is the sum of the following terms:
     one-electron contribution =   -1760.03398780 Ry
     hartree contribution      =     914.51333160 Ry
     xc contribution           =    -201.22862947 Ry
     ewald contribution        =    -704.93511750 Ry
     DFT-D3 Dispersion         =      -0.36531140 Ry
     one-center paw contrib.   =    -219.04788125 Ry

     convergence has been achieved in  13 iterations

     Forces acting on atoms (cartesian axes, Ry/au):

     atom    1 type  1   force =    -0.00006826   -0.00632281    0.00220969
     atom    2 type  2   force =    -0.00108827   -0.00007231   -0.00226193
     atom    3 type  2   force =     0.00057223   -0.00091887   -0.00088741
     atom    4 type  2   force =    -0.00067026   -0.00108362   -0.00130178
     atom    5 type  2   force =     0.00069777   -0.00056842   -0.00055251
     atom    6 type  2   force =     0.00074920    0.00072831    0.00178495
     atom    7 type  2   force =     0.00081715   -0.00094971    0.00118158
     atom    8 type  2   force =    -0.00162145    0.00007536   -0.00006241
     atom    9 type  1   force =     0.00326292    0.00330436   -0.00566396
     atom   10 type  1   force =     0.00550944   -0.00206858    0.00241013
     atom   11 type  1   force =    -0.00360128    0.00073585    0.00271071
     atom   12 type  1   force =    -0.00127958    0.00297543    0.00108528
     atom   13 type  3   force =     0.00150067   -0.00146923   -0.00136822
     atom   14 type  3   force =    -0.00207083    0.00200701   -0.00154543
     atom   15 type  3   force =     0.00175711    0.00237412    0.00013283
     atom   16 type  3   force =     0.00052069    0.00168166   -0.00010335
     atom   17 type  3   force =     0.00056469    0.00155778    0.00031045
     atom   18 type  3   force =    -0.00098513   -0.00080052   -0.00186030
     atom   19 type  3   force =    -0.00295434   -0.00401806    0.00072966
     atom   20 type  3   force =    -0.00260078    0.00220132    0.00066347
     atom   21 type  3   force =     0.00284827    0.00132679   -0.00374228
     atom   22 type  3   force =    -0.00472645   -0.00165730    0.00094875
     atom   23 type  3   force =     0.00007090   -0.00029208    0.00266107
     atom   24 type  3   force =     0.00176978    0.00094115   -0.00010439
     atom   25 type  3   force =     0.00097339    0.00095361   -0.00173092
     atom   26 type  3   force =    -0.00012920    0.00131199    0.00154274
     atom   27 type  3   force =     0.00199165   -0.00224524   -0.00013947
     atom   28 type  3   force =    -0.00181002    0.00029202    0.00295308

     Total force =     0.018958     Total SCF correction =     0.000048


     Computing stress (Cartesian axis) and pressure

          total   stress  (Ry/bohr**3)                   (kbar)     P=        2.10
   0.00001082  -0.00000567  -0.00000492            1.59       -0.83       -0.72
  -0.00000567   0.00001616  -0.00001890           -0.83        2.38       -2.78
  -0.00000492  -0.00001890   0.00001582           -0.72       -2.78        2.33

     Energy error            =      6.3E-04 Ry
     Gradient error          =      6.3E-03 Ry/Bohr
     Cell gradient error     =      2.8E+00 kbar

     number of scf cycles    =  33
     number of bfgs steps    =  32

     enthalpy           old  =   -1971.0957525994 Ry
     enthalpy           new  =   -1971.0963808211 Ry

     CASE: enthalpy          _new < enthalpy          _old

     new trust radius        =       0.0871420496 bohr
     new conv_thr            =       0.0000000006 Ry

     new unit-cell volume =   1681.64166 a.u.^3 (   249.19358 Ang^3 )
     density =      3.19675 g/cm^3

CELL_PARAMETERS (angstrom)
   7.550319997  -0.048312331  -0.045954564
  -5.082322334   5.797463730   0.188065203
  -2.293371500   1.211714745   5.771598174

ATOMIC_POSITIONS (angstrom)
Ni              -4.3798952675        5.3204305686        5.6851450987
Mg              -2.9771978063        4.9657851575        2.7188853503
Mg               3.3305666875        2.0205967606        3.1963509995
Mg               4.3829796846        1.4502958682        0.2557729445
Mg               0.8204632578        6.5545664976        4.5188697698
Mg              -0.5957665138        0.3255831620        1.4197144906
Mg              -0.6328011613        3.8456435271        4.3732612827
Mg               0.6002671933        3.1990305572        1.4555427012
Ni              -1.7515339558        6.1522191749        5.3286722470
Ni              -1.8183900394        2.5509388935        2.3874771844
Ni               2.0793322296        4.3442681842        3.5365806354
Ni               1.8640724524        0.8224514244        0.5285129161
H               -0.4911849074        5.3801727527        5.7876643605
H               -0.3834609448        2.1360591768        2.8270880119
H                0.6645343931        4.8312071525        3.0842983796
H                0.5604306424        1.5445343034        0.1648733168
H                5.0730271391        1.0953374776        2.2183232214
H                3.7799821474        1.8449367236        5.3235083021
H               -3.3720913858        5.0463940636        0.5493029677
H               -4.8552310200        5.7716308782        4.1642650614
H               -2.7677334222        6.2608419056        4.1780789928
H               -2.6084778202        3.2867603716        1.2135951493
H                3.1948974600        3.9290344479        4.6256041098
H                2.8798281390        0.9138801491        1.6816054073
H                0.4513369617        2.3542738198        5.0282730409
H                2.4637995390        3.5041658902        2.2856446285
H               -2.4469640585        3.2736174676        3.6250506722
H               -0.6200233320        4.7274696683        0.6299621388



     Writing config-only to output data dir ./outdir/mg2nih4_ni.save/ :
     XML data file
     NEW-OLD atomic charge density approx. for the potential
     New effective cutoffs (rho, wfc):  536.69   67.12

     Check: negative core charge=   -0.000001

     total cpu time spent up to now is    16050.1 secs

     Self-consistent Calculation

     iteration #  1     ecut=    60.00 Ry     beta= 0.30
     Davidson diagonalization with overlap
     ethr =  1.00E-06,  avg # of iterations =  4.6

     total cpu time spent up to now is    16112.8 secs

     total energy              =   -1971.09596908 Ry
     estimated scf accuracy    <       0.00483415 Ry

     iteration #  2     ecut=    60.00 Ry     beta= 0.30
     Davidson diagonalization with overlap
     ethr =  4.03E-06,  avg # of iterations =  3.2

     total cpu time spent up to now is    16150.6 secs

     total energy              =   -1971.09531952 Ry
     estimated scf accuracy    <       0.02011993 Ry

     iteration #  3     ecut=    60.00 Ry     beta= 0.30
     Davidson diagonalization with overlap
     ethr =  4.03E-06,  avg # of iterations =  2.8

     total cpu time spent up to now is    16185.3 secs

     total energy              =   -1971.09680101 Ry
     estimated scf accuracy    <       0.00203069 Ry

     iteration #  4     ecut=    60.00 Ry     beta= 0.30
     Davidson diagonalization with overlap
     ethr =  1.69E-06,  avg # of iterations =  2.0

     total cpu time spent up to now is    16213.0 secs

     total energy              =   -1971.09688494 Ry
     estimated scf accuracy    <       0.00178399 Ry

     iteration #  5     ecut=    60.00 Ry     beta= 0.30
     Davidson diagonalization with overlap
     ethr =  1.49E-06,  avg # of iterations =  1.0

     total cpu time spent up to now is    16236.0 secs

     total energy              =   -1971.09699717 Ry
     estimated scf accuracy    <       0.00018132 Ry

     iteration #  6     ecut=    60.00 Ry     beta= 0.30
     Davidson diagonalization with overlap
     ethr =  1.51E-07,  avg # of iterations =  2.0

     total cpu time spent up to now is    16264.9 secs

     total energy              =   -1971.09701835 Ry
     estimated scf accuracy    <       0.00007452 Ry

     iteration #  7     ecut=    60.00 Ry     beta= 0.30
     Davidson diagonalization with overlap
     ethr =  6.21E-08,  avg # of iterations =  1.0

     total cpu time spent up to now is    16287.8 secs

     total energy              =   -1971.09702275 Ry
     estimated scf accuracy    <       0.00000605 Ry

     iteration #  8     ecut=    60.00 Ry     beta= 0.30
     Davidson diagonalization with overlap
     ethr =  5.04E-09,  avg # of iterations =  4.4

     total cpu time spent up to now is    16330.7 secs

     total energy              =   -1971.09702379 Ry
     estimated scf accuracy    <       0.00001115 Ry

     iteration #  9     ecut=    60.00 Ry     beta= 0.30
     Davidson diagonalization with overlap
     ethr =  5.04E-09,  avg # of iterations =  2.0

     total cpu time spent up to now is    16358.2 secs

     total energy              =   -1971.09702459 Ry
     estimated scf accuracy    <       0.00000067 Ry

     iteration # 10     ecut=    60.00 Ry     beta= 0.30
     Davidson diagonalization with overlap
     ethr =  5.57E-10,  avg # of iterations =  4.0

     total cpu time spent up to now is    16400.2 secs

     total energy              =   -1971.09702476 Ry
     estimated scf accuracy    <       0.00000014 Ry

     iteration # 11     ecut=    60.00 Ry     beta= 0.30
     Davidson diagonalization with overlap
     ethr =  1.14E-10,  avg # of iterations =  2.5

     total cpu time spent up to now is    16431.5 secs

     total energy              =   -1971.09702477 Ry
     estimated scf accuracy    <       0.00000007 Ry

     iteration # 12     ecut=    60.00 Ry     beta= 0.30
     Davidson diagonalization with overlap
     ethr =  5.55E-11,  avg # of iterations =  1.3

     total cpu time spent up to now is    16457.2 secs

     total energy              =   -1971.09702478 Ry
     estimated scf accuracy    <       0.00000002 Ry

     iteration # 13     ecut=    60.00 Ry     beta= 0.30
     Davidson diagonalization with overlap
     ethr =  1.31E-11,  avg # of iterations =  2.4

     total cpu time spent up to now is    16487.1 secs

     total energy              =   -1971.09702478 Ry
     estimated scf accuracy    <          1.9E-09 Ry

     iteration # 14     ecut=    60.00 Ry     beta= 0.30
     Davidson diagonalization with overlap
     ethr =  1.56E-12,  avg # of iterations =  2.7

     total cpu time spent up to now is    16519.8 secs

     End of self-consistent calculation

     Number of k-points >= 100: set verbosity='high' to print the bands.

     the Fermi energy is     6.5672 ev

!    total energy              =   -1971.09702478 Ry
     estimated scf accuracy    <          1.3E-10 Ry
     smearing contrib. (-TS)   =       0.00127872 Ry
     internal energy E=F+TS    =   -1971.09830350 Ry

     The total energy is F=E-TS. E is the sum of the following terms:
     one-electron contribution =   -1761.53042558 Ry
     hartree contribution      =     915.15952020 Ry
     xc contribution           =    -201.20702241 Ry
     ewald contribution        =    -704.11020297 Ry
     DFT-D3 Dispersion         =      -0.36430405 Ry
     one-center paw contrib.   =    -219.04586869 Ry

     convergence has been achieved in  14 iterations

     Forces acting on atoms (cartesian axes, Ry/au):

     atom    1 type  1   force =     0.00116426   -0.00673543    0.00247417
     atom    2 type  2   force =    -0.00132915   -0.00118617   -0.00281970
     atom    3 type  2   force =     0.00050755   -0.00059715   -0.00040900
     atom    4 type  2   force =    -0.00056074   -0.00102651   -0.00099847
     atom    5 type  2   force =     0.00086837   -0.00020059   -0.00041764
     atom    6 type  2   force =     0.00104678    0.00130659    0.00181163
     atom    7 type  2   force =     0.00131520   -0.00173548    0.00127265
     atom    8 type  2   force =    -0.00216904   -0.00057208    0.00018887
     atom    9 type  1   force =     0.00590858    0.00285543   -0.00892124
     atom   10 type  1   force =     0.00218936   -0.00286913    0.00409426
     atom   11 type  1   force =    -0.00248032    0.00172116    0.00084726
     atom   12 type  1   force =     0.00022339    0.00378319    0.00098193
     atom   13 type  3   force =    -0.00175279    0.00051228   -0.00254301
     atom   14 type  3   force =    -0.00118363    0.00183737   -0.00136443
     atom   15 type  3   force =     0.00151832    0.00219037    0.00022188
     atom   16 type  3   force =     0.00087199    0.00147670    0.00024755
     atom   17 type  3   force =     0.00118563    0.00277201    0.00065452
     atom   18 type  3   force =    -0.00109514   -0.00165060   -0.00221403
     atom   19 type  3   force =    -0.00299232   -0.00475115    0.00093915
     atom   20 type  3   force =    -0.00332181    0.00103485   -0.00199717
     atom   21 type  3   force =     0.00495165    0.00123161   -0.00104921
     atom   22 type  3   force =    -0.00436372   -0.00205355    0.00127221
     atom   23 type  3   force =    -0.00062366    0.00029611    0.00350656
     atom   24 type  3   force =     0.00116271    0.00119764   -0.00066515
     atom   25 type  3   force =     0.00001965    0.00066012   -0.00070492
     atom   26 type  3   force =    -0.00059484    0.00283377    0.00336316
     atom   27 type  3   force =     0.00315236   -0.00261182   -0.00156968
     atom   28 type  3   force =    -0.00361863    0.00028046    0.00379786

     Total force =     0.022183     Total SCF correction =     0.000037


     Computing stress (Cartesian axis) and pressure

          total   stress  (Ry/bohr**3)                   (kbar)     P=       -0.74
  -0.00000818   0.00000039  -0.00000503           -1.20        0.06       -0.74
   0.00000039  -0.00000060  -0.00002103            0.06       -0.09       -3.09
  -0.00000503  -0.00002103  -0.00000635           -0.74       -3.09       -0.93

     Energy error            =      6.4E-04 Ry
     Gradient error          =      8.9E-03 Ry/Bohr
     Cell gradient error     =      3.1E+00 kbar

     number of scf cycles    =  34
     number of bfgs steps    =  33

     enthalpy           old  =   -1971.0963808211 Ry
     enthalpy           new  =   -1971.0970247841 Ry

     CASE: enthalpy          _new < enthalpy          _old

     new trust radius        =       0.0569309955 bohr
     new conv_thr            =       0.0000000006 Ry

     new unit-cell volume =   1688.96086 a.u.^3 (   250.27818 Ang^3 )
     density =      3.18289 g/cm^3

CELL_PARAMETERS (angstrom)
   7.558538330  -0.057810800  -0.055612336
  -5.094420732   5.806658128   0.182862353
  -2.304157914   1.203267474   5.787777560

ATOMIC_POSITIONS (angstrom)
Ni              -4.4097291178        5.3099344878        5.7217719498
Mg              -2.9907371063        4.9649457674        2.7102228541
Mg               3.3274873985        2.0111507514        3.1921973212
Mg               4.3869253184        1.4282758135        0.2474993885
Mg               0.8079147718        6.5491233217        4.5106657999
Mg              -0.5922093019        0.3279700662        1.4259695778
Mg              -0.6377036457        3.8337407463        4.3775121336
Mg               0.5957790710        3.2097324010        1.4487497855
Ni              -1.7642864330        6.1522856408        5.3307884513
Ni              -1.8217827567        2.5511416342        2.3916367848
Ni               2.0739382032        4.3405991008        3.5390559645
Ni               1.8634207289        0.8211077353        0.5227584471
H               -0.4997995179        5.3622253853        5.7815862258
H               -0.3869718189        2.1466124202        2.8176830965
H                0.6590728521        4.8318287611        3.0954828103
H                0.5657063530        1.5544219672        0.1634068834
H                5.0710853112        1.0853005179        2.2209748146
H                3.7862591596        1.8318101949        5.3269348086
H               -3.3953752760        5.0514689215        0.5458014332
H               -4.8731792844        5.7784269075        4.1788992018
H               -2.7670857800        6.2533901706        4.1600669002
H               -2.6311242274        3.2787842243        1.2215642127
H                3.1704884633        3.9243239213        4.6401087514
H                2.8819526705        0.9025627196        1.6757164351
H                0.4426554831        2.3338852134        5.0317999928
H                2.4620000390        3.4983077949        2.2846276433
H               -2.4598740554        3.2692267286        3.6311244616
H               -0.6253919353        4.7270239089        0.6157799629



     Writing config-only to output data dir ./outdir/mg2nih4_ni.save/ :
     XML data file
     NEW-OLD atomic charge density approx. for the potential
     New effective cutoffs (rho, wfc):  532.66   66.60

     Check: negative core charge=   -0.000001

     total cpu time spent up to now is    16536.3 secs

     Self-consistent Calculation

     iteration #  1     ecut=    60.00 Ry     beta= 0.30
     Davidson diagonalization with overlap
     ethr =  1.00E-06,  avg # of iterations =  4.9

     total cpu time spent up to now is    16599.3 secs

     total energy              =   -1971.09697700 Ry
     estimated scf accuracy    <       0.00390143 Ry

     iteration #  2     ecut=    60.00 Ry     beta= 0.30
     Davidson diagonalization with overlap
     ethr =  3.25E-06,  avg # of iterations =  2.7

     total cpu time spent up to now is    16637.3 secs

     total energy              =   -1971.09668311 Ry
     estimated scf accuracy    <       0.01184951 Ry

     iteration #  3     ecut=    60.00 Ry     beta= 0.30
     Davidson diagonalization with overlap
     ethr =  3.25E-06,  avg # of iterations =  2.0

     total cpu time spent up to now is    16665.6 secs

     total energy              =   -1971.09766288 Ry
     estimated scf accuracy    <       0.00122903 Ry

     iteration #  4     ecut=    60.00 Ry     beta= 0.30
     Davidson diagonalization with overlap
     ethr =  1.02E-06,  avg # of iterations =  2.0

     total cpu time spent up to now is    16692.8 secs

     total energy              =   -1971.09768114 Ry
     estimated scf accuracy    <       0.00168974 Ry

     iteration #  5     ecut=    60.00 Ry     beta= 0.30
     Davidson diagonalization with overlap
     ethr =  1.02E-06,  avg # of iterations =  1.3

     total cpu time spent up to now is    16717.7 secs

     total energy              =   -1971.09778173 Ry
     estimated scf accuracy    <       0.00022497 Ry

     iteration #  6     ecut=    60.00 Ry     beta= 0.30
     Davidson diagonalization with overlap
     ethr =  1.87E-07,  avg # of iterations =  2.0

     total cpu time spent up to now is    16744.9 secs

     total energy              =   -1971.09780616 Ry
     estimated scf accuracy    <       0.00005469 Ry

     iteration #  7     ecut=    60.00 Ry     beta= 0.30
     Davidson diagonalization with overlap
     ethr =  4.56E-08,  avg # of iterations =  1.0

     total cpu time spent up to now is    16767.1 secs

     total energy              =   -1971.09780834 Ry
     estimated scf accuracy    <       0.00001196 Ry

     iteration #  8     ecut=    60.00 Ry     beta= 0.30
     Davidson diagonalization with overlap
     ethr =  9.97E-09,  avg # of iterations =  4.1

     total cpu time spent up to now is    16808.0 secs

     total energy              =   -1971.09781006 Ry
     estimated scf accuracy    <       0.00000405 Ry

     iteration #  9     ecut=    60.00 Ry     beta= 0.30
     Davidson diagonalization with overlap
     ethr =  3.38E-09,  avg # of iterations =  3.8

     total cpu time spent up to now is    16850.0 secs

     total energy              =   -1971.09781062 Ry
     estimated scf accuracy    <       0.00000054 Ry

     iteration # 10     ecut=    60.00 Ry     beta= 0.30
     Davidson diagonalization with overlap
     ethr =  4.50E-10,  avg # of iterations =  4.0

     total cpu time spent up to now is    16893.4 secs

     total energy              =   -1971.09781078 Ry
     estimated scf accuracy    <       0.00000060 Ry

     iteration # 11     ecut=    60.00 Ry     beta= 0.30
     Davidson diagonalization with overlap
     ethr =  4.50E-10,  avg # of iterations =  1.0

     total cpu time spent up to now is    16915.8 secs

     total energy              =   -1971.09781083 Ry
     estimated scf accuracy    <       0.00000002 Ry

     iteration # 12     ecut=    60.00 Ry     beta= 0.30
     Davidson diagonalization with overlap
     ethr =  1.75E-11,  avg # of iterations =  3.0

     total cpu time spent up to now is    16950.5 secs

     total energy              =   -1971.09781084 Ry
     estimated scf accuracy    <       0.00000001 Ry

     iteration # 13     ecut=    60.00 Ry     beta= 0.30
     Davidson diagonalization with overlap
     ethr =  1.25E-11,  avg # of iterations =  1.0

     total cpu time spent up to now is    16973.0 secs

     End of self-consistent calculation

     Number of k-points >= 100: set verbosity='high' to print the bands.

     the Fermi energy is     6.5136 ev

!    total energy              =   -1971.09781084 Ry
     estimated scf accuracy    <          5.2E-10 Ry
     smearing contrib. (-TS)   =       0.00128688 Ry
     internal energy E=F+TS    =   -1971.09909772 Ry

     The total energy is F=E-TS. E is the sum of the following terms:
     one-electron contribution =   -1763.11671575 Ry
     hartree contribution      =     915.78729571 Ry
     xc contribution           =    -201.17958672 Ry
     ewald contribution        =    -703.18460260 Ry
     DFT-D3 Dispersion         =      -0.36281180 Ry
     one-center paw contrib.   =    -219.04267656 Ry

     convergence has been achieved in  13 iterations

     Forces acting on atoms (cartesian axes, Ry/au):

     atom    1 type  1   force =     0.00087703   -0.00403537   -0.00296664
     atom    2 type  2   force =    -0.00098528   -0.00218021   -0.00278697
     atom    3 type  2   force =     0.00068592   -0.00051552    0.00022385
     atom    4 type  2   force =    -0.00037982   -0.00080595   -0.00080028
     atom    5 type  2   force =     0.00054124    0.00003383    0.00028371
     atom    6 type  2   force =     0.00094400    0.00165810    0.00134836
     atom    7 type  2   force =     0.00105153   -0.00170130    0.00152954
     atom    8 type  2   force =    -0.00240547   -0.00089846   -0.00018060
     atom    9 type  1   force =     0.00647136    0.00032598   -0.00885394
     atom   10 type  1   force =    -0.00200368   -0.00288565    0.00383649
     atom   11 type  1   force =    -0.00183664    0.00271665   -0.00109581
     atom   12 type  1   force =     0.00146163    0.00285439    0.00081569
     atom   13 type  3   force =    -0.00462258    0.00264396   -0.00339040
     atom   14 type  3   force =     0.00082286    0.00081339   -0.00025654
     atom   15 type  3   force =     0.00074152    0.00202962   -0.00063231
     atom   16 type  3   force =     0.00047631    0.00133294    0.00036147
     atom   17 type  3   force =     0.00194910    0.00315419    0.00049702
     atom   18 type  3   force =    -0.00123377   -0.00152072   -0.00208899
     atom   19 type  3   force =    -0.00285981   -0.00441932    0.00125112
     atom   20 type  3   force =    -0.00216576   -0.00128602    0.00099041
     atom   21 type  3   force =     0.00661043    0.00149852    0.00058938
     atom   22 type  3   force =    -0.00431777   -0.00217429    0.00191183
     atom   23 type  3   force =     0.00092025   -0.00146708    0.00383676
     atom   24 type  3   force =     0.00132235    0.00178347   -0.00078801
     atom   25 type  3   force =    -0.00114294    0.00076470    0.00065060
     atom   26 type  3   force =    -0.00109066    0.00399873    0.00462417
     atom   27 type  3   force =     0.00368708   -0.00230443   -0.00223307
     atom   28 type  3   force =    -0.00351844    0.00058588    0.00332316

     Total force =     0.022871     Total SCF correction =     0.000094


     Computing stress (Cartesian axis) and pressure

          total   stress  (Ry/bohr**3)                   (kbar)     P=       -3.97
  -0.00002397   0.00000560  -0.00000263           -3.53        0.82       -0.39
   0.00000560  -0.00001707  -0.00001195            0.82       -2.51       -1.76
  -0.00000263  -0.00001195  -0.00003996           -0.39       -1.76       -5.88

     Energy error            =      7.9E-04 Ry
     Gradient error          =      8.9E-03 Ry/Bohr
     Cell gradient error     =      5.9E+00 kbar

     number of scf cycles    =  35
     number of bfgs steps    =  34

     enthalpy           old  =   -1971.0970247841 Ry
     enthalpy           new  =   -1971.0978108399 Ry

     CASE: enthalpy          _new < enthalpy          _old

     new trust radius        =       0.0590928758 bohr
     new conv_thr            =       0.0000000008 Ry

     new unit-cell volume =   1691.15001 a.u.^3 (   250.60258 Ang^3 )
     density =      3.17877 g/cm^3

CELL_PARAMETERS (angstrom)
   7.562441208  -0.065386046  -0.067926749
  -5.102197239   5.810882672   0.183621246
  -2.315403378   1.197814757   5.795275828

ATOMIC_POSITIONS (angstrom)
Ni              -4.4358895186        5.2943567142        5.7445641859
Mg              -3.0014614959        4.9637758475        2.7057795068
Mg               3.3268311736        2.0001632725        3.1793367401
Mg               4.3886078210        1.4123514341        0.2327741515
Mg               0.7946733936        6.5428772468        4.5020321883
Mg              -0.5931055691        0.3291836154        1.4293243814
Mg              -0.6484974375        3.8286953235        4.3763606328
Mg               0.5889861911        3.2111543809        1.4418858772
Ni              -1.7736231823        6.1489991605        5.3212621301
Ni              -1.8246529546        2.5499699564        2.3929552424
Ni               2.0668741303        4.3352731817        3.5397627370
Ni               1.8606370879        0.8246948530        0.5194465053
H               -0.5110532449        5.3509721430        5.7719664657
H               -0.3926223331        2.1532446867        2.8118880106
H                0.6573577752        4.8336244297        3.0978902623
H                0.5652075097        1.5589418494        0.1588900051
H                5.0722638483        1.0779213312        2.2124223861
H                3.7809990086        1.8208986289        5.3204062753
H               -3.4104392285        5.0511714881        0.5475462371
H               -4.8924641565        5.7797833862        4.2121313540
H               -2.7646825473        6.2541653282        4.1415314144
H               -2.6661355727        3.2724958928        1.2321896021
H                3.1661650809        3.9155763534        4.6403993336
H                2.8906519978        0.8936671490        1.6629466896
H                0.4294021604        2.3312136647        5.0309713852
H                2.4526299920        3.4917251625        2.2856267277
H               -2.4702685873        3.2581065386        3.6318494191
H               -0.6286230641        4.7213563522        0.6094447095



     Writing config-only to output data dir ./outdir/mg2nih4_ni.save/ :
     XML data file
     NEW-OLD atomic charge density approx. for the potential
     New effective cutoffs (rho, wfc):  531.08   66.42

     Check: negative core charge=   -0.000001

     total cpu time spent up to now is    16989.3 secs

     Self-consistent Calculation

     iteration #  1     ecut=    60.00 Ry     beta= 0.30
     Davidson diagonalization with overlap
     ethr =  1.00E-06,  avg # of iterations =  4.3

     total cpu time spent up to now is    17047.8 secs

     total energy              =   -1971.09831249 Ry
     estimated scf accuracy    <       0.00270798 Ry

     iteration #  2     ecut=    60.00 Ry     beta= 0.30
     Davidson diagonalization with overlap
     ethr =  2.26E-06,  avg # of iterations =  2.4

     total cpu time spent up to now is    17082.2 secs

     total energy              =   -1971.09810788 Ry
     estimated scf accuracy    <       0.00518026 Ry

     iteration #  3     ecut=    60.00 Ry     beta= 0.30
     Davidson diagonalization with overlap
     ethr =  2.26E-06,  avg # of iterations =  2.0

     total cpu time spent up to now is    17109.9 secs

     total energy              =   -1971.09859801 Ry
     estimated scf accuracy    <       0.00116996 Ry

     iteration #  4     ecut=    60.00 Ry     beta= 0.30
     Davidson diagonalization with overlap
     ethr =  9.75E-07,  avg # of iterations =  2.0

     total cpu time spent up to now is    17136.5 secs

     total energy              =   -1971.09862460 Ry
     estimated scf accuracy    <       0.00082240 Ry

     iteration #  5     ecut=    60.00 Ry     beta= 0.30
     Davidson diagonalization with overlap
     ethr =  6.85E-07,  avg # of iterations =  1.0

     total cpu time spent up to now is    17159.1 secs

     total energy              =   -1971.09868176 Ry
     estimated scf accuracy    <       0.00005992 Ry

     iteration #  6     ecut=    60.00 Ry     beta= 0.30
     Davidson diagonalization with overlap
     ethr =  4.99E-08,  avg # of iterations =  2.0

     total cpu time spent up to now is    17186.3 secs

     total energy              =   -1971.09868427 Ry
     estimated scf accuracy    <       0.00002925 Ry

     iteration #  7     ecut=    60.00 Ry     beta= 0.30
     Davidson diagonalization with overlap
     ethr =  2.44E-08,  avg # of iterations =  1.6

     total cpu time spent up to now is    17214.1 secs

     total energy              =   -1971.09868640 Ry
     estimated scf accuracy    <       0.00000464 Ry

     iteration #  8     ecut=    60.00 Ry     beta= 0.30
     Davidson diagonalization with overlap
     ethr =  3.87E-09,  avg # of iterations =  4.4

     total cpu time spent up to now is    17259.7 secs

     total energy              =   -1971.09868711 Ry
     estimated scf accuracy    <       0.00000539 Ry

     iteration #  9     ecut=    60.00 Ry     beta= 0.30
     Davidson diagonalization with overlap
     ethr =  3.87E-09,  avg # of iterations =  1.8

     total cpu time spent up to now is    17289.9 secs

     total energy              =   -1971.09868751 Ry
     estimated scf accuracy    <       0.00000080 Ry

     iteration # 10     ecut=    60.00 Ry     beta= 0.30
     Davidson diagonalization with overlap
     ethr =  6.68E-10,  avg # of iterations =  4.1

     total cpu time spent up to now is    17330.3 secs

     total energy              =   -1971.09868774 Ry
     estimated scf accuracy    <       0.00000020 Ry

     iteration # 11     ecut=    60.00 Ry     beta= 0.30
     Davidson diagonalization with overlap
     ethr =  1.63E-10,  avg # of iterations =  1.5

     total cpu time spent up to now is    17356.0 secs

     total energy              =   -1971.09868776 Ry
     estimated scf accuracy    <       0.00000009 Ry

     iteration # 12     ecut=    60.00 Ry     beta= 0.30
     Davidson diagonalization with overlap
     ethr =  7.54E-11,  avg # of iterations =  1.2

     total cpu time spent up to now is    17379.7 secs

     total energy              =   -1971.09868777 Ry
     estimated scf accuracy    <          6.0E-09 Ry

     iteration # 13     ecut=    60.00 Ry     beta= 0.30
     Davidson diagonalization with overlap
     ethr =  4.99E-12,  avg # of iterations =  2.2

     total cpu time spent up to now is    17409.1 secs

     End of self-consistent calculation

     Number of k-points >= 100: set verbosity='high' to print the bands.

     the Fermi energy is     6.4955 ev

!    total energy              =   -1971.09868777 Ry
     estimated scf accuracy    <          5.6E-10 Ry
     smearing contrib. (-TS)   =       0.00129216 Ry
     internal energy E=F+TS    =   -1971.09997993 Ry

     The total energy is F=E-TS. E is the sum of the following terms:
     one-electron contribution =   -1763.04750680 Ry
     hartree contribution      =     915.69930094 Ry
     xc contribution           =    -201.17275357 Ry
     ewald contribution        =    -703.17452244 Ry
     DFT-D3 Dispersion         =      -0.36235664 Ry
     one-center paw contrib.   =    -219.04214142 Ry

     convergence has been achieved in  13 iterations

     Forces acting on atoms (cartesian axes, Ry/au):

     atom    1 type  1   force =     0.00141496   -0.00240524   -0.00228397
     atom    2 type  2   force =    -0.00060360   -0.00307251   -0.00264165
     atom    3 type  2   force =     0.00049493    0.00075202    0.00013164
     atom    4 type  2   force =    -0.00007707   -0.00073902   -0.00043451
     atom    5 type  2   force =     0.00029965    0.00045820    0.00066319
     atom    6 type  2   force =     0.00099226    0.00177521    0.00091143
     atom    7 type  2   force =     0.00123413   -0.00163168    0.00120879
     atom    8 type  2   force =    -0.00244811   -0.00045773   -0.00061113
     atom    9 type  1   force =     0.00409283   -0.00218831   -0.00541700
     atom   10 type  1   force =    -0.00551497   -0.00151531    0.00132090
     atom   11 type  1   force =    -0.00006092    0.00290778   -0.00156956
     atom   12 type  1   force =     0.00225235    0.00044655    0.00051372
     atom   13 type  3   force =    -0.00537818    0.00339320   -0.00321426
     atom   14 type  3   force =     0.00287927    0.00002292    0.00063149
     atom   15 type  3   force =    -0.00053377    0.00200731   -0.00118535
     atom   16 type  3   force =     0.00020825    0.00110112    0.00037912
     atom   17 type  3   force =     0.00184850    0.00203566    0.00033639
     atom   18 type  3   force =    -0.00066732   -0.00073388   -0.00185368
     atom   19 type  3   force =    -0.00222994   -0.00248920    0.00160277
     atom   20 type  3   force =    -0.00149480   -0.00231055    0.00060841
     atom   21 type  3   force =     0.00613250    0.00119645    0.00077735
     atom   22 type  3   force =    -0.00276233   -0.00254673    0.00235768
     atom   23 type  3   force =     0.00062993   -0.00182612    0.00343033
     atom   24 type  3   force =     0.00120946    0.00180616   -0.00097536
     atom   25 type  3   force =    -0.00192273    0.00038754    0.00153040
     atom   26 type  3   force =    -0.00099331    0.00407991    0.00445400
     atom   27 type  3   force =     0.00341993   -0.00136796   -0.00155493
     atom   28 type  3   force =    -0.00242190    0.00091422    0.00088381

     Total force =     0.019976     Total SCF correction =     0.000101


     Computing stress (Cartesian axis) and pressure

          total   stress  (Ry/bohr**3)                   (kbar)     P=       -4.83
  -0.00002889   0.00000868   0.00000229           -4.25        1.28        0.34
   0.00000868  -0.00001995  -0.00000258            1.28       -2.93       -0.38
   0.00000229  -0.00000258  -0.00004957            0.34       -0.38       -7.29

     Energy error            =      8.8E-04 Ry
     Gradient error          =      6.1E-03 Ry/Bohr
     Cell gradient error     =      7.3E+00 kbar

     number of scf cycles    =  36
     number of bfgs steps    =  35

     enthalpy           old  =   -1971.0978108399 Ry
     enthalpy           new  =   -1971.0986877704 Ry

     CASE: enthalpy          _new < enthalpy          _old

     new trust radius        =       0.0650804099 bohr
     new conv_thr            =       0.0000000006 Ry

     new unit-cell volume =   1688.90097 a.u.^3 (   250.26930 Ang^3 )
     density =      3.18301 g/cm^3

CELL_PARAMETERS (angstrom)
   7.559742150  -0.071628191  -0.080400704
  -5.104602181   5.811296934   0.182565241
  -2.324608794   1.189325283   5.795271126

ATOMIC_POSITIONS (angstrom)
Ni              -4.4565181831        5.2715935692        5.7605455072
Mg              -3.0097067505        4.9556921819        2.6932355859
Mg               3.3235467085        1.9885995337        3.1618544017
Mg               4.3866508654        1.3945040969        0.2171687556
Mg               0.7817974672        6.5322232985        4.4858371687
Mg              -0.5920969082        0.3313668911        1.4321196334
Mg              -0.6561802165        3.8177576113        4.3698441247
Mg               0.5802871776        3.2121963589        1.4315871235
Ni              -1.7776736838        6.1393994364        5.2992164151
Ni              -1.8282311013        2.5451720935        2.3923576698
Ni               2.0577680041        4.3294663841        3.5344431641
Ni               1.8579831491        0.8277190508        0.5148571684
H               -0.5242012385        5.3357978981        5.7503049229
H               -0.3943605241        2.1588300252        2.8010954449
H                0.6546560701        4.8345883783        3.0951440618
H                0.5657139890        1.5649952595        0.1545868428
H                5.0691702903        1.0715140452        2.2017533371
H                3.7729365454        1.8078347917        5.3045857358
H               -3.4248520413        5.0450091179        0.5484438797
H               -4.9085170094        5.7755188709        4.2355371387
H               -2.7535176038        6.2496007071        4.1140723495
H               -2.7001450795        3.2601502331        1.2422582916
H                3.1557694958        3.9019197714        4.6377315647
H                2.8971569227        0.8856833576        1.6471930190
H                0.4154314131        2.3243307190        5.0235703799
H                2.4418011327        3.4866470415        2.2860621177
H               -2.4753207204        3.2433598375        3.6269837134
H               -0.6319117200        4.7144458168        0.6017097667



     Writing config-only to output data dir ./outdir/mg2nih4_ni.save/ :
     XML data file
     NEW-OLD atomic charge density approx. for the potential
     New effective cutoffs (rho, wfc):  530.92   66.40

     Check: negative core charge=   -0.000001

     total cpu time spent up to now is    17425.4 secs

     Self-consistent Calculation

     iteration #  1     ecut=    60.00 Ry     beta= 0.30
     Davidson diagonalization with overlap
     ethr =  1.00E-06,  avg # of iterations =  4.6

     total cpu time spent up to now is    17486.1 secs

     total energy              =   -1971.09898875 Ry
     estimated scf accuracy    <       0.00393304 Ry

     iteration #  2     ecut=    60.00 Ry     beta= 0.30
     Davidson diagonalization with overlap
     ethr =  3.28E-06,  avg # of iterations =  2.5

     total cpu time spent up to now is    17521.3 secs

     total energy              =   -1971.09869178 Ry
     estimated scf accuracy    <       0.00885697 Ry

     iteration #  3     ecut=    60.00 Ry     beta= 0.30
     Davidson diagonalization with overlap
     ethr =  3.28E-06,  avg # of iterations =  2.0

     total cpu time spent up to now is    17548.9 secs

     total energy              =   -1971.09945088 Ry
     estimated scf accuracy    <       0.00187843 Ry

     iteration #  4     ecut=    60.00 Ry     beta= 0.30
     Davidson diagonalization with overlap
     ethr =  1.57E-06,  avg # of iterations =  2.0

     total cpu time spent up to now is    17575.4 secs

     total energy              =   -1971.09949615 Ry
     estimated scf accuracy    <       0.00179787 Ry

     iteration #  5     ecut=    60.00 Ry     beta= 0.30
     Davidson diagonalization with overlap
     ethr =  1.50E-06,  avg # of iterations =  1.0

     total cpu time spent up to now is    17597.7 secs

     total energy              =   -1971.09961201 Ry
     estimated scf accuracy    <       0.00016715 Ry

     iteration #  6     ecut=    60.00 Ry     beta= 0.30
     Davidson diagonalization with overlap
     ethr =  1.39E-07,  avg # of iterations =  2.0

     total cpu time spent up to now is    17625.7 secs

     total energy              =   -1971.09962943 Ry
     estimated scf accuracy    <       0.00006882 Ry

     iteration #  7     ecut=    60.00 Ry     beta= 0.30
     Davidson diagonalization with overlap
     ethr =  5.73E-08,  avg # of iterations =  1.0

     total cpu time spent up to now is    17647.9 secs

     total energy              =   -1971.09963368 Ry
     estimated scf accuracy    <       0.00000423 Ry

     iteration #  8     ecut=    60.00 Ry     beta= 0.30
     Davidson diagonalization with overlap
     ethr =  3.52E-09,  avg # of iterations =  4.0

     total cpu time spent up to now is    17688.1 secs

     total energy              =   -1971.09963482 Ry
     estimated scf accuracy    <       0.00000526 Ry

     iteration #  9     ecut=    60.00 Ry     beta= 0.30
     Davidson diagonalization with overlap
     ethr =  3.52E-09,  avg # of iterations =  1.2

     total cpu time spent up to now is    17712.6 secs

     total energy              =   -1971.09963517 Ry
     estimated scf accuracy    <       0.00000072 Ry

     iteration # 10     ecut=    60.00 Ry     beta= 0.30
     Davidson diagonalization with overlap
     ethr =  6.00E-10,  avg # of iterations =  2.0

     total cpu time spent up to now is    17740.7 secs

     total energy              =   -1971.09963526 Ry
     estimated scf accuracy    <       0.00000011 Ry

     iteration # 11     ecut=    60.00 Ry     beta= 0.30
     Davidson diagonalization with overlap
     ethr =  9.14E-11,  avg # of iterations =  2.0

     total cpu time spent up to now is    17767.8 secs

     total energy              =   -1971.09963526 Ry
     estimated scf accuracy    <       0.00000014 Ry

     iteration # 12     ecut=    60.00 Ry     beta= 0.30
     Davidson diagonalization with overlap
     ethr =  9.14E-11,  avg # of iterations =  1.2

     total cpu time spent up to now is    17792.2 secs

     total energy              =   -1971.09963527 Ry
     estimated scf accuracy    <       0.00000002 Ry

     iteration # 13     ecut=    60.00 Ry     beta= 0.30
     Davidson diagonalization with overlap
     ethr =  1.25E-11,  avg # of iterations =  2.6

     total cpu time spent up to now is    17823.5 secs

     total energy              =   -1971.09963528 Ry
     estimated scf accuracy    <          1.7E-09 Ry

     iteration # 14     ecut=    60.00 Ry     beta= 0.30
     Davidson diagonalization with overlap
     ethr =  1.40E-12,  avg # of iterations =  2.2

     total cpu time spent up to now is    17853.3 secs

     End of self-consistent calculation

     Number of k-points >= 100: set verbosity='high' to print the bands.

     the Fermi energy is     6.5020 ev

!    total energy              =   -1971.09963528 Ry
     estimated scf accuracy    <          1.6E-10 Ry
     smearing contrib. (-TS)   =       0.00128174 Ry
     internal energy E=F+TS    =   -1971.10091702 Ry

     The total energy is F=E-TS. E is the sum of the following terms:
     one-electron contribution =   -1761.78753053 Ry
     hartree contribution      =     915.10859324 Ry
     xc contribution           =    -201.18801838 Ry
     ewald contribution        =    -703.82718789 Ry
     DFT-D3 Dispersion         =      -0.36279243 Ry
     one-center paw contrib.   =    -219.04398103 Ry

     convergence has been achieved in  14 iterations

     Forces acting on atoms (cartesian axes, Ry/au):

     atom    1 type  1   force =     0.00182633   -0.00020082   -0.00141691
     atom    2 type  2   force =     0.00011221   -0.00345094   -0.00183082
     atom    3 type  2   force =    -0.00003313    0.00223766   -0.00016217
     atom    4 type  2   force =     0.00023063   -0.00071146   -0.00010161
     atom    5 type  2   force =    -0.00021456    0.00088632    0.00100185
     atom    6 type  2   force =     0.00097809    0.00174992    0.00025173
     atom    7 type  2   force =     0.00124448   -0.00101497    0.00048814
     atom    8 type  2   force =    -0.00217437    0.00016168   -0.00101953
     atom    9 type  1   force =     0.00003700   -0.00389255   -0.00014858
     atom   10 type  1   force =    -0.00609377    0.00002647   -0.00223727
     atom   11 type  1   force =     0.00132467    0.00268757   -0.00100911
     atom   12 type  1   force =     0.00185030   -0.00236385    0.00059546
     atom   13 type  3   force =    -0.00409481    0.00302352   -0.00201324
     atom   14 type  3   force =     0.00381198   -0.00064781    0.00138713
     atom   15 type  3   force =    -0.00208947    0.00192865   -0.00194529
     atom   16 type  3   force =    -0.00019221    0.00072129    0.00032586
     atom   17 type  3   force =     0.00130133   -0.00046456    0.00003565
     atom   18 type  3   force =     0.00007791    0.00011487   -0.00140053
     atom   19 type  3   force =    -0.00144320   -0.00006520    0.00195260
     atom   20 type  3   force =    -0.00013689   -0.00281690    0.00079064
     atom   21 type  3   force =     0.00413858    0.00060463   -0.00040088
     atom   22 type  3   force =    -0.00126155   -0.00242479    0.00214601
     atom   23 type  3   force =     0.00054659   -0.00229255    0.00259207
     atom   24 type  3   force =     0.00153759    0.00170534   -0.00059761
     atom   25 type  3   force =    -0.00210059   -0.00019721    0.00160883
     atom   26 type  3   force =    -0.00054695    0.00313490    0.00257147
     atom   27 type  3   force =     0.00227420    0.00019370    0.00060159
     atom   28 type  3   force =    -0.00091040    0.00136710   -0.00206545

     Total force =     0.016708     Total SCF correction =     0.000033


     Computing stress (Cartesian axis) and pressure

          total   stress  (Ry/bohr**3)                   (kbar)     P=       -3.00
  -0.00001841   0.00000915   0.00000865           -2.71        1.35        1.27
   0.00000915  -0.00000626   0.00000934            1.35       -0.92        1.37
   0.00000865   0.00000934  -0.00003644            1.27        1.37       -5.36

     Energy error            =      9.5E-04 Ry
     Gradient error          =      6.1E-03 Ry/Bohr
     Cell gradient error     =      5.4E+00 kbar

     number of scf cycles    =  37
     number of bfgs steps    =  36

     enthalpy           old  =   -1971.0986877704 Ry
     enthalpy           new  =   -1971.0996352784 Ry

     CASE: enthalpy          _new < enthalpy          _old

     new trust radius        =       0.0487868823 bohr
     new conv_thr            =       0.0000000006 Ry

     new unit-cell volume =   1684.53417 a.u.^3 (   249.62221 Ang^3 )
     density =      3.19126 g/cm^3

CELL_PARAMETERS (angstrom)
   7.553978121  -0.074176769  -0.087609220
  -5.102439810   5.809521837   0.182677113
  -2.328536897   1.184516786   5.789497174

ATOMIC_POSITIONS (angstrom)
Ni              -4.4648515580        5.2558206296        5.7672540878
Mg              -3.0124297054        4.9468425218        2.6813689825
Mg               3.3206342523        1.9837877742        3.1478179359
Mg               4.3834954541        1.3823906519        0.2073246609
Mg               0.7742838646        6.5259787173        4.4731670247
Mg              -0.5902653124        0.3341288114        1.4331267503
Mg              -0.6587238173        3.8098209024        4.3625880911
Mg               0.5735634467        3.2137940620        1.4235065407
Ni              -1.7775084994        6.1306519817        5.2803777687
Ni              -1.8320421368        2.5418465733        2.3887820329
Ni               2.0525527507        4.3281308632        3.5288904295
Ni               1.8564591155        0.8283618167        0.5117791240
H               -0.5330640859        5.3275919584        5.7299018516
H               -0.3918561125        2.1628914475        2.7921475134
H                0.6526287055        4.8372580478        3.0908139190
H                0.5663331898        1.5698608684        0.1524168098
H                5.0656538167        1.0682125025        2.1935623228
H                3.7666935688        1.8013350751        5.2885104886
H               -3.4334389263        5.0393808880        0.5511032658
H               -4.9157638087        5.7703032607        4.2483418059
H               -2.7393897801        6.2464316920        4.0912029276
H               -2.7226092551        3.2491174266        1.2496708041
H                3.1479510452        3.8915290911        4.6344955962
H                2.9016821300        0.8822852207        1.6348897845
H                0.4057660417        2.3209120080        5.0153579340
H                2.4338708687        3.4859931933        2.2875124031
H               -2.4746870345        3.2334114404        3.6216345561
H               -0.6329184159        4.7099965182        0.5963655247



     Writing config-only to output data dir ./outdir/mg2nih4_ni.save/ :
     XML data file
     NEW-OLD atomic charge density approx. for the potential
     New effective cutoffs (rho, wfc):  532.08   66.55

     Check: negative core charge=   -0.000001

     total cpu time spent up to now is    17869.8 secs

     Self-consistent Calculation

     iteration #  1     ecut=    60.00 Ry     beta= 0.30
     Davidson diagonalization with overlap
     ethr =  1.00E-06,  avg # of iterations =  4.1

     total cpu time spent up to now is    17925.7 secs

     total energy              =   -1971.09983008 Ry
     estimated scf accuracy    <       0.00206551 Ry

     iteration #  2     ecut=    60.00 Ry     beta= 0.30
     Davidson diagonalization with overlap
     ethr =  1.72E-06,  avg # of iterations =  2.2

     total cpu time spent up to now is    17957.8 secs

     total energy              =   -1971.09977453 Ry
     estimated scf accuracy    <       0.00358669 Ry

     iteration #  3     ecut=    60.00 Ry     beta= 0.30
     Davidson diagonalization with overlap
     ethr =  1.72E-06,  avg # of iterations =  2.0

     total cpu time spent up to now is    17986.4 secs

     total energy              =   -1971.10011530 Ry
     estimated scf accuracy    <       0.00068637 Ry

     iteration #  4     ecut=    60.00 Ry     beta= 0.30
     Davidson diagonalization with overlap
     ethr =  5.72E-07,  avg # of iterations =  2.0

     total cpu time spent up to now is    18013.4 secs

     total energy              =   -1971.10014292 Ry
     estimated scf accuracy    <       0.00051348 Ry

     iteration #  5     ecut=    60.00 Ry     beta= 0.30
     Davidson diagonalization with overlap
     ethr =  4.28E-07,  avg # of iterations =  1.0

     total cpu time spent up to now is    18036.0 secs

     total energy              =   -1971.10017451 Ry
     estimated scf accuracy    <       0.00009329 Ry

     iteration #  6     ecut=    60.00 Ry     beta= 0.30
     Davidson diagonalization with overlap
     ethr =  7.77E-08,  avg # of iterations =  2.0

     total cpu time spent up to now is    18063.7 secs

     total energy              =   -1971.10018288 Ry
     estimated scf accuracy    <       0.00006312 Ry

     iteration #  7     ecut=    60.00 Ry     beta= 0.30
     Davidson diagonalization with overlap
     ethr =  5.26E-08,  avg # of iterations =  1.0

     total cpu time spent up to now is    18086.3 secs

     total energy              =   -1971.10018651 Ry
     estimated scf accuracy    <       0.00000253 Ry

     iteration #  8     ecut=    60.00 Ry     beta= 0.30
     Davidson diagonalization with overlap
     ethr =  2.11E-09,  avg # of iterations =  4.2

     total cpu time spent up to now is    18128.3 secs

     total energy              =   -1971.10018733 Ry
     estimated scf accuracy    <       0.00000144 Ry

     iteration #  9     ecut=    60.00 Ry     beta= 0.30
     Davidson diagonalization with overlap
     ethr =  1.20E-09,  avg # of iterations =  1.0

     total cpu time spent up to now is    18151.3 secs

     total energy              =   -1971.10018740 Ry
     estimated scf accuracy    <       0.00000055 Ry

     iteration # 10     ecut=    60.00 Ry     beta= 0.30
     Davidson diagonalization with overlap
     ethr =  4.56E-10,  avg # of iterations =  2.0

     total cpu time spent up to now is    18178.4 secs

     total energy              =   -1971.10018746 Ry
     estimated scf accuracy    <       0.00000006 Ry

     iteration # 11     ecut=    60.00 Ry     beta= 0.30
     Davidson diagonalization with overlap
     ethr =  5.27E-11,  avg # of iterations =  2.1

     total cpu time spent up to now is    18207.9 secs

     total energy              =   -1971.10018746 Ry
     estimated scf accuracy    <       0.00000009 Ry

     iteration # 12     ecut=    60.00 Ry     beta= 0.30
     Davidson diagonalization with overlap
     ethr =  5.27E-11,  avg # of iterations =  1.6

     total cpu time spent up to now is    18236.5 secs

     total energy              =   -1971.10018747 Ry
     estimated scf accuracy    <          5.8E-09 Ry

     iteration # 13     ecut=    60.00 Ry     beta= 0.30
     Davidson diagonalization with overlap
     ethr =  4.79E-12,  avg # of iterations =  2.5

     total cpu time spent up to now is    18268.6 secs

     total energy              =   -1971.10018747 Ry
     estimated scf accuracy    <          8.9E-10 Ry

     iteration # 14     ecut=    60.00 Ry     beta= 0.30
     Davidson diagonalization with overlap
     ethr =  7.39E-13,  avg # of iterations =  2.0

     total cpu time spent up to now is    18297.0 secs

     End of self-consistent calculation

     Number of k-points >= 100: set verbosity='high' to print the bands.

     the Fermi energy is     6.5227 ev

!    total energy              =   -1971.10018747 Ry
     estimated scf accuracy    <          1.2E-10 Ry
     smearing contrib. (-TS)   =       0.00127816 Ry
     internal energy E=F+TS    =   -1971.10146563 Ry

     The total energy is F=E-TS. E is the sum of the following terms:
     one-electron contribution =   -1760.49858048 Ry
     hartree contribution      =     914.55401734 Ry
     xc contribution           =    -201.21189755 Ry
     ewald contribution        =    -704.53462840 Ry
     DFT-D3 Dispersion         =      -0.36366299 Ry
     one-center paw contrib.   =    -219.04671356 Ry

     convergence has been achieved in  14 iterations

     Forces acting on atoms (cartesian axes, Ry/au):

     atom    1 type  1   force =     0.00196576    0.00099278   -0.00067996
     atom    2 type  2   force =     0.00074755   -0.00299762   -0.00071609
     atom    3 type  2   force =    -0.00069408    0.00295090   -0.00041840
     atom    4 type  2   force =     0.00031860   -0.00070235    0.00003709
     atom    5 type  2   force =    -0.00062147    0.00108286    0.00108922
     atom    6 type  2   force =     0.00090719    0.00162653   -0.00029339
     atom    7 type  2   force =     0.00110754   -0.00024408   -0.00025262
     atom    8 type  2   force =    -0.00172696    0.00047692   -0.00107117
     atom    9 type  1   force =    -0.00288073   -0.00297678    0.00290153
     atom   10 type  1   force =    -0.00327725    0.00045984   -0.00378429
     atom   11 type  1   force =     0.00130946    0.00216896    0.00008791
     atom   12 type  1   force =     0.00057435   -0.00353061    0.00106323
     atom   13 type  3   force =    -0.00170078    0.00177630   -0.00049852
     atom   14 type  3   force =     0.00256767   -0.00072271    0.00146310
     atom   15 type  3   force =    -0.00270336    0.00167989   -0.00233720
     atom   16 type  3   force =    -0.00024528    0.00026064    0.00038317
     atom   17 type  3   force =     0.00081505   -0.00245825   -0.00013243
     atom   18 type  3   force =     0.00042724   -0.00005773   -0.00108525
     atom   19 type  3   force =    -0.00082313    0.00117633    0.00201049
     atom   20 type  3   force =     0.00099949   -0.00246377    0.00080923
     atom   21 type  3   force =     0.00208257   -0.00009563   -0.00177545
     atom   22 type  3   force =    -0.00069702   -0.00184640    0.00120797
     atom   23 type  3   force =     0.00049809   -0.00217547    0.00192273
     atom   24 type  3   force =     0.00184315    0.00157586   -0.00001761
     atom   25 type  3   force =    -0.00155443   -0.00075636    0.00086792
     atom   26 type  3   force =    -0.00010492    0.00190458    0.00022863
     atom   27 type  3   force =     0.00123567    0.00124604    0.00250488
     atom   28 type  3   force =    -0.00036994    0.00164934   -0.00351472

     Total force =     0.014876     Total SCF correction =     0.000028


     Computing stress (Cartesian axis) and pressure

          total   stress  (Ry/bohr**3)                   (kbar)     P=       -0.15
  -0.00000356   0.00000722   0.00001154           -0.52        1.06        1.70
   0.00000722   0.00001161   0.00001473            1.06        1.71        2.17
   0.00001154   0.00001473  -0.00001103            1.70        2.17       -1.62

     Energy error            =      5.5E-04 Ry
     Gradient error          =      3.8E-03 Ry/Bohr
     Cell gradient error     =      2.2E+00 kbar

     number of scf cycles    =  38
     number of bfgs steps    =  37

     enthalpy           old  =   -1971.0996352784 Ry
     enthalpy           new  =   -1971.1001874706 Ry

     CASE: enthalpy          _new < enthalpy          _old

     new trust radius        =       0.0296128035 bohr
     new conv_thr            =       0.0000000004 Ry

     new unit-cell volume =   1681.55032 a.u.^3 (   249.18005 Ang^3 )
     density =      3.19692 g/cm^3

CELL_PARAMETERS (angstrom)
   7.549060926  -0.074016488  -0.089098645
  -5.099040842   5.809305282   0.183274157
  -2.328154958   1.183911921   5.783550269

ATOMIC_POSITIONS (angstrom)
Ni              -4.4645747176        5.2500401576        5.7700644826
Mg              -3.0111262783        4.9414325777        2.6734326685
Mg               3.3189713208        1.9859059184        3.1404719968
Mg               4.3812509853        1.3761196096        0.2038607655
Mg               0.7722572655        6.5271987943        4.4676640321
Mg              -0.5877451043        0.3373573936        1.4332109031
Mg              -0.6567436390        3.8073388599        4.3580807186
Mg               0.5694375296        3.2174223094        1.4190518061
Ni              -1.7757996899        6.1277226108        5.2710162137
Ni              -1.8343605980        2.5414262053        2.3841079574
Ni               2.0516285676        4.3323307551        3.5269036606
Ni               1.8559440736        0.8271390966        0.5111524774
H               -0.5361694682        5.3276051313        5.7174815397
H               -0.3873587004        2.1667556306        2.7871808000
H                0.6514281996        4.8430245259        3.0880981150
H                0.5672246531        1.5738482330        0.1523864118
H                5.0637989460        1.0671800566        2.1903915315
H                3.7650004712        1.8009838963        5.2782778749
H               -3.4375692990        5.0378770575        0.5546790449
H               -4.9158628177        5.7683332714        4.2539394003
H               -2.7266025380        6.2470642196        4.0766386838
H               -2.7337732520        3.2422380119        1.2543515412
H                3.1440966179        3.8881362194        4.6352349797
H                2.9050885702        0.8830420566        1.6286479808
H                0.4014083237        2.3205352931        5.0101040744
H                2.4304163708        3.4898391155        2.2900086344
H               -2.4710156583        3.2306724252        3.6192916726
H               -0.6331383739        4.7102405821        0.5924309596



     Writing config-only to output data dir ./outdir/mg2nih4_ni.save/ :
     XML data file
     NEW-OLD atomic charge density approx. for the potential
     New effective cutoffs (rho, wfc):  533.13   66.68

     Check: negative core charge=   -0.000001

     total cpu time spent up to now is    18313.3 secs

     Self-consistent Calculation

     iteration #  1     ecut=    60.00 Ry     beta= 0.30
     Davidson diagonalization with overlap
     ethr =  1.00E-06,  avg # of iterations =  4.0

     total cpu time spent up to now is    18366.5 secs

     total energy              =   -1971.10039256 Ry
     estimated scf accuracy    <       0.00080666 Ry

     iteration #  2     ecut=    60.00 Ry     beta= 0.30
     Davidson diagonalization with overlap
     ethr =  6.72E-07,  avg # of iterations =  2.1

     total cpu time spent up to now is    18396.6 secs

     total energy              =   -1971.10031233 Ry
     estimated scf accuracy    <       0.00256944 Ry

     iteration #  3     ecut=    60.00 Ry     beta= 0.30
     Davidson diagonalization with overlap
     ethr =  6.72E-07,  avg # of iterations =  2.1

     total cpu time spent up to now is    18425.6 secs

     total energy              =   -1971.10051265 Ry
     estimated scf accuracy    <       0.00037792 Ry

     iteration #  4     ecut=    60.00 Ry     beta= 0.30
     Davidson diagonalization with overlap
     ethr =  3.15E-07,  avg # of iterations =  2.0

     total cpu time spent up to now is    18452.7 secs

     total energy              =   -1971.10052816 Ry
     estimated scf accuracy    <       0.00030216 Ry

     iteration #  5     ecut=    60.00 Ry     beta= 0.30
     Davidson diagonalization with overlap
     ethr =  2.52E-07,  avg # of iterations =  1.0

     total cpu time spent up to now is    18475.4 secs

     total energy              =   -1971.10054717 Ry
     estimated scf accuracy    <       0.00003360 Ry

     iteration #  6     ecut=    60.00 Ry     beta= 0.30
     Davidson diagonalization with overlap
     ethr =  2.80E-08,  avg # of iterations =  2.0

     total cpu time spent up to now is    18503.6 secs

     total energy              =   -1971.10055100 Ry
     estimated scf accuracy    <       0.00001388 Ry

     iteration #  7     ecut=    60.00 Ry     beta= 0.30
     Davidson diagonalization with overlap
     ethr =  1.16E-08,  avg # of iterations =  1.1

     total cpu time spent up to now is    18527.9 secs

     total energy              =   -1971.10055189 Ry
     estimated scf accuracy    <       0.00000078 Ry

     iteration #  8     ecut=    60.00 Ry     beta= 0.30
     Davidson diagonalization with overlap
     ethr =  6.49E-10,  avg # of iterations =  4.0

     total cpu time spent up to now is    18571.4 secs

     total energy              =   -1971.10055213 Ry
     estimated scf accuracy    <       0.00000125 Ry

     iteration #  9     ecut=    60.00 Ry     beta= 0.30
     Davidson diagonalization with overlap
     ethr =  6.49E-10,  avg # of iterations =  2.0

     total cpu time spent up to now is    18599.9 secs

     total energy              =   -1971.10055221 Ry
     estimated scf accuracy    <       0.00000011 Ry

     iteration # 10     ecut=    60.00 Ry     beta= 0.30
     Davidson diagonalization with overlap
     ethr =  9.17E-11,  avg # of iterations =  2.0

     total cpu time spent up to now is    18628.5 secs

     total energy              =   -1971.10055223 Ry
     estimated scf accuracy    <       0.00000003 Ry

     iteration # 11     ecut=    60.00 Ry     beta= 0.30
     Davidson diagonalization with overlap
     ethr =  2.58E-11,  avg # of iterations =  2.0

     total cpu time spent up to now is    18655.4 secs

     total energy              =   -1971.10055223 Ry
     estimated scf accuracy    <       0.00000003 Ry

     iteration # 12     ecut=    60.00 Ry     beta= 0.30
     Davidson diagonalization with overlap
     ethr =  2.58E-11,  avg # of iterations =  1.0

     total cpu time spent up to now is    18677.9 secs

     total energy              =   -1971.10055223 Ry
     estimated scf accuracy    <          1.9E-09 Ry

     iteration # 13     ecut=    60.00 Ry     beta= 0.30
     Davidson diagonalization with overlap
     ethr =  1.58E-12,  avg # of iterations =  2.0

     total cpu time spent up to now is    18706.9 secs

     total energy              =   -1971.10055223 Ry
     estimated scf accuracy    <          4.0E-10 Ry

     iteration # 14     ecut=    60.00 Ry     beta= 0.30
     Davidson diagonalization with overlap
     ethr =  3.37E-13,  avg # of iterations =  1.4

     total cpu time spent up to now is    18733.7 secs

     End of self-consistent calculation

     Number of k-points >= 100: set verbosity='high' to print the bands.

     the Fermi energy is     6.5367 ev

!    total energy              =   -1971.10055223 Ry
     estimated scf accuracy    <          5.2E-11 Ry
     smearing contrib. (-TS)   =       0.00129015 Ry
     internal energy E=F+TS    =   -1971.10184239 Ry

     The total energy is F=E-TS. E is the sum of the following terms:
     one-electron contribution =   -1759.97786684 Ry
     hartree contribution      =     914.35872140 Ry
     xc contribution           =    -201.22733382 Ry
     ewald contribution        =    -704.84265116 Ry
     DFT-D3 Dispersion         =      -0.36426143 Ry
     one-center paw contrib.   =    -219.04845054 Ry

     convergence has been achieved in  14 iterations

     Forces acting on atoms (cartesian axes, Ry/au):

     atom    1 type  1   force =     0.00175278    0.00131925   -0.00061346
     atom    2 type  2   force =     0.00115300   -0.00212559    0.00028521
     atom    3 type  2   force =    -0.00118520    0.00276658   -0.00045766
     atom    4 type  2   force =     0.00020451   -0.00065125    0.00008587
     atom    5 type  2   force =    -0.00084548    0.00104208    0.00102177
     atom    6 type  2   force =     0.00070275    0.00139276   -0.00062915
     atom    7 type  2   force =     0.00087612    0.00038199   -0.00069771
     atom    8 type  2   force =    -0.00122907    0.00056024   -0.00091630
     atom    9 type  1   force =    -0.00385997   -0.00074792    0.00325435
     atom   10 type  1   force =     0.00001154    0.00001716   -0.00292356
     atom   11 type  1   force =     0.00045492    0.00145940    0.00082677
     atom   12 type  1   force =    -0.00058742   -0.00323235    0.00143491
     atom   13 type  3   force =     0.00024024    0.00056041    0.00058777
     atom   14 type  3   force =     0.00054865   -0.00051434    0.00118451
     atom   15 type  3   force =    -0.00227420    0.00126986   -0.00228291
     atom   16 type  3   force =     0.00004715   -0.00018682    0.00056696
     atom   17 type  3   force =     0.00073355   -0.00302734   -0.00010480
     atom   18 type  3   force =     0.00036939   -0.00091984   -0.00095086
     atom   19 type  3   force =    -0.00043679    0.00137291    0.00186540
     atom   20 type  3   force =     0.00164187   -0.00177850    0.00083144
     atom   21 type  3   force =     0.00095953   -0.00064921   -0.00255069
     atom   22 type  3   force =    -0.00094194   -0.00116487    0.00011048
     atom   23 type  3   force =     0.00037655   -0.00173922    0.00141105
     atom   24 type  3   force =     0.00181261    0.00147230    0.00030106
     atom   25 type  3   force =    -0.00082515   -0.00112231    0.00004159
     atom   26 type  3   force =     0.00004187    0.00111912   -0.00131903
     atom   27 type  3   force =     0.00085310    0.00138763    0.00309129
     atom   28 type  3   force =    -0.00059489    0.00173785   -0.00345430

     Total force =     0.013156     Total SCF correction =     0.000018


     Computing stress (Cartesian axis) and pressure

          total   stress  (Ry/bohr**3)                   (kbar)     P=        1.66
   0.00000493   0.00000477   0.00000998            0.73        0.70        1.47
   0.00000477   0.00002073   0.00001374            0.70        3.05        2.02
   0.00000998   0.00001374   0.00000819            1.47        2.02        1.21

     Energy error            =      3.6E-04 Ry
     Gradient error          =      3.9E-03 Ry/Bohr
     Cell gradient error     =      3.0E+00 kbar

     number of scf cycles    =  39
     number of bfgs steps    =  38

     enthalpy           old  =   -1971.1001874706 Ry
     enthalpy           new  =   -1971.1005522350 Ry

     CASE: enthalpy          _new < enthalpy          _old

     new trust radius        =       0.0343955328 bohr
     new conv_thr            =       0.0000000004 Ry

     new unit-cell volume =   1680.08923 a.u.^3 (   248.96354 Ang^3 )
     density =      3.19970 g/cm^3

CELL_PARAMETERS (angstrom)
   7.544274434  -0.072285016  -0.087570408
  -5.094699753   5.812170911   0.184386398
  -2.325408690   1.186148473   5.778172764

ATOMIC_POSITIONS (angstrom)
Ni              -4.4607461305        5.2497416623        5.7750021516
Mg              -3.0070020316        4.9379979554        2.6665464044
Mg               3.3175792446        1.9940416270        3.1356152558
Mg               4.3796715292        1.3705174360        0.2029700625
Mg               0.7726393938        6.5362897427        4.4667072796
Mg              -0.5835553665        0.3427630824        1.4331090108
Mg              -0.6511433868        3.8091405122        4.3552909390
Mg               0.5652009468        3.2251791847        1.4155608622
Ni              -1.7737972595        6.1308167481        5.2667937249
Ni              -1.8355108156        2.5432000129        2.3782636823
Ni               2.0531087162        4.3432972406        3.5287442514
Ni               1.8555865289        0.8245309806        0.5126087998
H               -0.5363165726        5.3341703878        5.7083034552
H               -0.3807911071        2.1734469607        2.7838621791
H                0.6504304405        4.8550047598        3.0870137667
H                0.5689711634        1.5794325980        0.1539012779
H                5.0635537200        1.0668706712        2.1902910925
H                3.7667214069        1.8039518402        5.2702528233
H               -3.4413864512        5.0404402988        0.5607122435
H               -4.9119724055        5.7696578294        4.2611455915
H               -2.7097952554        6.2520471722        4.0622188587
H               -2.7443987580        3.2359255370        1.2600325496
H                3.1419654342        3.8900152560        4.6421352341
H                2.9103298868        0.8870605741        1.6244973856
H                0.3986187113        2.3219105459        5.0066478487
H                2.4287760402        3.4991680893        2.2947184374
H               -2.4646644854        3.2325387936        3.6200807076
H               -0.6337492620        4.7153236605        0.5868166714



     Writing config-only to output data dir ./outdir/mg2nih4_ni.save/ :
     XML data file
     NEW-OLD atomic charge density approx. for the potential
     New effective cutoffs (rho, wfc):  533.98   66.78

     Check: negative core charge=   -0.000001

     total cpu time spent up to now is    18750.7 secs

     Self-consistent Calculation

     iteration #  1     ecut=    60.00 Ry     beta= 0.30
     Davidson diagonalization with overlap
     ethr =  1.00E-06,  avg # of iterations =  4.0

     total cpu time spent up to now is    18805.2 secs

     total energy              =   -1971.10056833 Ry
     estimated scf accuracy    <       0.00135180 Ry

     iteration #  2     ecut=    60.00 Ry     beta= 0.30
     Davidson diagonalization with overlap
     ethr =  1.13E-06,  avg # of iterations =  3.1
     Minimization algorithm failed to find Fermi energy: reverting to bisection
     Possible cause: smearing is larger than the electronic band-gap.

     total cpu time spent up to now is    18841.7 secs

     total energy              =   -1971.10029737 Ry
     estimated scf accuracy    <       0.00846621 Ry

     iteration #  3     ecut=    60.00 Ry     beta= 0.30
     Davidson diagonalization with overlap
     ethr =  1.13E-06,  avg # of iterations =  3.0

     total cpu time spent up to now is    18875.3 secs

     total energy              =   -1971.10087916 Ry
     estimated scf accuracy    <       0.00027835 Ry

     iteration #  4     ecut=    60.00 Ry     beta= 0.30
     Davidson diagonalization with overlap
     ethr =  2.32E-07,  avg # of iterations =  2.0

     total cpu time spent up to now is    18904.4 secs

     total energy              =   -1971.10087900 Ry
     estimated scf accuracy    <       0.00038028 Ry

     iteration #  5     ecut=    60.00 Ry     beta= 0.30
     Davidson diagonalization with overlap
     ethr =  2.32E-07,  avg # of iterations =  1.2

     total cpu time spent up to now is    18930.5 secs

     total energy              =   -1971.10090526 Ry
     estimated scf accuracy    <       0.00001712 Ry

     iteration #  6     ecut=    60.00 Ry     beta= 0.30
     Davidson diagonalization with overlap
     ethr =  1.43E-08,  avg # of iterations =  2.0

     total cpu time spent up to now is    18961.2 secs

     total energy              =   -1971.10090662 Ry
     estimated scf accuracy    <       0.00001574 Ry

     iteration #  7     ecut=    60.00 Ry     beta= 0.30
     Davidson diagonalization with overlap
     ethr =  1.31E-08,  avg # of iterations =  1.7

     total cpu time spent up to now is    18991.7 secs

     total energy              =   -1971.10090768 Ry
     estimated scf accuracy    <       0.00000270 Ry

     iteration #  8     ecut=    60.00 Ry     beta= 0.30
     Davidson diagonalization with overlap
     ethr =  2.25E-09,  avg # of iterations =  2.0

     total cpu time spent up to now is    19021.7 secs

     total energy              =   -1971.10090794 Ry
     estimated scf accuracy    <       0.00000193 Ry

     iteration #  9     ecut=    60.00 Ry     beta= 0.30
     Davidson diagonalization with overlap
     ethr =  1.61E-09,  avg # of iterations =  1.9

     total cpu time spent up to now is    19052.3 secs

     total energy              =   -1971.10090812 Ry
     estimated scf accuracy    <       0.00000031 Ry

     iteration # 10     ecut=    60.00 Ry     beta= 0.30
     Davidson diagonalization with overlap
     ethr =  2.58E-10,  avg # of iterations =  4.1

     total cpu time spent up to now is    19099.4 secs

     total energy              =   -1971.10090829 Ry
     estimated scf accuracy    <       0.00000009 Ry

     iteration # 11     ecut=    60.00 Ry     beta= 0.30
     Davidson diagonalization with overlap
     ethr =  7.74E-11,  avg # of iterations =  1.4

     total cpu time spent up to now is    19126.5 secs

     total energy              =   -1971.10090830 Ry
     estimated scf accuracy    <       0.00000005 Ry

     iteration # 12     ecut=    60.00 Ry     beta= 0.30
     Davidson diagonalization with overlap
     ethr =  3.78E-11,  avg # of iterations =  2.0

     total cpu time spent up to now is    19154.2 secs

     total energy              =   -1971.10090830 Ry
     estimated scf accuracy    <          2.9E-09 Ry

     iteration # 13     ecut=    60.00 Ry     beta= 0.30
     Davidson diagonalization with overlap
     ethr =  2.44E-12,  avg # of iterations =  2.0

     total cpu time spent up to now is    19182.1 secs

     total energy              =   -1971.10090831 Ry
     estimated scf accuracy    <          6.1E-10 Ry

     iteration # 14     ecut=    60.00 Ry     beta= 0.30
     Davidson diagonalization with overlap
     ethr =  5.04E-13,  avg # of iterations =  2.0

     total cpu time spent up to now is    19209.4 secs

     End of self-consistent calculation

     Number of k-points >= 100: set verbosity='high' to print the bands.

     the Fermi energy is     6.5403 ev

!    total energy              =   -1971.10090831 Ry
     estimated scf accuracy    <          4.9E-11 Ry
     smearing contrib. (-TS)   =       0.00132368 Ry
     internal energy E=F+TS    =   -1971.10223199 Ry

     The total energy is F=E-TS. E is the sum of the following terms:
     one-electron contribution =   -1760.17577499 Ry
     hartree contribution      =     914.49234102 Ry
     xc contribution           =    -201.23501006 Ry
     ewald contribution        =    -704.76997837 Ry
     DFT-D3 Dispersion         =      -0.36450545 Ry
     one-center paw contrib.   =    -219.04930414 Ry

     convergence has been achieved in  14 iterations

     Forces acting on atoms (cartesian axes, Ry/au):

     atom    1 type  1   force =     0.00106311    0.00116126   -0.00080201
     atom    2 type  2   force =     0.00148407   -0.00080841    0.00135975
     atom    3 type  2   force =    -0.00160456    0.00192182   -0.00034836
     atom    4 type  2   force =    -0.00010993   -0.00042110    0.00017331
     atom    5 type  2   force =    -0.00089324    0.00076965    0.00090110
     atom    6 type  2   force =     0.00025793    0.00090378   -0.00086005
     atom    7 type  2   force =     0.00056058    0.00100088   -0.00091896
     atom    8 type  2   force =    -0.00057338    0.00062222   -0.00065602
     atom    9 type  1   force =    -0.00342084    0.00218047    0.00192605
     atom   10 type  1   force =     0.00313773   -0.00081541   -0.00029557
     atom   11 type  1   force =    -0.00086645    0.00025420    0.00129957
     atom   12 type  1   force =    -0.00147944   -0.00197446    0.00159068
     atom   13 type  3   force =     0.00183872   -0.00065280    0.00146681
     atom   14 type  3   force =    -0.00188575   -0.00024874    0.00076801
     atom   15 type  3   force =    -0.00097819    0.00059218   -0.00187618
     atom   16 type  3   force =     0.00059667   -0.00071324    0.00088823
     atom   17 type  3   force =     0.00102138   -0.00247793    0.00010032
     atom   18 type  3   force =     0.00010275   -0.00211119   -0.00084971
     atom   19 type  3   force =     0.00002004    0.00101323    0.00151717
     atom   20 type  3   force =     0.00207552   -0.00078064    0.00087314
     atom   21 type  3   force =     0.00030353   -0.00126496   -0.00290855
     atom   22 type  3   force =    -0.00141179   -0.00022265   -0.00140055
     atom   23 type  3   force =     0.00001755   -0.00094275    0.00069385
     atom   24 type  3   force =     0.00131943    0.00133294    0.00031976
     atom   25 type  3   force =     0.00003113   -0.00143989   -0.00076965
     atom   26 type  3   force =    -0.00007593    0.00065341   -0.00239029
     atom   27 type  3   force =     0.00094764    0.00079429    0.00258409
     atom   28 type  3   force =    -0.00147830    0.00167385   -0.00238595

     Total force =     0.012179     Total SCF correction =     0.000026


     Computing stress (Cartesian axis) and pressure

          total   stress  (Ry/bohr**3)                   (kbar)     P=        2.39
   0.00000696   0.00000174   0.00000441            1.02        0.26        0.65
   0.00000174   0.00002085   0.00000837            0.26        3.07        1.23
   0.00000441   0.00000837   0.00002100            0.65        1.23        3.09

     Energy error            =      3.6E-04 Ry
     Gradient error          =      3.4E-03 Ry/Bohr
     Cell gradient error     =      3.1E+00 kbar

     number of scf cycles    =  40
     number of bfgs steps    =  39

     enthalpy           old  =   -1971.1005522350 Ry
     enthalpy           new  =   -1971.1009083053 Ry

     CASE: enthalpy          _new < enthalpy          _old

     new trust radius        =       0.0273860588 bohr
     new conv_thr            =       0.0000000003 Ry

     new unit-cell volume =   1680.88141 a.u.^3 (   249.08093 Ang^3 )
     density =      3.19819 g/cm^3

CELL_PARAMETERS (angstrom)
   7.540454996  -0.069835334  -0.084118234
  -5.090540309   5.817591749   0.185445471
  -2.321467631   1.190032172   5.776397758

ATOMIC_POSITIONS (angstrom)
Ni              -4.4557690849        5.2540631039        5.7817282188
Mg              -3.0009128814        4.9384006739        2.6641052811
Mg               3.3157785715        2.0047042337        3.1347818883
Mg               4.3787040396        1.3674246220        0.2041901071
Mg               0.7750504729        6.5501146096        4.4708815146
Mg              -0.5792115880        0.3483055070        1.4329187074
Mg              -0.6440497736        3.8150317539        4.3555904910
Mg               0.5617199910        3.2343450207        1.4139851591
Ni              -1.7722858843        6.1400190909        5.2684439128
Ni              -1.8336865012        2.5458242929        2.3750046152
Ni               2.0550140999        4.3566604247        3.5341859726
Ni               1.8549948314        0.8221133534        0.5159381050
H               -0.5334946223        5.3445092247        5.7068985899
H               -0.3752005341        2.1803938945        2.7839302169
H                0.6497682546        4.8692669778        3.0875636940
H                0.5708995635        1.5844464088        0.1562161039
H                5.0645517552        1.0672919339        2.1930656621
H                3.7703737686        1.8077304726        5.2675441199
H               -3.4424343962        5.0457804628        0.5668056612
H               -4.9049736492        5.7740167863        4.2690771854
H               -2.6954130441        6.2592496376        4.0530269516
H               -2.7512492967        3.2325355493        1.2641776136
H                3.1422124037        3.8973893480        4.6537797309
H                2.9151429428        0.8931552745        1.6240310859
H                0.3980990080        2.3236798981        5.0061314634
H                2.4288788157        3.5108803269        2.2995318080
H               -2.4576514511        3.2379873154        3.6239827546
H               -0.6365970230        4.7237200131        0.5806333245



     Writing config-only to output data dir ./outdir/mg2nih4_ni.save/ :
     XML data file
     NEW-OLD atomic charge density approx. for the potential
     New effective cutoffs (rho, wfc):  534.24   66.81

     Check: negative core charge=   -0.000001

     total cpu time spent up to now is    19225.8 secs

     Self-consistent Calculation

     iteration #  1     ecut=    60.00 Ry     beta= 0.30
     Davidson diagonalization with overlap
     ethr =  1.00E-06,  avg # of iterations =  4.0

     total cpu time spent up to now is    19278.8 secs

     total energy              =   -1971.10092370 Ry
     estimated scf accuracy    <       0.00108972 Ry

     iteration #  2     ecut=    60.00 Ry     beta= 0.30
     Davidson diagonalization with overlap
     ethr =  9.08E-07,  avg # of iterations =  3.0
     Minimization algorithm failed to find Fermi energy: reverting to bisection
     Possible cause: smearing is larger than the electronic band-gap.

     total cpu time spent up to now is    19312.6 secs

     total energy              =   -1971.10069348 Ry
     estimated scf accuracy    <       0.00746281 Ry

     iteration #  3     ecut=    60.00 Ry     beta= 0.30
     Davidson diagonalization with overlap
     ethr =  9.08E-07,  avg # of iterations =  3.0

     total cpu time spent up to now is    19345.2 secs

     total energy              =   -1971.10119644 Ry
     estimated scf accuracy    <       0.00021265 Ry

     iteration #  4     ecut=    60.00 Ry     beta= 0.30
     Davidson diagonalization with overlap
     ethr =  1.77E-07,  avg # of iterations =  2.0
     Minimization algorithm failed to find Fermi energy: reverting to bisection
     Possible cause: smearing is larger than the electronic band-gap.

     total cpu time spent up to now is    19373.2 secs

     total energy              =   -1971.10120081 Ry
     estimated scf accuracy    <       0.00023439 Ry

     iteration #  5     ecut=    60.00 Ry     beta= 0.30
     Davidson diagonalization with overlap
     ethr =  1.77E-07,  avg # of iterations =  1.5

     total cpu time spent up to now is    19401.1 secs

     total energy              =   -1971.10121668 Ry
     estimated scf accuracy    <       0.00002174 Ry

     iteration #  6     ecut=    60.00 Ry     beta= 0.30
     Davidson diagonalization with overlap
     ethr =  1.81E-08,  avg # of iterations =  2.0

     total cpu time spent up to now is    19429.3 secs

     total energy              =   -1971.10121872 Ry
     estimated scf accuracy    <       0.00001783 Ry

     iteration #  7     ecut=    60.00 Ry     beta= 0.30
     Davidson diagonalization with overlap
     ethr =  1.49E-08,  avg # of iterations =  1.0

     total cpu time spent up to now is    19451.6 secs

     total energy              =   -1971.10121999 Ry
     estimated scf accuracy    <       0.00000112 Ry

     iteration #  8     ecut=    60.00 Ry     beta= 0.30
     Davidson diagonalization with overlap
     ethr =  9.34E-10,  avg # of iterations =  4.3

     total cpu time spent up to now is    19494.7 secs

     total energy              =   -1971.10122028 Ry
     estimated scf accuracy    <       0.00000154 Ry

     iteration #  9     ecut=    60.00 Ry     beta= 0.30
     Davidson diagonalization with overlap
     ethr =  9.34E-10,  avg # of iterations =  1.8
     Minimization algorithm failed to find Fermi energy: reverting to bisection
     Possible cause: smearing is larger than the electronic band-gap.

     total cpu time spent up to now is    19524.3 secs

     total energy              =   -1971.10122038 Ry
     estimated scf accuracy    <       0.00000016 Ry

     iteration # 10     ecut=    60.00 Ry     beta= 0.30
     Davidson diagonalization with overlap
     ethr =  1.36E-10,  avg # of iterations =  2.1

     total cpu time spent up to now is    19553.8 secs

     total energy              =   -1971.10122040 Ry
     estimated scf accuracy    <       0.00000003 Ry

     iteration # 11     ecut=    60.00 Ry     beta= 0.30
     Davidson diagonalization with overlap
     ethr =  2.27E-11,  avg # of iterations =  2.2

     total cpu time spent up to now is    19583.3 secs

     total energy              =   -1971.10122041 Ry
     estimated scf accuracy    <          4.8E-09 Ry

     iteration # 12     ecut=    60.00 Ry     beta= 0.30
     Davidson diagonalization with overlap
     ethr =  4.01E-12,  avg # of iterations =  2.4

     total cpu time spent up to now is    19614.6 secs

     total energy              =   -1971.10122041 Ry
     estimated scf accuracy    <          7.3E-09 Ry

     iteration # 13     ecut=    60.00 Ry     beta= 0.30
     Davidson diagonalization with overlap
     ethr =  4.01E-12,  avg # of iterations =  1.6

     total cpu time spent up to now is    19642.8 secs

     End of self-consistent calculation

     Number of k-points >= 100: set verbosity='high' to print the bands.

     the Fermi energy is     6.5305 ev

!    total energy              =   -1971.10122041 Ry
     estimated scf accuracy    <          1.6E-10 Ry
     smearing contrib. (-TS)   =       0.00136419 Ry
     internal energy E=F+TS    =   -1971.10258460 Ry

     The total energy is F=E-TS. E is the sum of the following terms:
     one-electron contribution =   -1760.91074742 Ry
     hartree contribution      =     914.84542520 Ry
     xc contribution           =    -201.23096445 Ry
     ewald contribution        =    -704.39311080 Ry
     DFT-D3 Dispersion         =      -0.36434038 Ry
     one-center paw contrib.   =    -219.04884674 Ry

     convergence has been achieved in  13 iterations

     Forces acting on atoms (cartesian axes, Ry/au):

     atom    1 type  1   force =     0.00034423    0.00084412   -0.00120009
     atom    2 type  2   force =     0.00153015    0.00025144    0.00193664
     atom    3 type  2   force =    -0.00166382    0.00090821   -0.00017433
     atom    4 type  2   force =    -0.00045904   -0.00010854    0.00037424
     atom    5 type  2   force =    -0.00082393    0.00042717    0.00073590
     atom    6 type  2   force =    -0.00028099    0.00029773   -0.00080778
     atom    7 type  2   force =     0.00036570    0.00126242   -0.00072953
     atom    8 type  2   force =    -0.00002279    0.00072105   -0.00043623
     atom    9 type  1   force =    -0.00171461    0.00355437    0.00012623
     atom   10 type  1   force =     0.00377583   -0.00125329    0.00219343
     atom   11 type  1   force =    -0.00165012   -0.00095776    0.00119429
     atom   12 type  1   force =    -0.00141638   -0.00054546    0.00121532
     atom   13 type  3   force =     0.00201750   -0.00110397    0.00162237
     atom   14 type  3   force =    -0.00308056   -0.00017250    0.00052328
     atom   15 type  3   force =     0.00050374   -0.00005101   -0.00129513
     atom   16 type  3   force =     0.00100431   -0.00100382    0.00113971
     atom   17 type  3   force =     0.00148963   -0.00111239    0.00037139
     atom   18 type  3   force =    -0.00012362   -0.00256491   -0.00074557
     atom   19 type  3   force =     0.00018520    0.00066836    0.00126840
     atom   20 type  3   force =     0.00201424   -0.00001027    0.00074696
     atom   21 type  3   force =     0.00035962   -0.00158682   -0.00274177
     atom   22 type  3   force =    -0.00161907    0.00023543   -0.00207736
     atom   23 type  3   force =    -0.00055064   -0.00044092   -0.00026830
     atom   24 type  3   force =     0.00056700    0.00114355   -0.00005424
     atom   25 type  3   force =     0.00044547   -0.00156007   -0.00095534
     atom   26 type  3   force =    -0.00040669    0.00077023   -0.00238379
     atom   27 type  3   force =     0.00133411   -0.00019827    0.00130835
     atom   28 type  3   force =    -0.00212448    0.00158592   -0.00088704

     Total force =     0.011991     Total SCF correction =     0.000033


     Computing stress (Cartesian axis) and pressure

          total   stress  (Ry/bohr**3)                   (kbar)     P=        1.80
   0.00000321  -0.00000025  -0.00000256            0.47       -0.04       -0.38
  -0.00000025   0.00001246   0.00000218           -0.04        1.83        0.32
  -0.00000256   0.00000218   0.00002109           -0.38        0.32        3.10

     Energy error            =      3.1E-04 Ry
     Gradient error          =      3.8E-03 Ry/Bohr
     Cell gradient error     =      3.1E+00 kbar

     number of scf cycles    =  41
     number of bfgs steps    =  40

     enthalpy           old  =   -1971.1009083053 Ry
     enthalpy           new  =   -1971.1012204096 Ry

     CASE: enthalpy          _new < enthalpy          _old

     new trust radius        =       0.0239307213 bohr
     new conv_thr            =       0.0000000003 Ry

     new unit-cell volume =   1683.47188 a.u.^3 (   249.46480 Ang^3 )
     density =      3.19327 g/cm^3

CELL_PARAMETERS (angstrom)
   7.538017848  -0.067076174  -0.080870786
  -5.087080499   5.823985088   0.186218544
  -2.318083544   1.193645385   5.778504243

ATOMIC_POSITIONS (angstrom)
Ni              -4.4507333836        5.2608029570        5.7885467678
Mg              -2.9947053479        4.9405338739        2.6648931870
Mg               3.3132189064        2.0156633678        3.1370046316
Mg               4.3780732917        1.3660740805        0.2066348969
Mg               0.7773417829        6.5647805033        4.4778133908
Mg              -0.5754829875        0.3534483739        1.4330593730
Mg              -0.6370189575        3.8219154267        4.3583643557
Mg               0.5593529254        3.2438022068        1.4136277348
Ni              -1.7713298466        6.1525398644        5.2735236852
Ni              -1.8303266121        2.5478018609        2.3757027517
Ni               2.0561180729        4.3694356691        3.5410302042
Ni               1.8543355900        0.8200664258        0.5198522746
H               -0.5298980383        5.3549072234        5.7105071661
H               -0.3721453596        2.1867119934        2.7860665289
H                0.6495469914        4.8825684855        3.0892600309
H                0.5735807665        1.5887073853        0.1594174980
H                5.0666510932        1.0682098034        2.1978160348
H                3.7744306915        1.8101949857        5.2684793611
H               -3.4430340626        5.0523102192        0.5727495988
H               -4.8970719191        5.7794290353        4.2756373626
H               -2.6831339569        6.2655570305        4.0475295049
H               -2.7554354510        3.2309008575        1.2666089639
H                3.1413124155        3.9056924255        4.6670027529
H                2.9187510854        0.9000308368        1.6256325639
H                0.3986978266        2.3237560009        5.0082732822
H                2.4298674941        3.5233486978        2.3032617279
H               -2.4505963678        3.2443004738        3.6301227824
H               -0.6404133767        4.7342701262        0.5755096091



     Writing config-only to output data dir ./outdir/mg2nih4_ni.save/ :
     XML data file
     NEW-OLD atomic charge density approx. for the potential
     New effective cutoffs (rho, wfc):  533.89   66.77

     Check: negative core charge=   -0.000001

     total cpu time spent up to now is    19659.3 secs

     Self-consistent Calculation

     iteration #  1     ecut=    60.00 Ry     beta= 0.30
     Davidson diagonalization with overlap
     ethr =  1.00E-06,  avg # of iterations =  4.0

     total cpu time spent up to now is    19711.9 secs

     total energy              =   -1971.10135474 Ry
     estimated scf accuracy    <       0.00064810 Ry

     iteration #  2     ecut=    60.00 Ry     beta= 0.30
     Davidson diagonalization with overlap
     ethr =  5.40E-07,  avg # of iterations =  3.0

     total cpu time spent up to now is    19745.6 secs

     total energy              =   -1971.10125272 Ry
     estimated scf accuracy    <       0.00339471 Ry

     iteration #  3     ecut=    60.00 Ry     beta= 0.30
     Davidson diagonalization with overlap
     ethr =  5.40E-07,  avg # of iterations =  3.0

     total cpu time spent up to now is    19778.1 secs

     total energy              =   -1971.10149260 Ry
     estimated scf accuracy    <       0.00024930 Ry

     iteration #  4     ecut=    60.00 Ry     beta= 0.30
     Davidson diagonalization with overlap
     ethr =  2.08E-07,  avg # of iterations =  2.0

     total cpu time spent up to now is    19805.1 secs

     total energy              =   -1971.10150987 Ry
     estimated scf accuracy    <       0.00010568 Ry

     iteration #  5     ecut=    60.00 Ry     beta= 0.30
     Davidson diagonalization with overlap
     ethr =  8.81E-08,  avg # of iterations =  1.2

     total cpu time spent up to now is    19829.2 secs

     total energy              =   -1971.10151623 Ry
     estimated scf accuracy    <       0.00001581 Ry

     iteration #  6     ecut=    60.00 Ry     beta= 0.30
     Davidson diagonalization with overlap
     ethr =  1.32E-08,  avg # of iterations =  2.0

     total cpu time spent up to now is    19857.6 secs

     total energy              =   -1971.10151760 Ry
     estimated scf accuracy    <       0.00001392 Ry

     iteration #  7     ecut=    60.00 Ry     beta= 0.30
     Davidson diagonalization with overlap
     ethr =  1.16E-08,  avg # of iterations =  1.0

     total cpu time spent up to now is    19880.0 secs

     total energy              =   -1971.10151855 Ry
     estimated scf accuracy    <       0.00000084 Ry

     iteration #  8     ecut=    60.00 Ry     beta= 0.30
     Davidson diagonalization with overlap
     ethr =  7.04E-10,  avg # of iterations =  4.4

     total cpu time spent up to now is    19923.2 secs

     total energy              =   -1971.10151872 Ry
     estimated scf accuracy    <       0.00000100 Ry

     iteration #  9     ecut=    60.00 Ry     beta= 0.30
     Davidson diagonalization with overlap
     ethr =  7.04E-10,  avg # of iterations =  1.0

     total cpu time spent up to now is    19946.0 secs

     total energy              =   -1971.10151880 Ry
     estimated scf accuracy    <       0.00000010 Ry

     iteration # 10     ecut=    60.00 Ry     beta= 0.30
     Davidson diagonalization with overlap
     ethr =  8.23E-11,  avg # of iterations =  3.2

     total cpu time spent up to now is    19983.1 secs

     total energy              =   -1971.10151883 Ry
     estimated scf accuracy    <       0.00000002 Ry

     iteration # 11     ecut=    60.00 Ry     beta= 0.30
     Davidson diagonalization with overlap
     ethr =  2.03E-11,  avg # of iterations =  2.4

     total cpu time spent up to now is    20013.0 secs

     total energy              =   -1971.10151883 Ry
     estimated scf accuracy    <       0.00000002 Ry

     iteration # 12     ecut=    60.00 Ry     beta= 0.30
     Davidson diagonalization with overlap
     ethr =  1.66E-11,  avg # of iterations =  1.0

     total cpu time spent up to now is    20035.8 secs

     total energy              =   -1971.10151883 Ry
     estimated scf accuracy    <          1.8E-09 Ry

     iteration # 13     ecut=    60.00 Ry     beta= 0.30
     Davidson diagonalization with overlap
     ethr =  1.49E-12,  avg # of iterations =  2.5

     total cpu time spent up to now is    20067.5 secs

     End of self-consistent calculation

     Number of k-points >= 100: set verbosity='high' to print the bands.

     the Fermi energy is     6.5105 ev

!    total energy              =   -1971.10151883 Ry
     estimated scf accuracy    <          2.5E-10 Ry
     smearing contrib. (-TS)   =       0.00140257 Ry
     internal energy E=F+TS    =   -1971.10292140 Ry

     The total energy is F=E-TS. E is the sum of the following terms:
     one-electron contribution =   -1761.90446100 Ry
     hartree contribution      =     915.28604074 Ry
     xc contribution           =    -201.21862555 Ry
     ewald contribution        =    -703.85463353 Ry
     DFT-D3 Dispersion         =      -0.36385826 Ry
     one-center paw contrib.   =    -219.04738380 Ry

     convergence has been achieved in  13 iterations

     Forces acting on atoms (cartesian axes, Ry/au):

     atom    1 type  1   force =    -0.00060804    0.00017135   -0.00108923
     atom    2 type  2   force =     0.00135254    0.00097129    0.00202109
     atom    3 type  2   force =    -0.00147494   -0.00002665   -0.00009855
     atom    4 type  2   force =    -0.00072412    0.00019866    0.00059628
     atom    5 type  2   force =    -0.00054545    0.00006662    0.00061233
     atom    6 type  2   force =    -0.00072950   -0.00031304   -0.00053952
     atom    7 type  2   force =     0.00034357    0.00121446   -0.00021687
     atom    8 type  2   force =     0.00026453    0.00078710   -0.00029098
     atom    9 type  1   force =     0.00019146    0.00290255   -0.00119218
     atom   10 type  1   force =     0.00218182   -0.00086996    0.00314736
     atom   11 type  1   force =    -0.00178377   -0.00199109    0.00068899
     atom   12 type  1   force =    -0.00056997    0.00062043    0.00046360
     atom   13 type  3   force =     0.00120282   -0.00096593    0.00130983
     atom   14 type  3   force =    -0.00272456   -0.00031159    0.00052718
     atom   15 type  3   force =     0.00155140   -0.00046514   -0.00077635
     atom   16 type  3   force =     0.00095916   -0.00091345    0.00119911
     atom   17 type  3   force =     0.00184252    0.00032461    0.00059129
     atom   18 type  3   force =    -0.00013050   -0.00188782   -0.00054265
     atom   19 type  3   force =     0.00028781    0.00036545    0.00100146
     atom   20 type  3   force =     0.00167526    0.00053635    0.00064783
     atom   21 type  3   force =     0.00075362   -0.00164008   -0.00230901
     atom   22 type  3   force =    -0.00108905    0.00037370   -0.00205113
     atom   23 type  3   force =    -0.00100540   -0.00013714   -0.00119096
     atom   24 type  3   force =    -0.00012322    0.00095309   -0.00046792
     atom   25 type  3   force =     0.00037124   -0.00151370   -0.00061457
     atom   26 type  3   force =    -0.00075010    0.00114066   -0.00174163
     atom   27 type  3   force =     0.00158219   -0.00110191    0.00000162
     atom   28 type  3   force =    -0.00230132    0.00151119    0.00031359

     Total force =     0.010816     Total SCF correction =     0.000028


     Computing stress (Cartesian axis) and pressure

          total   stress  (Ry/bohr**3)                   (kbar)     P=        0.38
  -0.00000303  -0.00000148  -0.00000743           -0.45       -0.22       -1.09
  -0.00000148   0.00000014  -0.00000225           -0.22        0.02       -0.33
  -0.00000743  -0.00000225   0.00001070           -1.09       -0.33        1.57

     Energy error            =      3.0E-04 Ry
     Gradient error          =      3.1E-03 Ry/Bohr
     Cell gradient error     =      1.6E+00 kbar

     number of scf cycles    =  42
     number of bfgs steps    =  41

     enthalpy           old  =   -1971.1012204096 Ry
     enthalpy           new  =   -1971.1015188287 Ry

     CASE: enthalpy          _new < enthalpy          _old

     new trust radius        =       0.0198666963 bohr
     new conv_thr            =       0.0000000003 Ry

     new unit-cell volume =   1685.84706 a.u.^3 (   249.81676 Ang^3 )
     density =      3.18877 g/cm^3

CELL_PARAMETERS (angstrom)
   7.535421352  -0.065161255  -0.079828461
  -5.084059447   5.829151565   0.187384460
  -2.316399512   1.196133249   5.782237657

ATOMIC_POSITIONS (angstrom)
Ni              -4.4478231083        5.2659182885        5.7950947079
Mg              -2.9893858194        4.9429829227        2.6679906788
Mg               3.3091871854        2.0237578390        3.1390792601
Mg               4.3765474475        1.3656306090        0.2081653320
Mg               0.7779510322        6.5758577874        4.4843112077
Mg              -0.5734179695        0.3568636848        1.4334298927
Mg              -0.6321662139        3.8277806127        4.3617607533
Mg               0.5572616967        3.2513650591        1.4133650515
Ni              -1.7711763087        6.1636655304        5.2780351611
Ni              -1.8269373865        2.5487206613        2.3792699235
Ni               2.0546805520        4.3775971613        3.5467381836
Ni               1.8534099258        0.8189438287        0.5228543740
H               -0.5277035851        5.3621857945        5.7159378499
H               -0.3718747011        2.1907700997        2.7891611752
H                0.6493906219        4.8921927470        3.0901090945
H                0.5759689467        1.5912627045        0.1623631679
H                5.0683271059        1.0690649580        2.2014609299
H                3.7759217414        1.8105064204        5.2696124780
H               -3.4426891002        5.0574996306        0.5782010982
H               -4.8903572524        5.7839699528        4.2817050522
H               -2.6745725782        6.2690472404        4.0438877172
H               -2.7580589386        3.2302167276        1.2673282425
H                3.1386941154        3.9118027660        4.6768081725
H                2.9203281189        0.9059904163        1.6268657678
H                0.3985349411        2.3223021458        5.0106908508
H                2.4295778079        3.5336718936        2.3048690885
H               -2.4446138765        3.2485038329        3.6360476961
H               -0.6455309021        4.7436585097        0.5719682800



     Writing config-only to output data dir ./outdir/mg2nih4_ni.save/ :
     XML data file
     NEW-OLD atomic charge density approx. for the potential
     New effective cutoffs (rho, wfc):  533.53   66.73

     Check: negative core charge=   -0.000001

     total cpu time spent up to now is    20084.0 secs

     Self-consistent Calculation

     iteration #  1     ecut=    60.00 Ry     beta= 0.30
     Davidson diagonalization with overlap
     ethr =  1.00E-06,  avg # of iterations =  4.0

     total cpu time spent up to now is    20137.8 secs

     total energy              =   -1971.10167094 Ry
     estimated scf accuracy    <       0.00025830 Ry

     iteration #  2     ecut=    60.00 Ry     beta= 0.30
     Davidson diagonalization with overlap
     ethr =  2.15E-07,  avg # of iterations =  2.0

     total cpu time spent up to now is    20167.2 secs

     total energy              =   -1971.10166402 Ry
     estimated scf accuracy    <       0.00040450 Ry

     iteration #  3     ecut=    60.00 Ry     beta= 0.30
     Davidson diagonalization with overlap
     ethr =  2.15E-07,  avg # of iterations =  2.0

     total cpu time spent up to now is    20195.4 secs

     total energy              =   -1971.10169362 Ry
     estimated scf accuracy    <       0.00015324 Ry

     iteration #  4     ecut=    60.00 Ry     beta= 0.30
     Davidson diagonalization with overlap
     ethr =  1.28E-07,  avg # of iterations =  2.0

     total cpu time spent up to now is    20222.7 secs

     total energy              =   -1971.10170143 Ry
     estimated scf accuracy    <       0.00011848 Ry

     iteration #  5     ecut=    60.00 Ry     beta= 0.30
     Davidson diagonalization with overlap
     ethr =  9.87E-08,  avg # of iterations =  1.0

     total cpu time spent up to now is    20245.5 secs

     total energy              =   -1971.10170813 Ry
     estimated scf accuracy    <       0.00000751 Ry

     iteration #  6     ecut=    60.00 Ry     beta= 0.30
     Davidson diagonalization with overlap
     ethr =  6.26E-09,  avg # of iterations =  2.0

     total cpu time spent up to now is    20274.6 secs

     total energy              =   -1971.10170876 Ry
     estimated scf accuracy    <       0.00001162 Ry

     iteration #  7     ecut=    60.00 Ry     beta= 0.30
     Davidson diagonalization with overlap
     ethr =  6.26E-09,  avg # of iterations =  1.0

     total cpu time spent up to now is    20297.7 secs

     total energy              =   -1971.10170949 Ry
     estimated scf accuracy    <       0.00000076 Ry

     iteration #  8     ecut=    60.00 Ry     beta= 0.30
     Davidson diagonalization with overlap
     ethr =  6.33E-10,  avg # of iterations =  2.1

     total cpu time spent up to now is    20327.4 secs

     total energy              =   -1971.10170958 Ry
     estimated scf accuracy    <       0.00000059 Ry

     iteration #  9     ecut=    60.00 Ry     beta= 0.30
     Davidson diagonalization with overlap
     ethr =  4.95E-10,  avg # of iterations =  1.5

     total cpu time spent up to now is    20355.4 secs

     total energy              =   -1971.10170964 Ry
     estimated scf accuracy    <       0.00000009 Ry

     iteration # 10     ecut=    60.00 Ry     beta= 0.30
     Davidson diagonalization with overlap
     ethr =  7.44E-11,  avg # of iterations =  4.4

     total cpu time spent up to now is    20405.5 secs

     total energy              =   -1971.10170968 Ry
     estimated scf accuracy    <       0.00000001 Ry

     iteration # 11     ecut=    60.00 Ry     beta= 0.30
     Davidson diagonalization with overlap
     ethr =  9.65E-12,  avg # of iterations =  1.8

     total cpu time spent up to now is    20434.8 secs

     total energy              =   -1971.10170968 Ry
     estimated scf accuracy    <          7.4E-09 Ry

     iteration # 12     ecut=    60.00 Ry     beta= 0.30
     Davidson diagonalization with overlap
     ethr =  6.20E-12,  avg # of iterations =  1.0

     total cpu time spent up to now is    20457.8 secs

     total energy              =   -1971.10170968 Ry
     estimated scf accuracy    <          1.1E-09 Ry

     iteration # 13     ecut=    60.00 Ry     beta= 0.30
     Davidson diagonalization with overlap
     ethr =  8.96E-13,  avg # of iterations =  1.8

     total cpu time spent up to now is    20485.5 secs

     End of self-consistent calculation

     Number of k-points >= 100: set verbosity='high' to print the bands.

     the Fermi energy is     6.4927 ev

!    total energy              =   -1971.10170968 Ry
     estimated scf accuracy    <          1.1E-10 Ry
     smearing contrib. (-TS)   =       0.00142850 Ry
     internal energy E=F+TS    =   -1971.10313819 Ry

     The total energy is F=E-TS. E is the sum of the following terms:
     one-electron contribution =   -1762.55562436 Ry
     hartree contribution      =     915.55775029 Ry
     xc contribution           =    -201.20737905 Ry
     ewald contribution        =    -703.48851150 Ry
     DFT-D3 Dispersion         =      -0.36337883 Ry
     one-center paw contrib.   =    -219.04599474 Ry

     convergence has been achieved in  13 iterations

     Forces acting on atoms (cartesian axes, Ry/au):

     atom    1 type  1   force =    -0.00144560   -0.00027856   -0.00094566
     atom    2 type  2   force =     0.00103725    0.00115368    0.00161358
     atom    3 type  2   force =    -0.00116655   -0.00055552   -0.00013654
     atom    4 type  2   force =    -0.00073992    0.00044194    0.00075176
     atom    5 type  2   force =    -0.00015867   -0.00020605    0.00051967
     atom    6 type  2   force =    -0.00091374   -0.00069686   -0.00019340
     atom    7 type  2   force =     0.00047985    0.00092266    0.00032388
     atom    8 type  2   force =     0.00016302    0.00070024   -0.00017318
     atom    9 type  1   force =     0.00115796    0.00084432   -0.00147457
     atom   10 type  1   force =    -0.00033246    0.00009269    0.00232266
     atom   11 type  1   force =    -0.00116985   -0.00226548    0.00032267
     atom   12 type  1   force =     0.00044843    0.00110672   -0.00029290
     atom   13 type  3   force =     0.00004011   -0.00050233    0.00083198
     atom   14 type  3   force =    -0.00129939   -0.00054203    0.00067045
     atom   15 type  3   force =     0.00184792   -0.00060573   -0.00044824
     atom   16 type  3   force =     0.00047920   -0.00052803    0.00105963
     atom   17 type  3   force =     0.00186482    0.00117203    0.00068826
     atom   18 type  3   force =     0.00007529   -0.00043807   -0.00027831
     atom   19 type  3   force =     0.00039099    0.00019316    0.00079154
     atom   20 type  3   force =     0.00124024    0.00056115    0.00061097
     atom   21 type  3   force =     0.00121357   -0.00145713   -0.00173395
     atom   22 type  3   force =    -0.00018296    0.00016311   -0.00133098
     atom   23 type  3   force =    -0.00126966   -0.00001005   -0.00176461
     atom   24 type  3   force =    -0.00044017    0.00076868   -0.00067007
     atom   25 type  3   force =    -0.00000893   -0.00138816   -0.00006370
     atom   26 type  3   force =    -0.00091757    0.00142030   -0.00103497
     atom   27 type  3   force =     0.00144671   -0.00153692   -0.00070001
     atom   28 type  3   force =    -0.00183989    0.00147027    0.00073405

     Total force =     0.009015     Total SCF correction =     0.000027


     Computing stress (Cartesian axis) and pressure

          total   stress  (Ry/bohr**3)                   (kbar)     P=       -0.91
  -0.00000709  -0.00000181  -0.00000892           -1.04       -0.27       -1.31
  -0.00000181  -0.00000945  -0.00000416           -0.27       -1.39       -0.61
  -0.00000892  -0.00000416  -0.00000195           -1.31       -0.61       -0.29

     Energy error            =      1.9E-04 Ry
     Gradient error          =      2.3E-03 Ry/Bohr
     Cell gradient error     =      1.4E+00 kbar

     number of scf cycles    =  43
     number of bfgs steps    =  42

     enthalpy           old  =   -1971.1015188287 Ry
     enthalpy           new  =   -1971.1017096823 Ry

     CASE: enthalpy          _new < enthalpy          _old

     new trust radius        =       0.0198159186 bohr
     new conv_thr            =       0.0000000002 Ry

     new unit-cell volume =   1686.71926 a.u.^3 (   249.94601 Ang^3 )
     density =      3.18712 g/cm^3

CELL_PARAMETERS (angstrom)
   7.531568018  -0.064404578  -0.081268491
  -5.080962127   5.832054931   0.188963407
  -2.316320605   1.197176859   5.785340958

ATOMIC_POSITIONS (angstrom)
Ni              -4.4476867384        5.2678129657        5.8004503540
Mg              -2.9848581982        4.9442264266        2.6714620775
Mg               3.3032616422        2.0284174522        3.1390251821
Mg               4.3735770478        1.3645934081        0.2082524042
Mg               0.7764366474        6.5818645801        4.4883062037
Mg              -0.5726766192        0.3588219232        1.4336805619
Mg              -0.6294036900        3.8313552374        4.3640281527
Mg               0.5547604937        3.2568035609        1.4122058459
Ni              -1.7718661637        6.1705104655        5.2797285005
Ni              -1.8249760732        2.5487971221        2.3834418142
Ni               2.0509312917        4.3805406702        3.5500934913
Ni               1.8522712704        0.8184302094        0.5244003086
H               -0.5277581428        5.3651828059        5.7197823175
H               -0.3732548664        2.1927307874        2.7916421575
H                0.6489308425        4.8975437680        3.0893181367
H                0.5777475260        1.5925415704        0.1648922392
H                5.0689038530        1.0691415021        2.2030050410
H                3.7747335386        1.8089202739        5.2684945877
H               -3.4420740024        5.0604383361        0.5833585602
H               -4.8846402193        5.7863256652        4.2878352778
H               -2.6678991920        6.2685595616        4.0389977196
H               -2.7605162055        3.2290962683        1.2670242595
H                3.1334518463        3.9144424118        4.6817696367
H                2.9202685846        0.9104270104        1.6263537819
H                0.3966120450        2.3186663466        5.0115100161
H                2.4271467460        3.5411892824        2.3039854895
H               -2.4397444608        3.2495148837        3.6404406512
H               -0.6516848015        4.7506864696        0.5690174738



     Writing config-only to output data dir ./outdir/mg2nih4_ni.save/ :
     XML data file
     NEW-OLD atomic charge density approx. for the potential
     New effective cutoffs (rho, wfc):  533.55   66.72

     Check: negative core charge=   -0.000001

     total cpu time spent up to now is    20502.4 secs

     Self-consistent Calculation

     iteration #  1     ecut=    60.00 Ry     beta= 0.30
     Davidson diagonalization with overlap
     ethr =  1.00E-06,  avg # of iterations =  3.1

     total cpu time spent up to now is    20548.8 secs

     total energy              =   -1971.10185093 Ry
     estimated scf accuracy    <       0.00016588 Ry

     iteration #  2     ecut=    60.00 Ry     beta= 0.30
     Davidson diagonalization with overlap
     ethr =  1.38E-07,  avg # of iterations =  2.0

     total cpu time spent up to now is    20577.4 secs

     total energy              =   -1971.10183483 Ry
     estimated scf accuracy    <       0.00026478 Ry

     iteration #  3     ecut=    60.00 Ry     beta= 0.30
     Davidson diagonalization with overlap
     ethr =  1.38E-07,  avg # of iterations =  2.0

     total cpu time spent up to now is    20605.2 secs

     total energy              =   -1971.10185481 Ry
     estimated scf accuracy    <       0.00014993 Ry

     iteration #  4     ecut=    60.00 Ry     beta= 0.30
     Davidson diagonalization with overlap
     ethr =  1.25E-07,  avg # of iterations =  1.9

     total cpu time spent up to now is    20634.3 secs

     total energy              =   -1971.10186095 Ry
     estimated scf accuracy    <       0.00004170 Ry

     iteration #  5     ecut=    60.00 Ry     beta= 0.30
     Davidson diagonalization with overlap
     ethr =  3.48E-08,  avg # of iterations =  1.7

     total cpu time spent up to now is    20663.3 secs

     total energy              =   -1971.10186400 Ry
     estimated scf accuracy    <       0.00000638 Ry

     iteration #  6     ecut=    60.00 Ry     beta= 0.30
     Davidson diagonalization with overlap
     ethr =  5.32E-09,  avg # of iterations =  2.0

     total cpu time spent up to now is    20693.0 secs

     total energy              =   -1971.10186435 Ry
     estimated scf accuracy    <       0.00000719 Ry

     iteration #  7     ecut=    60.00 Ry     beta= 0.30
     Davidson diagonalization with overlap
     ethr =  5.32E-09,  avg # of iterations =  1.1

     total cpu time spent up to now is    20717.5 secs

     total energy              =   -1971.10186484 Ry
     estimated scf accuracy    <       0.00000040 Ry

     iteration #  8     ecut=    60.00 Ry     beta= 0.30
     Davidson diagonalization with overlap
     ethr =  3.37E-10,  avg # of iterations =  4.4

     total cpu time spent up to now is    20761.2 secs

     total energy              =   -1971.10186494 Ry
     estimated scf accuracy    <       0.00000061 Ry

     iteration #  9     ecut=    60.00 Ry     beta= 0.30
     Davidson diagonalization with overlap
     ethr =  3.37E-10,  avg # of iterations =  1.6

     total cpu time spent up to now is    20789.6 secs

     total energy              =   -1971.10186498 Ry
     estimated scf accuracy    <       0.00000006 Ry

     iteration # 10     ecut=    60.00 Ry     beta= 0.30
     Davidson diagonalization with overlap
     ethr =  4.79E-11,  avg # of iterations =  2.3

     total cpu time spent up to now is    20820.1 secs

     total energy              =   -1971.10186499 Ry
     estimated scf accuracy    <       0.00000001 Ry

     iteration # 11     ecut=    60.00 Ry     beta= 0.30
     Davidson diagonalization with overlap
     ethr =  1.10E-11,  avg # of iterations =  2.7

     total cpu time spent up to now is    20851.3 secs

     total energy              =   -1971.10186499 Ry
     estimated scf accuracy    <          9.8E-09 Ry

     iteration # 12     ecut=    60.00 Ry     beta= 0.30
     Davidson diagonalization with overlap
     ethr =  8.17E-12,  avg # of iterations =  1.0

     total cpu time spent up to now is    20873.9 secs

     total energy              =   -1971.10186499 Ry
     estimated scf accuracy    <          7.9E-10 Ry

     iteration # 13     ecut=    60.00 Ry     beta= 0.30
     Davidson diagonalization with overlap
     ethr =  6.62E-13,  avg # of iterations =  2.9

     total cpu time spent up to now is    20908.2 secs

     End of self-consistent calculation

     Number of k-points >= 100: set verbosity='high' to print the bands.

     the Fermi energy is     6.4845 ev

!    total energy              =   -1971.10186499 Ry
     estimated scf accuracy    <          1.2E-10 Ry
     smearing contrib. (-TS)   =       0.00144259 Ry
     internal energy E=F+TS    =   -1971.10330759 Ry

     The total energy is F=E-TS. E is the sum of the following terms:
     one-electron contribution =   -1762.69498380 Ry
     hartree contribution      =     915.60536049 Ry
     xc contribution           =    -201.20335904 Ry
     ewald contribution        =    -703.40175749 Ry
     DFT-D3 Dispersion         =      -0.36320308 Ry
     one-center paw contrib.   =    -219.04536467 Ry

     convergence has been achieved in  13 iterations

     Forces acting on atoms (cartesian axes, Ry/au):

     atom    1 type  1   force =    -0.00188312   -0.00041769   -0.00072190
     atom    2 type  2   force =     0.00062532    0.00092397    0.00094620
     atom    3 type  2   force =    -0.00084097   -0.00067889   -0.00022547
     atom    4 type  2   force =    -0.00054233    0.00058606    0.00076530
     atom    5 type  2   force =     0.00019186   -0.00033910    0.00037576
     atom    6 type  2   force =    -0.00084251   -0.00086826    0.00017385
     atom    7 type  2   force =     0.00069347    0.00048879    0.00076163
     atom    8 type  2   force =    -0.00018830    0.00042248    0.00001450
     atom    9 type  1   force =     0.00115292   -0.00137883   -0.00103933
     atom   10 type  1   force =    -0.00223867    0.00105941    0.00057497
     atom   11 type  1   force =    -0.00033912   -0.00188122    0.00005307
     atom   12 type  1   force =     0.00112957    0.00110492   -0.00079716
     atom   13 type  3   force =    -0.00090070   -0.00003127    0.00045880
     atom   14 type  3   force =     0.00030744   -0.00072672    0.00079506
     atom   15 type  3   force =     0.00154239   -0.00052277   -0.00032005
     atom   16 type  3   force =    -0.00023100   -0.00001864    0.00078390
     atom   17 type  3   force =     0.00154987    0.00132946    0.00066193
     atom   18 type  3   force =     0.00029084    0.00110839   -0.00003878
     atom   19 type  3   force =     0.00041422    0.00012105    0.00066487
     atom   20 type  3   force =     0.00076496    0.00032204    0.00039687
     atom   21 type  3   force =     0.00156278   -0.00111224   -0.00108159
     atom   22 type  3   force =     0.00062806   -0.00018640   -0.00030806
     atom   23 type  3   force =    -0.00122265   -0.00015835   -0.00200718
     atom   24 type  3   force =    -0.00036683    0.00059193   -0.00059288
     atom   25 type  3   force =    -0.00043523   -0.00121563    0.00036572
     atom   26 type  3   force =    -0.00086537    0.00148166   -0.00056431
     atom   27 type  3   force =     0.00093671   -0.00149218   -0.00068404
     atom   28 type  3   force =    -0.00089360    0.00148804    0.00058832

     Total force =     0.008157     Total SCF correction =     0.000038


     Computing stress (Cartesian axis) and pressure

          total   stress  (Ry/bohr**3)                   (kbar)     P=       -1.34
  -0.00000587  -0.00000179  -0.00000735           -0.86       -0.26       -1.08
  -0.00000179  -0.00001236  -0.00000406           -0.26       -1.82       -0.60
  -0.00000735  -0.00000406  -0.00000902           -1.08       -0.60       -1.33

     Energy error            =      1.6E-04 Ry
     Gradient error          =      2.2E-03 Ry/Bohr
     Cell gradient error     =      1.8E+00 kbar

     number of scf cycles    =  44
     number of bfgs steps    =  43

     enthalpy           old  =   -1971.1017096823 Ry
     enthalpy           new  =   -1971.1018649940 Ry

     CASE: enthalpy          _new < enthalpy          _old

     new trust radius        =       0.0221550577 bohr
     new conv_thr            =       0.0000000002 Ry

     new unit-cell volume =   1686.16901 a.u.^3 (   249.86447 Ang^3 )
     density =      3.18816 g/cm^3

CELL_PARAMETERS (angstrom)
   7.526970866  -0.064481087  -0.084601506
  -5.077914500   5.832844799   0.190673044
  -2.317513152   1.196825263   5.787172199

ATOMIC_POSITIONS (angstrom)
Ni              -4.4493917807        5.2671797300        5.8034759079
Mg              -2.9812525636        4.9436626354        2.6742096884
Mg               3.2958761876        2.0305662513        3.1370194570
Mg               4.3695462748        1.3630239950        0.2076273725
Mg               0.7731738776        6.5833187436        4.4897060692
Mg              -0.5729125835        0.3597065855        1.4339227486
Mg              -0.6277697542        3.8323298983        4.3651113297
Mg               0.5518019247        3.2606703011        1.4102028809
Ni              -1.7734220246        6.1725243603        5.2787890327
Ni              -1.8250978293        2.5484645733        2.3870729030
Ni               2.0456190259        4.3792766914        3.5511027575
Ni               1.8513757410        0.8179027133        0.5244325883
H               -0.5300232878        5.3643641440        5.7210392536
H               -0.3752506668        2.1928273143        2.7931981143
H                0.6481934797        4.8992612151        3.0867347051
H                0.5791190098        1.5932317549        0.1675162995
H                5.0688942224        1.0685538384        2.2030691274
H                3.7717386523        1.8064413020        5.2647774113
H               -3.4420929356        5.0614458187        0.5885521229
H               -4.8798621022        5.7864891038        4.2919067530
H               -2.6614937278        6.2641486737        4.0318280549
H               -2.7624827500        3.2267615308        1.2661419405
H                3.1249211199        3.9128800576        4.6819314544
H                2.9190404685        0.9138658236        1.6242333813
H                0.3932599983        2.3125728505        5.0107497024
H                2.4232080375        3.5469252244        2.3008131360
H               -2.4354191708        3.2477478014        3.6435562123
H               -0.6576918462        4.7565027263        0.5666919227



     Writing config-only to output data dir ./outdir/mg2nih4_ni.save/ :
     XML data file
     NEW-OLD atomic charge density approx. for the potential
     New effective cutoffs (rho, wfc):  534.03   66.77

     Check: negative core charge=   -0.000001

     total cpu time spent up to now is    20924.7 secs

     Self-consistent Calculation

     iteration #  1     ecut=    60.00 Ry     beta= 0.30
     Davidson diagonalization with overlap
     ethr =  1.00E-06,  avg # of iterations =  3.3

     total cpu time spent up to now is    20971.9 secs

     total energy              =   -1971.10197194 Ry
     estimated scf accuracy    <       0.00021946 Ry

     iteration #  2     ecut=    60.00 Ry     beta= 0.30
     Davidson diagonalization with overlap
     ethr =  1.83E-07,  avg # of iterations =  2.4

     total cpu time spent up to now is    21005.6 secs

     total energy              =   -1971.10194436 Ry
     estimated scf accuracy    <       0.00068588 Ry

     iteration #  3     ecut=    60.00 Ry     beta= 0.30
     Davidson diagonalization with overlap
     ethr =  1.83E-07,  avg # of iterations =  2.4

     total cpu time spent up to now is    21037.1 secs

     total energy              =   -1971.10199776 Ry
     estimated scf accuracy    <       0.00010999 Ry

     iteration #  4     ecut=    60.00 Ry     beta= 0.30
     Davidson diagonalization with overlap
     ethr =  9.17E-08,  avg # of iterations =  1.9

     total cpu time spent up to now is    21066.2 secs

     total energy              =   -1971.10200056 Ry
     estimated scf accuracy    <       0.00006549 Ry

     iteration #  5     ecut=    60.00 Ry     beta= 0.30
     Davidson diagonalization with overlap
     ethr =  5.46E-08,  avg # of iterations =  1.1

     total cpu time spent up to now is    21089.7 secs

     total energy              =   -1971.10200521 Ry
     estimated scf accuracy    <       0.00000740 Ry

     iteration #  6     ecut=    60.00 Ry     beta= 0.30
     Davidson diagonalization with overlap
     ethr =  6.17E-09,  avg # of iterations =  2.0

     total cpu time spent up to now is    21118.0 secs

     total energy              =   -1971.10200572 Ry
     estimated scf accuracy    <       0.00000707 Ry

     iteration #  7     ecut=    60.00 Ry     beta= 0.30
     Davidson diagonalization with overlap
     ethr =  5.89E-09,  avg # of iterations =  1.4

     total cpu time spent up to now is    21144.9 secs

     total energy              =   -1971.10200621 Ry
     estimated scf accuracy    <       0.00000065 Ry

     iteration #  8     ecut=    60.00 Ry     beta= 0.30
     Davidson diagonalization with overlap
     ethr =  5.45E-10,  avg # of iterations =  2.1

     total cpu time spent up to now is    21175.5 secs

     total energy              =   -1971.10200629 Ry
     estimated scf accuracy    <       0.00000052 Ry

     iteration #  9     ecut=    60.00 Ry     beta= 0.30
     Davidson diagonalization with overlap
     ethr =  4.31E-10,  avg # of iterations =  1.2

     total cpu time spent up to now is    21201.2 secs

     total energy              =   -1971.10200634 Ry
     estimated scf accuracy    <       0.00000007 Ry

     iteration # 10     ecut=    60.00 Ry     beta= 0.30
     Davidson diagonalization with overlap
     ethr =  5.89E-11,  avg # of iterations =  4.1

     total cpu time spent up to now is    21245.9 secs

     total energy              =   -1971.10200637 Ry
     estimated scf accuracy    <       0.00000002 Ry

     iteration # 11     ecut=    60.00 Ry     beta= 0.30
     Davidson diagonalization with overlap
     ethr =  1.31E-11,  avg # of iterations =  1.7

     total cpu time spent up to now is    21273.9 secs

     total energy              =   -1971.10200637 Ry
     estimated scf accuracy    <          7.9E-09 Ry

     iteration # 12     ecut=    60.00 Ry     beta= 0.30
     Davidson diagonalization with overlap
     ethr =  6.61E-12,  avg # of iterations =  2.0

     total cpu time spent up to now is    21302.4 secs

     total energy              =   -1971.10200638 Ry
     estimated scf accuracy    <          8.9E-10 Ry

     iteration # 13     ecut=    60.00 Ry     beta= 0.30
     Davidson diagonalization with overlap
     ethr =  7.46E-13,  avg # of iterations =  2.0

     total cpu time spent up to now is    21331.1 secs

     total energy              =   -1971.10200638 Ry
     estimated scf accuracy    <          1.9E-10 Ry

     iteration # 14     ecut=    60.00 Ry     beta= 0.30
     Davidson diagonalization with overlap
     ethr =  1.56E-13,  avg # of iterations =  1.9

     total cpu time spent up to now is    21359.6 secs

     End of self-consistent calculation

     Number of k-points >= 100: set verbosity='high' to print the bands.

     the Fermi energy is     6.4854 ev

!    total energy              =   -1971.10200638 Ry
     estimated scf accuracy    <          1.8E-11 Ry
     smearing contrib. (-TS)   =       0.00144903 Ry
     internal energy E=F+TS    =   -1971.10345541 Ry

     The total energy is F=E-TS. E is the sum of the following terms:
     one-electron contribution =   -1762.47144308 Ry
     hartree contribution      =     915.50270272 Ry
     xc contribution           =    -201.20611583 Ry
     ewald contribution        =    -703.51984696 Ry
     DFT-D3 Dispersion         =      -0.36331540 Ry
     one-center paw contrib.   =    -219.04543687 Ry

     convergence has been achieved in  14 iterations

     Forces acting on atoms (cartesian axes, Ry/au):

     atom    1 type  1   force =    -0.00202031   -0.00043736   -0.00031975
     atom    2 type  2   force =     0.00017084    0.00045434    0.00018950
     atom    3 type  2   force =    -0.00054097   -0.00054412   -0.00029578
     atom    4 type  2   force =    -0.00018138    0.00058339    0.00058454
     atom    5 type  2   force =     0.00049349   -0.00034787    0.00017064
     atom    6 type  2   force =    -0.00055292   -0.00087089    0.00048299
     atom    7 type  2   force =     0.00087708   -0.00001010    0.00104376
     atom    8 type  2   force =    -0.00068771   -0.00004181    0.00028664
     atom    9 type  1   force =     0.00058268   -0.00280379   -0.00032324
     atom   10 type  1   force =    -0.00270121    0.00166946   -0.00130006
     atom   11 type  1   force =     0.00034355   -0.00107958   -0.00027443
     atom   12 type  1   force =     0.00119925    0.00092038   -0.00092846
     atom   13 type  3   force =    -0.00137432    0.00028314    0.00030713
     atom   14 type  3   force =     0.00143901   -0.00074126    0.00074982
     atom   15 type  3   force =     0.00082163   -0.00029365   -0.00032698
     atom   16 type  3   force =    -0.00095962    0.00046991    0.00044512
     atom   17 type  3   force =     0.00095926    0.00090524    0.00053565
     atom   18 type  3   force =     0.00035046    0.00216887    0.00013961
     atom   19 type  3   force =     0.00042267   -0.00001533    0.00050855
     atom   20 type  3   force =     0.00037460    0.00004469    0.00019159
     atom   21 type  3   force =     0.00175604   -0.00066692   -0.00037227
     atom   22 type  3   force =     0.00116627   -0.00032324    0.00053413
     atom   23 type  3   force =    -0.00079813   -0.00036591   -0.00184326
     atom   24 type  3   force =     0.00000941    0.00041986   -0.00025329
     atom   25 type  3   force =    -0.00076524   -0.00102036    0.00048959
     atom   26 type  3   force =    -0.00061544    0.00126316   -0.00042240
     atom   27 type  3   force =     0.00012233   -0.00107458   -0.00012162
     atom   28 type  3   force =     0.00010868    0.00145435    0.00012229

     Total force =     0.008176     Total SCF correction =     0.000013


     Computing stress (Cartesian axis) and pressure

          total   stress  (Ry/bohr**3)                   (kbar)     P=       -0.97
  -0.00000075  -0.00000181  -0.00000347           -0.11       -0.27       -0.51
  -0.00000181  -0.00000957  -0.00000250           -0.27       -1.41       -0.37
  -0.00000347  -0.00000250  -0.00000956           -0.51       -0.37       -1.41

     Energy error            =      1.4E-04 Ry
     Gradient error          =      2.8E-03 Ry/Bohr
     Cell gradient error     =      1.4E+00 kbar

     number of scf cycles    =  45
     number of bfgs steps    =  44

     enthalpy           old  =   -1971.1018649940 Ry
     enthalpy           new  =   -1971.1020063757 Ry

     CASE: enthalpy          _new < enthalpy          _old

     new trust radius        =       0.0223817058 bohr
     new conv_thr            =       0.0000000001 Ry

     new unit-cell volume =   1684.67521 a.u.^3 (   249.64311 Ang^3 )
     density =      3.19099 g/cm^3

CELL_PARAMETERS (angstrom)
   7.522950893  -0.065337152  -0.088614967
  -5.075781510   5.832212333   0.192280124
  -2.319446342   1.195773823   5.787379793

ATOMIC_POSITIONS (angstrom)
Ni              -4.4529965924        5.2647392474        5.8044836723
Mg              -2.9789850438        4.9418562804        2.6757048715
Mg               3.2885900464        2.0308095469        3.1335511161
Mg               4.3656470259        1.3611251882        0.2066845833
Mg               0.7693312368        6.5815436446        4.4889878824
Mg              -0.5737764517        0.3596610566        1.4342295669
Mg              -0.6267908846        3.8313899873        4.3652648817
Mg               0.5483689519        3.2629274763        1.4079070337
Ni              -1.7757528470        6.1701593194        5.2760019399
Ni              -1.8271979072        2.5485512973        2.3886703494
Ni               2.0402639009        4.3753833786        3.5502469723
Ni               1.8509961451        0.8174432209        0.5233279596
H               -0.5338756149        5.3613269029        5.7201036432
H               -0.3769082601        2.1916222670        2.7939052779
H                0.6473761330        4.8985382169        3.0829075709
H                0.5796168975        1.5937105153        0.1699637541
H                5.0690920282        1.0673957790        2.2021280200
H                3.7683156868        1.8043720686        5.2593954476
H               -3.4428987463        5.0611328140        0.5934136906
H               -4.8766771817        5.7852047723        4.2942877456
H               -2.6554997963        6.2577569175        4.0234008634
H               -2.7641889554        3.2237582691        1.2653396825
H                3.1156251068        3.9084262171        4.6782968614
H                2.9178196614        0.9162944972        1.6211532357
H                0.3890492692        2.3054648805        5.0087356703
H                2.4187038276        3.5510769417        2.2963794368
H               -2.4322719071        3.2442061502        3.6454475326
H               -0.6628531508        4.7612092146        0.5647100296



     Writing config-only to output data dir ./outdir/mg2nih4_ni.save/ :
     XML data file
     NEW-OLD atomic charge density approx. for the potential
     New effective cutoffs (rho, wfc):  534.72   66.85

     Check: negative core charge=   -0.000001

     total cpu time spent up to now is    21377.1 secs

     Self-consistent Calculation

     iteration #  1     ecut=    60.00 Ry     beta= 0.30
     Davidson diagonalization with overlap
     ethr =  1.00E-06,  avg # of iterations =  3.0

     total cpu time spent up to now is    21422.8 secs

     total energy              =   -1971.10208441 Ry
     estimated scf accuracy    <       0.00023534 Ry

     iteration #  2     ecut=    60.00 Ry     beta= 0.30
     Davidson diagonalization with overlap
     ethr =  1.96E-07,  avg # of iterations =  2.2

     total cpu time spent up to now is    21454.1 secs

     total energy              =   -1971.10206504 Ry
     estimated scf accuracy    <       0.00058803 Ry

     iteration #  3     ecut=    60.00 Ry     beta= 0.30
     Davidson diagonalization with overlap
     ethr =  1.96E-07,  avg # of iterations =  2.1

     total cpu time spent up to now is    21483.1 secs

     total energy              =   -1971.10211287 Ry
     estimated scf accuracy    <       0.00013647 Ry

     iteration #  4     ecut=    60.00 Ry     beta= 0.30
     Davidson diagonalization with overlap
     ethr =  1.14E-07,  avg # of iterations =  2.0

     total cpu time spent up to now is    21512.8 secs

     total energy              =   -1971.10211877 Ry
     estimated scf accuracy    <       0.00007797 Ry

     iteration #  5     ecut=    60.00 Ry     beta= 0.30
     Davidson diagonalization with overlap
     ethr =  6.50E-08,  avg # of iterations =  1.0

     total cpu time spent up to now is    21535.6 secs

     total energy              =   -1971.10212385 Ry
     estimated scf accuracy    <       0.00000991 Ry

     iteration #  6     ecut=    60.00 Ry     beta= 0.30
     Davidson diagonalization with overlap
     ethr =  8.26E-09,  avg # of iterations =  2.0

     total cpu time spent up to now is    21564.1 secs

     total energy              =   -1971.10212469 Ry
     estimated scf accuracy    <       0.00000558 Ry

     iteration #  7     ecut=    60.00 Ry     beta= 0.30
     Davidson diagonalization with overlap
     ethr =  4.65E-09,  avg # of iterations =  1.0

     total cpu time spent up to now is    21587.3 secs

     total energy              =   -1971.10212507 Ry
     estimated scf accuracy    <       0.00000035 Ry

     iteration #  8     ecut=    60.00 Ry     beta= 0.30
     Davidson diagonalization with overlap

     Maximum CPU time exceeded

     max_seconds     =   21600.00
     elapsed seconds =   21600.03
     Calculation stopped in k-point loop, point #   126
     Calculation stopped in scf loop at iteration #     7

     Writing config to output data dir ./outdir/mg2nih4_ni.save/ :
     XML data file, charge density
 
     init_run     :     61.45s CPU     18.97s WALL (       1 calls)
     electrons    :  22151.62s CPU  20812.52s WALL (      46 calls)
     update_pot   :     36.89s CPU      4.03s WALL (      45 calls)
     forces       :    233.23s CPU    216.39s WALL (      45 calls)
     force_dftd3  :     33.37s CPU     32.73s WALL (      45 calls)
     stress       :    493.19s CPU    453.17s WALL (      45 calls)
     stres_dftd3  :     32.57s CPU     31.38s WALL (      45 calls)

     Called by init_run:
     wfcinit      :     13.07s CPU     14.61s WALL (       1 calls)
     potinit      :     47.15s CPU      3.21s WALL (       1 calls)
     hinit0       :      0.68s CPU      0.48s WALL (       1 calls)

     Called by electrons:
     c_bands      :  18953.14s CPU  18330.43s WALL (     630 calls)
     sum_band     :   2527.95s CPU   2304.12s WALL (     629 calls)
     v_of_rho     :      4.47s CPU      3.86s WALL (     675 calls)
     newd         :    107.53s CPU    101.26s WALL (     675 calls)
     PAW_pot      :    492.10s CPU     39.68s WALL (     720 calls)
     mix_rho      :      7.58s CPU      7.29s WALL (     629 calls)
     energy_dftd3 :     28.72s CPU     28.69s WALL (      46 calls)

     Called by c_bands:
     init_us_2    :    355.62s CPU    306.02s WALL (  535422 calls)
     cegterg      :  17751.86s CPU  17141.74s WALL (  241662 calls)

     Called by *egterg:
     cdiaghg      :   4623.98s CPU   4920.64s WALL (  795100 calls)
                                     4917.91s GPU  (  795100 calls)
     h_psi        :   6814.16s CPU   6246.52s WALL (  812764 calls)
     s_psi        :   1445.26s CPU   1449.79s WALL (  812764 calls)
     g_psi        :     24.23s CPU     24.23s WALL (  570718 calls)

     Called by h_psi:
     h_psi:calbec :     29.74s CPU     27.35s WALL (  812764 calls)
     vloc_psi     :   5363.98s CPU   4794.98s WALL (  812764 calls)
                                     4793.03s GPU  (  812764 calls)
     add_vuspsi   :   1391.87s CPU   1400.73s WALL (  812764 calls)

     General routines
     calbec       :     38.27s CPU     35.91s WALL ( 1365340 calls)
     fft          :     76.23s CPU      6.71s WALL (    9855 calls)
                                        1.49s GPU  (    9180 calls)
     ffts         :     24.88s CPU      1.62s WALL (    1304 calls)
                                        0.06s GPU  (     629 calls)
     fftw         :     72.90s CPU   5141.48s WALL ( 7366262 calls)
                                     5121.91s GPU  ( 7366262 calls)
     interpolate  :    105.88s CPU      7.94s WALL (     675 calls)
     davcio       :      0.06s CPU      1.13s WALL (     398 calls)
 
 
     PWSCF        :      6h25m CPU      6h 0m WALL

 
   This run was terminated on:  19:48:51  10Jun2026            

=------------------------------------------------------------------------------=
   JOB DONE.
=------------------------------------------------------------------------------=
