
     Program PWSCF v.7.5 starts on 10Jun2026 at 19:48:52 

     This program is part of the open-source Quantum ESPRESSO suite
     for quantum simulation of materials; please cite
         "P. Giannozzi et al., J. Phys.:Condens. Matter 21 395502 (2009);
         "P. Giannozzi et al., J. Phys.:Condens. Matter 29 465901 (2017);
         "P. Giannozzi et al., J. Chem. Phys. 152 154105 (2020);
          URL http://www.quantum-espresso.org", 
     in publications or presentations arising from this work. More details at
     http://www.quantum-espresso.org/quote

     Serial multi-threaded version, running on   32 processor cores
     9798 MiB available memory on the printing compute node when the environment starts
 
     Reading input from inputs/mg2nih4_co.in

     Current dimensions of program PWSCF are:
     Max number of different atomic species (ntypx) = 10
     Max number of k-points (npk) =  40000
     Max angular momentum in pseudopotentials (lmaxx) =  4
     file Mg.pbe-n-kjpaw_psl.0.3.0.UPF: wavefunction(s)  3S renormalized
 
 
     G-vector sticks info
     --------------------
     sticks:   dense  smooth     PW     G-vecs:    dense   smooth      PW
     Sum        6253    3123    899               326697   115555   17991
 
     Using Slab Decomposition
 


     bravais-lattice index     =            0
     lattice parameter (alat)  =      14.8381  a.u.
     unit-cell volume          =    1839.4989 (a.u.)^3
     number of atoms/cell      =           28
     number of atomic types    =            4
     number of electrons       =       119.00
     number of Kohn-Sham states=           72
     kinetic-energy cutoff     =      60.0000  Ry
     charge density cutoff     =     480.0000  Ry
     scf convergence threshold =      1.0E-09
     mixing beta               =       0.3000
     number of iterations used =           12  plain     mixing
     energy convergence thresh.=      1.0E-05
     force convergence thresh. =      1.0E-04
     press convergence thresh. =      5.0E-01
     Exchange-correlation= PBE
                           (   1   4   3   4   0   0   0)
     nstep                     =          200


     GPU acceleration is ACTIVE.  1 visible GPUs per MPI rank


     celldm(1)=  14.838115  celldm(2)=   0.000000  celldm(3)=   0.000000
     celldm(4)=   0.000000  celldm(5)=   0.000000  celldm(6)=   0.000000

     crystal axes: (cart. coord. in units of alat)
               a(1) = (   1.000000   0.000000   0.000000 )  
               a(2) = (  -0.668677   0.743553   0.000000 )  
               a(3) = (  -0.298371   0.132953   0.757271 )  

     reciprocal axes: (cart. coord. in units 2 pi/alat)
               b(1) = (  1.000000  0.899299  0.236120 )  
               b(2) = (  0.000000  1.344893 -0.236120 )  
               b(3) = (  0.000000 -0.000000  1.320532 )  


     PseudoPot. # 1 for Co read from file:
     /home/x/Workspace/3-hEspesso/pseudo/Co_pbe_v1.2.uspp.F.UPF
     MD5 check sum: 5f91765df6ddd3222702df6e7b74a16d
     Pseudo is Ultrasoft + core correction, Zval = 17.0
     Generated by new atomic code, or converted to UPF format
     Using radial grid of  863 points,  6 beta functions with: 
                l(1) =   0
                l(2) =   0
                l(3) =   1
                l(4) =   1
                l(5) =   2
                l(6) =   2
     Q(r) pseudized with  8 coefficients,  rinner =    1.200   1.200   1.200
                                                       1.200   1.200

     PseudoPot. # 2 for Mg read from file:
     /home/x/Workspace/3-hEspesso/pseudo/Mg.pbe-n-kjpaw_psl.0.3.0.UPF
     MD5 check sum: 24ecedc7f3e3cbe212e682f4413594e4
     Pseudo is Projector augmented-wave + core cor, Zval =  2.0
     Generated using "atomic" code by A. Dal Corso  v.5.0.99 svn rev. 10869
     Shape of augmentation charge: PSQ
     Using radial grid of 1129 points,  4 beta functions with: 
                l(1) =   0
                l(2) =   0
                l(3) =   1
                l(4) =   1
     Q(r) pseudized with 0 coefficients 


     PseudoPot. # 3 for Ni read from file:
     /home/x/Workspace/3-hEspesso/pseudo/ni_pbe_v1.4.uspp.F.UPF
     MD5 check sum: 1ee80287db30b12d2bc1f57a5b5d6409
     Pseudo is Ultrasoft + core correction, Zval = 18.0
     Generated by new atomic code, or converted to UPF format
     Using radial grid of  865 points,  6 beta functions with: 
                l(1) =   0
                l(2) =   0
                l(3) =   1
                l(4) =   1
                l(5) =   2
                l(6) =   2
     Q(r) pseudized with 10 coefficients,  rinner =    0.980   0.980   0.980
                                                       0.980   0.980

     PseudoPot. # 4 for H  read from file:
     /home/x/Workspace/3-hEspesso/pseudo/H.pbe-rrkjus_psl.1.0.0.UPF
     MD5 check sum: f52b6d4d1c606e5624b1dc7b2218f220
     Pseudo is Ultrasoft, Zval =  1.0
     Generated using "atomic" code by A. Dal Corso  v.5.1
     Using radial grid of  929 points,  2 beta functions with: 
                l(1) =   0
                l(2) =   0
     Q(r) pseudized with 0 coefficients 


     atomic species   valence    mass     pseudopotential
     Co               17.00    58.93320     Co( 1.00)
     Mg                2.00    24.30500     Mg( 1.00)
     Ni               18.00    58.69340     Ni( 1.00)
     H                 1.00     1.00794     H ( 1.00)

     No symmetry found



   Cartesian axes

     site n.     atom                  positions (alat units)
         1        Co     tau(   1) = (  -0.5449835   0.6998890   0.6954563  )
         2        Mg     tau(   2) = (  -0.4043135   0.6143021   0.3168210  )
         3        Mg     tau(   3) = (   0.4372657   0.2622039   0.4404497  )
         4        Mg     tau(   4) = (   0.5779358   0.1766170   0.0618144  )
         5        Mg     tau(   5) = (   0.0996665   0.8255868   0.5679530  )
         6        Mg     tau(   6) = (  -0.0667142   0.0509192   0.1893177  )
         7        Mg     tau(   7) = (  -0.0665313   0.4526072   0.5679530  )
         8        Mg     tau(   8) = (   0.0994835   0.4238988   0.1893177  )
         9        Ni     tau(   9) = (  -0.2193840   0.7839183   0.6960861  )
        10        Ni     tau(  10) = (  -0.2490730   0.3160130   0.3174507  )
        11        Ni     tau(  11) = (   0.2820252   0.5604930   0.4398200  )
        12        Ni     tau(  12) = (   0.2523362   0.0925877   0.0611846  )
        13        H      tau(  13) = (  -0.0640921   0.6609375   0.7172772  )
        14        H      tau(  14) = (  -0.0537902   0.2827795   0.3386418  )
        15        H      tau(  15) = (   0.0867424   0.5937265   0.4186289  )
        16        H      tau(  16) = (   0.0970443   0.2155685   0.0399935  )
        17        H      tau(  17) = (   0.6618369   0.1393567   0.3221854  )
        18        H      tau(  18) = (   0.5210736   0.2247341   0.7008207  )
        19        H      tau(  19) = (  -0.4881213   0.6517719   0.0564500  )
        20        H      tau(  20) = (  -0.6288847   0.7371494   0.4350853  )
        21        H      tau(  21) = (  -0.3270821   0.7653669   0.5274469  )
        22        H      tau(  22) = (  -0.3072943   0.4084971   0.1488116  )
        23        H      tau(  23) = (   0.3402465   0.4680089   0.6084592  )
        24        H      tau(  24) = (   0.3600343   0.1111391   0.2298238  )
        25        H      tau(  25) = (   0.0754276   0.2497323   0.6631919  )
        26        H      tau(  26) = (   0.3452564   0.4540025   0.2845565  )
        27        H      tau(  27) = (  -0.3123042   0.4225035   0.4727142  )
        28        H      tau(  28) = (  -0.0424754   0.6267738   0.0940789  )

     --------------------------------------------
     DFT-D3 Dispersion Correction (3-body terms):
     --------------------------------------------
       Reference C6 values for interpolation: 

         atom   Coordination number   C6
         H          0.912             6.05
         H          0.000            15.18
         Mg         0.000          1366.75
         Mg         0.963           902.54
         Mg         1.950           351.12
         Co         0.000          1065.56
         Co         1.715           373.09
         Co         2.926           296.13
         Co         7.779           236.57
         Ni         0.000          1149.49
         Ni         1.794           356.66
         Ni         6.546           257.56
         Ni         6.292           283.75

       Values used:

         atom   Coordination number  R0_AB[au]  C6      C8
         Co         3.192            3.243    296.15  26038.99
         Mg         8.003            3.292    351.12  31436.69
         Mg         8.656            3.292    351.12  31436.69
         Mg         8.137            3.292    351.12  31436.69
         Mg         8.939            3.292    351.12  31436.69
         Mg         9.305            3.292    351.12  31436.69
         Mg         8.786            3.292    351.12  31436.69
         Mg         8.625            3.292    351.12  31436.69
         Ni         8.833            3.162    257.74  21597.07
         Ni         9.151            3.162    257.66  21589.93
         Ni         8.818            3.162    257.75  21597.55
         Ni         8.803            3.162    257.75  21598.01
         H          2.171            2.062      6.05     73.18
         H          2.171            2.062      6.05     73.18
         H          2.171            2.062      6.05     73.18
         H          2.171            2.062      6.05     73.18
         H          2.023            2.062      6.05     73.18
         H          2.022            2.062      6.05     73.18
         H          1.765            2.062      6.05     73.18
         H          1.705            2.062      6.05     73.18
         H          1.749            2.062      6.05     73.18
         H          1.617            2.062      6.05     73.19
         H          1.646            2.062      6.05     73.19
         H          1.997            2.062      6.05     73.18
         H          1.978            2.062      6.05     73.18
         H          2.109            2.062      6.05     73.18
         H          2.108            2.062      6.05     73.18
         H          1.650            2.062      6.05     73.19

         Molecular C6 ( Ry / a.u.^6 ) =     62482.72


     number of k points=   384  Marzari-Vanderbilt smearing, width (Ry)=  0.0100

     Number of k-points >= 100: set verbosity='high' to print them.

     Dense  grid:   326697 G-vectors     FFT dimensions: ( 108, 108,  90)

     Smooth grid:   115555 G-vectors     FFT dimensions: (  75,  75,  64)

     Estimated max dynamical RAM per process >       7.42 GB

     Check: negative core charge=   -0.000003

     Initial potential from superposition of free atoms

     starting charge     109.9934, renormalised to     119.0000
     Starting wfcs are  109 randomized atomic wfcs

     total cpu time spent up to now is       23.2 secs

     Self-consistent Calculation

     iteration #  1     ecut=    60.00 Ry     beta= 0.30
     Davidson diagonalization with overlap
     ethr =  1.00E-02,  avg # of iterations =  5.6

     total cpu time spent up to now is       82.3 secs

     total energy              =   -1836.27249606 Ry
     estimated scf accuracy    <     265.11399537 Ry

     iteration #  2     ecut=    60.00 Ry     beta= 0.30
     Davidson diagonalization with overlap
     ethr =  1.00E-02,  avg # of iterations =  4.0

     total cpu time spent up to now is      134.9 secs

     total energy              =   -1925.86758621 Ry
     estimated scf accuracy    <     118.11174061 Ry

     iteration #  3     ecut=    60.00 Ry     beta= 0.30
     Davidson diagonalization with overlap
     ethr =  1.00E-02,  avg # of iterations =  2.7

     total cpu time spent up to now is      177.2 secs

     total energy              =   -1926.98091840 Ry
     estimated scf accuracy    <      27.40303858 Ry

     iteration #  4     ecut=    60.00 Ry     beta= 0.30
     Davidson diagonalization with overlap
     ethr =  1.00E-02,  avg # of iterations =  2.0

     total cpu time spent up to now is      205.5 secs

     total energy              =   -1927.89305060 Ry
     estimated scf accuracy    <       9.22083227 Ry

     iteration #  5     ecut=    60.00 Ry     beta= 0.30
     Davidson diagonalization with overlap
     ethr =  7.75E-03,  avg # of iterations =  1.0

     total cpu time spent up to now is      228.9 secs

     total energy              =   -1927.00156950 Ry
     estimated scf accuracy    <       8.62075244 Ry

     iteration #  6     ecut=    60.00 Ry     beta= 0.30
     Davidson diagonalization with overlap
     ethr =  7.24E-03,  avg # of iterations =  1.0

     total cpu time spent up to now is      252.2 secs

     total energy              =   -1926.60334056 Ry
     estimated scf accuracy    <       4.71611593 Ry

     iteration #  7     ecut=    60.00 Ry     beta= 0.30
     Davidson diagonalization with overlap
     ethr =  3.96E-03,  avg # of iterations =  1.0

     total cpu time spent up to now is      275.4 secs

     total energy              =   -1925.98286639 Ry
     estimated scf accuracy    <       2.93738564 Ry

     iteration #  8     ecut=    60.00 Ry     beta= 0.30
     Davidson diagonalization with overlap
     ethr =  2.47E-03,  avg # of iterations =  1.7

     total cpu time spent up to now is      306.2 secs

     total energy              =   -1926.08458843 Ry
     estimated scf accuracy    <       0.47583207 Ry

     iteration #  9     ecut=    60.00 Ry     beta= 0.30
     Davidson diagonalization with overlap
     ethr =  4.00E-04,  avg # of iterations =  4.0

     total cpu time spent up to now is      351.0 secs

     total energy              =   -1926.15335886 Ry
     estimated scf accuracy    <       0.39971983 Ry

     iteration # 10     ecut=    60.00 Ry     beta= 0.30
     Davidson diagonalization with overlap
     ethr =  3.36E-04,  avg # of iterations =  1.0

     total cpu time spent up to now is      374.5 secs

     total energy              =   -1926.15112830 Ry
     estimated scf accuracy    <       0.19495480 Ry

     iteration # 11     ecut=    60.00 Ry     beta= 0.30
     Davidson diagonalization with overlap
     ethr =  1.64E-04,  avg # of iterations =  1.0

     total cpu time spent up to now is      397.6 secs

     total energy              =   -1926.15279859 Ry
     estimated scf accuracy    <       0.01882244 Ry

     iteration # 12     ecut=    60.00 Ry     beta= 0.30
     Davidson diagonalization with overlap
     ethr =  1.58E-05,  avg # of iterations =  4.5

     total cpu time spent up to now is      447.1 secs

     total energy              =   -1926.14754844 Ry
     estimated scf accuracy    <       0.10668680 Ry

     iteration # 13     ecut=    60.00 Ry     beta= 0.30
     Davidson diagonalization with overlap
     ethr =  1.58E-05,  avg # of iterations =  2.0

     total cpu time spent up to now is      475.5 secs

     total energy              =   -1926.15384557 Ry
     estimated scf accuracy    <       0.05877074 Ry

     iteration # 14     ecut=    60.00 Ry     beta= 0.30
     Davidson diagonalization with overlap
     ethr =  1.58E-05,  avg # of iterations =  1.0

     total cpu time spent up to now is      497.8 secs

     total energy              =   -1926.15268172 Ry
     estimated scf accuracy    <       0.01355507 Ry

     iteration # 15     ecut=    60.00 Ry     beta= 0.30
     Davidson diagonalization with overlap
     ethr =  1.14E-05,  avg # of iterations =  1.2

     total cpu time spent up to now is      522.5 secs

     total energy              =   -1926.15458363 Ry
     estimated scf accuracy    <       0.00568091 Ry

     iteration # 16     ecut=    60.00 Ry     beta= 0.30
     Davidson diagonalization with overlap
     ethr =  4.77E-06,  avg # of iterations =  2.0

     total cpu time spent up to now is      549.2 secs

     total energy              =   -1926.15401140 Ry
     estimated scf accuracy    <       0.01016659 Ry

     iteration # 17     ecut=    60.00 Ry     beta= 0.30
     Davidson diagonalization with overlap
     ethr =  4.77E-06,  avg # of iterations =  1.0

     total cpu time spent up to now is      571.5 secs

     total energy              =   -1926.15415442 Ry
     estimated scf accuracy    <       0.00211277 Ry

     iteration # 18     ecut=    60.00 Ry     beta= 0.30
     Davidson diagonalization with overlap
     ethr =  1.78E-06,  avg # of iterations =  1.1

     total cpu time spent up to now is      595.0 secs

     total energy              =   -1926.15424494 Ry
     estimated scf accuracy    <       0.00004842 Ry

     iteration # 19     ecut=    60.00 Ry     beta= 0.30
     Davidson diagonalization with overlap
     ethr =  4.07E-08,  avg # of iterations =  4.0

     total cpu time spent up to now is      646.2 secs

     total energy              =   -1926.15430979 Ry
     estimated scf accuracy    <       0.00000891 Ry

     iteration # 20     ecut=    60.00 Ry     beta= 0.30
     Davidson diagonalization with overlap
     ethr =  7.49E-09,  avg # of iterations =  1.0

     total cpu time spent up to now is      668.5 secs

     total energy              =   -1926.15431034 Ry
     estimated scf accuracy    <       0.00000052 Ry

     iteration # 21     ecut=    60.00 Ry     beta= 0.30
     Davidson diagonalization with overlap
     ethr =  4.39E-10,  avg # of iterations =  3.0

     total cpu time spent up to now is      703.9 secs

     total energy              =   -1926.15431041 Ry
     estimated scf accuracy    <       0.00000105 Ry

     iteration # 22     ecut=    60.00 Ry     beta= 0.30
     Davidson diagonalization with overlap
     ethr =  4.39E-10,  avg # of iterations =  1.8

     total cpu time spent up to now is      731.7 secs

     total energy              =   -1926.15431045 Ry
     estimated scf accuracy    <       0.00000008 Ry

     iteration # 23     ecut=    60.00 Ry     beta= 0.30
     Davidson diagonalization with overlap
     ethr =  7.11E-11,  avg # of iterations =  2.2

     total cpu time spent up to now is      762.2 secs

     total energy              =   -1926.15431047 Ry
     estimated scf accuracy    <       0.00000001 Ry

     iteration # 24     ecut=    60.00 Ry     beta= 0.30
     Davidson diagonalization with overlap
     ethr =  1.18E-11,  avg # of iterations =  4.7

     total cpu time spent up to now is      805.1 secs

     total energy              =   -1926.15431047 Ry
     estimated scf accuracy    <          1.5E-09 Ry

     iteration # 25     ecut=    60.00 Ry     beta= 0.30
     Davidson diagonalization with overlap
     ethr =  1.28E-12,  avg # of iterations =  4.3

     total cpu time spent up to now is      852.5 secs

     total energy              =   -1926.15431047 Ry
     estimated scf accuracy    <          1.5E-09 Ry

     iteration # 26     ecut=    60.00 Ry     beta= 0.30
     Davidson diagonalization with overlap
     ethr =  1.25E-12,  avg # of iterations =  1.0

     total cpu time spent up to now is      874.9 secs

     End of self-consistent calculation

     Number of k-points >= 100: set verbosity='high' to print the bands.

     the Fermi energy is     5.6855 ev

!    total energy              =   -1926.15431047 Ry
     estimated scf accuracy    <          5.6E-11 Ry
     smearing contrib. (-TS)   =       0.00067165 Ry
     internal energy E=F+TS    =   -1926.15498212 Ry

     The total energy is F=E-TS. E is the sum of the following terms:
     one-electron contribution =   -1744.80852922 Ry
     hartree contribution      =     903.02673045 Ry
     xc contribution           =    -197.75533558 Ry
     ewald contribution        =    -667.29088570 Ry
     DFT-D3 Dispersion         =      -0.33610106 Ry
     one-center paw contrib.   =    -218.99086101 Ry

     convergence has been achieved in  26 iterations

     Forces acting on atoms (cartesian axes, Ry/au):

     atom    1 type  1   force =    -0.00522096   -0.00162086    0.01732364
     atom    2 type  2   force =     0.00366438    0.00228976    0.00061889
     atom    3 type  2   force =    -0.00260824   -0.00082789   -0.00026542
     atom    4 type  2   force =    -0.00258221   -0.00075588   -0.00536390
     atom    5 type  2   force =     0.01290552   -0.00535520    0.00584127
     atom    6 type  2   force =     0.00087272    0.00031676   -0.00024670
     atom    7 type  2   force =     0.00099107   -0.00054810    0.00007544
     atom    8 type  2   force =    -0.00491620    0.00043734   -0.00288433
     atom    9 type  3   force =     0.00066565   -0.00208788   -0.00623822
     atom   10 type  3   force =     0.00272216   -0.00419200    0.00347437
     atom   11 type  3   force =    -0.00047856   -0.00103580    0.00499077
     atom   12 type  3   force =    -0.00134176    0.00084086   -0.00533251
     atom   13 type  4   force =     0.00115715    0.00064767    0.00384467
     atom   14 type  4   force =     0.00267051   -0.00136045    0.00067123
     atom   15 type  4   force =    -0.00350720    0.00038131   -0.00213566
     atom   16 type  4   force =     0.00233803   -0.00242834   -0.00081866
     atom   17 type  4   force =    -0.00008630    0.00080507   -0.00305844
     atom   18 type  4   force =     0.00144440   -0.00114134   -0.00074957
     atom   19 type  4   force =     0.00852489   -0.00650965   -0.00522512
     atom   20 type  4   force =     0.00602249    0.00271136    0.01088255
     atom   21 type  4   force =    -0.01055506   -0.00114188    0.00443230
     atom   22 type  4   force =     0.00229695    0.01160341   -0.01641041
     atom   23 type  4   force =     0.00890115    0.01162363    0.00381438
     atom   24 type  4   force =     0.00040739    0.00199821    0.00569562
     atom   25 type  4   force =    -0.00004939   -0.00163589   -0.00277229
     atom   26 type  4   force =    -0.00182509    0.00090956    0.00078568
     atom   27 type  4   force =     0.00047794    0.00096431   -0.00226566
     atom   28 type  4   force =    -0.02289144   -0.00488810   -0.00868393

     Total force =     0.051186     Total SCF correction =     0.000013


     Computing stress (Cartesian axis) and pressure

          total   stress  (Ry/bohr**3)                   (kbar)     P=      -45.98
  -0.00032814  -0.00002396   0.00001655          -48.27       -3.52        2.43
  -0.00002396  -0.00028400  -0.00001928           -3.52      -41.78       -2.84
   0.00001655  -0.00001928  -0.00032563            2.43       -2.84      -47.90


     BFGS Geometry Optimization
     Energy error            =      1.8E-02 Ry
     Gradient error          =      2.3E-02 Ry/Bohr
     Cell gradient error     =      4.8E+01 kbar

     number of scf cycles    =   1
     number of bfgs steps    =   0

     enthalpy           new  =   -1926.1543104719 Ry

     new trust radius        =       0.0706453301 bohr
     new conv_thr            =       0.0000000010 Ry

     new unit-cell volume =   1796.70733 a.u.^3 (   266.24456 Ang^3 )
     density =      2.99351 g/cm^3

CELL_PARAMETERS (angstrom)
   7.787578349  -0.004703302   0.003248112
  -5.210868346   5.800068016  -0.004986683
  -2.321754798   1.035067624   5.896206290

ATOMIC_POSITIONS (angstrom)
Co              -4.2478707250        5.4555808053        5.4209362344
Mg              -3.1485607240        4.7911523888        2.4641109093
Mg               3.4040698387        2.0400476208        3.4305421969
Mg               4.4987339182        1.3736021712        0.4798076847
Mg               0.7808983920        6.4310377349        4.4235275833
Mg              -0.5187090469        0.3967415160        1.4738808563
Mg              -0.5178810833        3.5265107332        4.4213695392
Mg               0.7707756582        3.3038653725        1.4716230503
Ni              -1.7095475545        6.1089188996        5.4142147133
Ni              -1.9387001479        2.4614795898        2.4721490169
Ni               2.1948363860        4.3662030898        3.4267636210
Ni               1.9641457762        0.7208613919        0.4741800503
H               -0.4992930749        5.1507547768        5.5855141585
H               -0.4177231910        2.2028732591        2.6364749863
H                0.6722392574        4.6270452583        3.2572241632
H                0.7560839074        1.6787400810        0.3105430388
H                5.1544518127        1.0825496808        2.5092195403
H                4.0598788357        1.7463778230        5.4584911776
H               -3.7996902681        5.0800328973        0.4328447444
H               -4.8963804809        5.7497263823        3.3893552170
H               -2.5546022036        5.9659306801        4.1061590716
H               -2.3933178609        3.1917250331        1.1477947881
H                2.6541401149        3.6509109183        4.7400581869
H                2.8042334908        0.8649522228        1.7936220399
H                0.5883519387        1.9432493315        5.1628308181
H                2.6865425377        3.5372912343        2.2159610475
H               -2.4322952830        3.2941264810        3.6777291053
H               -0.3454373531        4.8837653704        0.7256205238



     Writing config-only to output data dir ./outdir/mg2nih4_co.save/ :
     XML data file
     NEW-OLD atomic charge density approx. for the potential
     New effective cutoffs (rho, wfc):  488.34   61.05

     Check: negative core charge=   -0.000003

     total cpu time spent up to now is      891.3 secs

     Self-consistent Calculation

     iteration #  1     ecut=    60.00 Ry     beta= 0.30
     Davidson diagonalization with overlap
     ethr =  1.00E-06,  avg # of iterations =  4.4

     total cpu time spent up to now is      948.6 secs

     total energy              =   -1926.16038578 Ry
     estimated scf accuracy    <       0.02103095 Ry

     iteration #  2     ecut=    60.00 Ry     beta= 0.30
     Davidson diagonalization with overlap
     ethr =  1.77E-05,  avg # of iterations =  3.0

     total cpu time spent up to now is      984.1 secs

     total energy              =   -1926.15591953 Ry
     estimated scf accuracy    <       0.17025038 Ry

     iteration #  3     ecut=    60.00 Ry     beta= 0.30
     Davidson diagonalization with overlap
     ethr =  1.77E-05,  avg # of iterations =  3.0

     total cpu time spent up to now is     1017.2 secs

     total energy              =   -1926.16347337 Ry
     estimated scf accuracy    <       0.12556821 Ry

     iteration #  4     ecut=    60.00 Ry     beta= 0.30
     Davidson diagonalization with overlap
     ethr =  1.77E-05,  avg # of iterations =  2.0

     total cpu time spent up to now is     1043.8 secs

     total energy              =   -1926.16813231 Ry
     estimated scf accuracy    <       0.00048020 Ry

     iteration #  5     ecut=    60.00 Ry     beta= 0.30
     Davidson diagonalization with overlap
     ethr =  4.04E-07,  avg # of iterations =  2.2

     total cpu time spent up to now is     1074.3 secs

     total energy              =   -1926.16816141 Ry
     estimated scf accuracy    <       0.00056349 Ry

     iteration #  6     ecut=    60.00 Ry     beta= 0.30
     Davidson diagonalization with overlap
     ethr =  4.04E-07,  avg # of iterations =  1.2

     total cpu time spent up to now is     1098.2 secs

     total energy              =   -1926.16819960 Ry
     estimated scf accuracy    <       0.00008514 Ry

     iteration #  7     ecut=    60.00 Ry     beta= 0.30
     Davidson diagonalization with overlap
     ethr =  7.15E-08,  avg # of iterations =  2.0

     total cpu time spent up to now is     1125.2 secs

     total energy              =   -1926.16820444 Ry
     estimated scf accuracy    <       0.00002786 Ry

     iteration #  8     ecut=    60.00 Ry     beta= 0.30
     Davidson diagonalization with overlap
     ethr =  2.34E-08,  avg # of iterations =  1.5

     total cpu time spent up to now is     1152.1 secs

     total energy              =   -1926.16820589 Ry
     estimated scf accuracy    <       0.00001661 Ry

     iteration #  9     ecut=    60.00 Ry     beta= 0.30
     Davidson diagonalization with overlap
     ethr =  1.40E-08,  avg # of iterations =  1.0

     total cpu time spent up to now is     1174.4 secs

     total energy              =   -1926.16820707 Ry
     estimated scf accuracy    <       0.00000182 Ry

     iteration # 10     ecut=    60.00 Ry     beta= 0.30
     Davidson diagonalization with overlap
     ethr =  1.53E-09,  avg # of iterations =  4.6

     total cpu time spent up to now is     1217.8 secs

     total energy              =   -1926.16820744 Ry
     estimated scf accuracy    <       0.00000170 Ry

     iteration # 11     ecut=    60.00 Ry     beta= 0.30
     Davidson diagonalization with overlap
     ethr =  1.43E-09,  avg # of iterations =  1.1

     total cpu time spent up to now is     1241.3 secs

     total energy              =   -1926.16820757 Ry
     estimated scf accuracy    <       0.00000024 Ry

     iteration # 12     ecut=    60.00 Ry     beta= 0.30
     Davidson diagonalization with overlap
     ethr =  2.04E-10,  avg # of iterations =  2.0

     total cpu time spent up to now is     1268.5 secs

     total energy              =   -1926.16820760 Ry
     estimated scf accuracy    <       0.00000003 Ry

     iteration # 13     ecut=    60.00 Ry     beta= 0.30
     Davidson diagonalization with overlap
     ethr =  2.63E-11,  avg # of iterations =  1.2

     total cpu time spent up to now is     1292.7 secs

     total energy              =   -1926.16820760 Ry
     estimated scf accuracy    <          3.4E-09 Ry

     iteration # 14     ecut=    60.00 Ry     beta= 0.30
     Davidson diagonalization with overlap
     ethr =  2.83E-12,  avg # of iterations =  2.1

     total cpu time spent up to now is     1322.2 secs

     total energy              =   -1926.16820760 Ry
     estimated scf accuracy    <          1.9E-09 Ry

     iteration # 15     ecut=    60.00 Ry     beta= 0.30
     Davidson diagonalization with overlap
     ethr =  1.56E-12,  avg # of iterations =  1.8

     total cpu time spent up to now is     1350.0 secs

     End of self-consistent calculation

     Number of k-points >= 100: set verbosity='high' to print the bands.

     the Fermi energy is     5.9074 ev

!    total energy              =   -1926.16820760 Ry
     estimated scf accuracy    <          1.9E-10 Ry
     smearing contrib. (-TS)   =       0.00051938 Ry
     internal energy E=F+TS    =   -1926.16872698 Ry

     The total energy is F=E-TS. E is the sum of the following terms:
     one-electron contribution =   -1735.61172441 Ry
     hartree contribution      =     899.26112993 Ry
     xc contribution           =    -197.92164641 Ry
     ewald contribution        =    -672.54349588 Ry
     DFT-D3 Dispersion         =      -0.34374775 Ry
     one-center paw contrib.   =    -219.00924247 Ry

     convergence has been achieved in  15 iterations

     Forces acting on atoms (cartesian axes, Ry/au):

     atom    1 type  1   force =    -0.00497651   -0.00405713    0.01930320
     atom    2 type  2   force =     0.00473104    0.00243441    0.00117351
     atom    3 type  2   force =    -0.00315994   -0.00115109   -0.00089485
     atom    4 type  2   force =    -0.00246770    0.00043883   -0.00551407
     atom    5 type  2   force =     0.01231735   -0.00469602    0.00493143
     atom    6 type  2   force =     0.00060362   -0.00016880    0.00004043
     atom    7 type  2   force =     0.00139050    0.00037692    0.00015679
     atom    8 type  2   force =    -0.00527887   -0.00011372   -0.00287338
     atom    9 type  3   force =     0.00073142   -0.00401200   -0.00620839
     atom   10 type  3   force =     0.00348882   -0.00100958   -0.00174213
     atom   11 type  3   force =    -0.00221452   -0.00107995    0.00558934
     atom   12 type  3   force =    -0.00081712    0.00256147   -0.00109110
     atom   13 type  4   force =     0.00373956   -0.00079009    0.00520050
     atom   14 type  4   force =     0.00618357   -0.00255901    0.00188613
     atom   15 type  4   force =    -0.00606575    0.00151336   -0.00337788
     atom   16 type  4   force =    -0.00108580   -0.00054990   -0.00204398
     atom   17 type  4   force =    -0.00210118   -0.00369124   -0.00338907
     atom   18 type  4   force =     0.00296150    0.00247189   -0.00085795
     atom   19 type  4   force =     0.00770710   -0.01035227   -0.00525975
     atom   20 type  4   force =     0.00725534    0.00571124    0.01101617
     atom   21 type  4   force =    -0.01279853   -0.00162276    0.00148939
     atom   22 type  4   force =     0.00280124    0.01196620   -0.01683096
     atom   23 type  4   force =     0.01021665    0.01029268    0.00708640
     atom   24 type  4   force =     0.00115878    0.00235604    0.00709520
     atom   25 type  4   force =     0.00257485   -0.00164059   -0.00701576
     atom   26 type  4   force =    -0.00017636   -0.00065281   -0.00263759
     atom   27 type  4   force =    -0.00139501    0.00294618    0.00147439
     atom   28 type  4   force =    -0.02532405   -0.00492226   -0.00670600

     Total force =     0.056110     Total SCF correction =     0.000028


     Computing stress (Cartesian axis) and pressure

          total   stress  (Ry/bohr**3)                   (kbar)     P=      -29.88
  -0.00021804  -0.00002188   0.00001747          -32.07       -3.22        2.57
  -0.00002188  -0.00017396  -0.00001357           -3.22      -25.59       -2.00
   0.00001747  -0.00001357  -0.00021743            2.57       -2.00      -31.98

     Energy error            =      1.4E-02 Ry
     Gradient error          =      2.5E-02 Ry/Bohr
     Cell gradient error     =      3.2E+01 kbar

     number of scf cycles    =   2
     number of bfgs steps    =   1

     enthalpy           old  =   -1926.1543104719 Ry
     enthalpy           new  =   -1926.1682076020 Ry

     CASE: enthalpy          _new < enthalpy          _old

     new trust radius        =       0.1056071375 bohr
     new conv_thr            =       0.0000000010 Ry

     new unit-cell volume =   1735.12278 a.u.^3 (   257.11867 Ang^3 )
     density =      3.09976 g/cm^3

CELL_PARAMETERS (angstrom)
   7.691295915  -0.013950615   0.010500659
  -5.153362258   5.748354869  -0.014271836
  -2.288765088   1.022958570   5.820608898

ATOMIC_POSITIONS (angstrom)
Co              -4.2022724895        5.3977769222        5.3670659158
Mg              -3.1079551221        4.7478253321        2.4283486957
Mg               3.3593359639        2.0117413803        3.3889906431
Mg               4.4391633227        1.3544895868        0.4709664254
Mg               0.7814284218        6.3571175292        4.3704231416
Mg              -0.5106861416        0.3921381452        1.4549430753
Mg              -0.5100642659        3.4887906834        4.3638716558
Mg               0.7528862365        3.2687777612        1.4484827921
Ni              -1.6898341566        6.0415802127        5.3343562860
Ni              -1.9115956154        2.4357503522        2.4367623341
Ni               2.1634902124        4.3161347189        3.3893439960
Ni               1.9384610180        0.7135729933        0.4678459081
H               -0.4902354331        5.0948961785        5.5178570984
H               -0.4063392341        2.1766368422        2.6038519549
H                0.6550773139        4.5790686000        3.2105825538
H                0.7442752313        1.6599750572        0.3040342414
H                5.0897211514        1.0601650808        2.4786008354
H                4.0157692047        1.7221447013        5.3927772124
H               -3.7497178649        5.0224946505        0.4142637965
H               -4.8316613711        5.7014313519        3.3507617783
H               -2.5401373362        5.9045167380        4.0506100664
H               -2.3634920749        3.1750828153        1.1103826657
H                2.6325095405        3.6191971337        4.6887452105
H                2.7713949989        0.8541387458        1.7811455647
H                0.5860793352        1.9173462077        5.0911033281
H                2.6507601355        3.4965353145        2.1859928785
H               -2.4040085134        3.2643020554        3.6287397575
H               -0.3739925168        4.8294524383        0.7048782679



     Writing config-only to output data dir ./outdir/mg2nih4_co.save/ :
     XML data file
     NEW-OLD atomic charge density approx. for the potential
     New effective cutoffs (rho, wfc):  501.54   62.70

     Check: negative core charge=   -0.000002

     total cpu time spent up to now is     1366.3 secs

     Self-consistent Calculation

     iteration #  1     ecut=    60.00 Ry     beta= 0.30
     Davidson diagonalization with overlap
     c_bands:  1 eigenvalues not converged
     c_bands:  1 eigenvalues not converged
     ethr =  1.00E-06,  avg # of iterations =  6.1

     total cpu time spent up to now is     1440.2 secs

     total energy              =   -1926.16638132 Ry
     estimated scf accuracy    <       0.04560281 Ry

     iteration #  2     ecut=    60.00 Ry     beta= 0.30
     Davidson diagonalization with overlap
     ethr =  3.83E-05,  avg # of iterations =  3.0

     total cpu time spent up to now is     1475.7 secs

     total energy              =   -1926.15894848 Ry
     estimated scf accuracy    <       0.32160575 Ry

     iteration #  3     ecut=    60.00 Ry     beta= 0.30
     Davidson diagonalization with overlap
     ethr =  3.83E-05,  avg # of iterations =  3.0

     total cpu time spent up to now is     1509.0 secs

     total energy              =   -1926.17393207 Ry
     estimated scf accuracy    <       0.21998665 Ry

     iteration #  4     ecut=    60.00 Ry     beta= 0.30
     Davidson diagonalization with overlap
     ethr =  3.83E-05,  avg # of iterations =  2.0

     total cpu time spent up to now is     1535.4 secs

     total energy              =   -1926.18276063 Ry
     estimated scf accuracy    <       0.00152129 Ry

     iteration #  5     ecut=    60.00 Ry     beta= 0.30
     Davidson diagonalization with overlap
     ethr =  1.28E-06,  avg # of iterations =  2.3

     total cpu time spent up to now is     1566.8 secs

     total energy              =   -1926.18279920 Ry
     estimated scf accuracy    <       0.00152322 Ry

     iteration #  6     ecut=    60.00 Ry     beta= 0.30
     Davidson diagonalization with overlap
     ethr =  1.28E-06,  avg # of iterations =  1.0

     total cpu time spent up to now is     1589.2 secs

     total energy              =   -1926.18291153 Ry
     estimated scf accuracy    <       0.00023082 Ry

     iteration #  7     ecut=    60.00 Ry     beta= 0.30
     Davidson diagonalization with overlap
     ethr =  1.94E-07,  avg # of iterations =  2.0

     total cpu time spent up to now is     1615.9 secs

     total energy              =   -1926.18292527 Ry
     estimated scf accuracy    <       0.00005399 Ry

     iteration #  8     ecut=    60.00 Ry     beta= 0.30
     Davidson diagonalization with overlap
     ethr =  4.54E-08,  avg # of iterations =  2.0

     total cpu time spent up to now is     1642.9 secs

     total energy              =   -1926.18292841 Ry
     estimated scf accuracy    <       0.00006298 Ry

     iteration #  9     ecut=    60.00 Ry     beta= 0.30
     Davidson diagonalization with overlap
     ethr =  4.54E-08,  avg # of iterations =  1.0

     total cpu time spent up to now is     1665.3 secs

     total energy              =   -1926.18293244 Ry
     estimated scf accuracy    <       0.00000550 Ry

     iteration # 10     ecut=    60.00 Ry     beta= 0.30
     Davidson diagonalization with overlap
     ethr =  4.62E-09,  avg # of iterations =  4.0

     total cpu time spent up to now is     1705.8 secs

     total energy              =   -1926.18293404 Ry
     estimated scf accuracy    <       0.00000266 Ry

     iteration # 11     ecut=    60.00 Ry     beta= 0.30
     Davidson diagonalization with overlap
     ethr =  2.23E-09,  avg # of iterations =  1.0

     total cpu time spent up to now is     1728.3 secs

     total energy              =   -1926.18293425 Ry
     estimated scf accuracy    <       0.00000050 Ry

     iteration # 12     ecut=    60.00 Ry     beta= 0.30
     Davidson diagonalization with overlap
     ethr =  4.22E-10,  avg # of iterations =  1.9

     total cpu time spent up to now is     1755.8 secs

     total energy              =   -1926.18293429 Ry
     estimated scf accuracy    <       0.00000005 Ry

     iteration # 13     ecut=    60.00 Ry     beta= 0.30
     Davidson diagonalization with overlap
     ethr =  4.43E-11,  avg # of iterations =  2.0

     total cpu time spent up to now is     1784.0 secs

     total energy              =   -1926.18293430 Ry
     estimated scf accuracy    <          6.5E-09 Ry

     iteration # 14     ecut=    60.00 Ry     beta= 0.30
     Davidson diagonalization with overlap
     ethr =  5.45E-12,  avg # of iterations =  1.8

     total cpu time spent up to now is     1811.9 secs

     total energy              =   -1926.18293430 Ry
     estimated scf accuracy    <          1.8E-09 Ry

     iteration # 15     ecut=    60.00 Ry     beta= 0.30
     Davidson diagonalization with overlap
     ethr =  1.54E-12,  avg # of iterations =  1.5

     total cpu time spent up to now is     1839.6 secs

     End of self-consistent calculation

     Number of k-points >= 100: set verbosity='high' to print the bands.

     the Fermi energy is     6.2476 ev

!    total energy              =   -1926.18293431 Ry
     estimated scf accuracy    <          1.2E-10 Ry
     smearing contrib. (-TS)   =       0.00015053 Ry
     internal energy E=F+TS    =   -1926.18308484 Ry

     The total energy is F=E-TS. E is the sum of the following terms:
     one-electron contribution =   -1720.95463603 Ry
     hartree contribution      =     893.22971575 Ry
     xc contribution           =    -198.16063644 Ry
     ewald contribution        =    -680.90473862 Ry
     DFT-D3 Dispersion         =      -0.35541692 Ry
     one-center paw contrib.   =    -219.03737258 Ry

     convergence has been achieved in  15 iterations

     Forces acting on atoms (cartesian axes, Ry/au):

     atom    1 type  1   force =    -0.00466765   -0.00877472    0.02245606
     atom    2 type  2   force =     0.00600380    0.00247723    0.00207967
     atom    3 type  2   force =    -0.00374049   -0.00141666   -0.00191068
     atom    4 type  2   force =    -0.00190060    0.00219333   -0.00555019
     atom    5 type  2   force =     0.01066549   -0.00314024    0.00287788
     atom    6 type  2   force =     0.00014543   -0.00115936    0.00066707
     atom    7 type  2   force =     0.00189633    0.00161105    0.00045936
     atom    8 type  2   force =    -0.00554442   -0.00067010   -0.00283076
     atom    9 type  3   force =     0.00103335   -0.00526477   -0.00520814
     atom   10 type  3   force =     0.00379649    0.00265105   -0.00779040
     atom   11 type  3   force =    -0.00389604   -0.00047992    0.00482474
     atom   12 type  3   force =    -0.00024813    0.00417490    0.00418300
     atom   13 type  4   force =     0.00671004   -0.00228603    0.00722766
     atom   14 type  4   force =     0.00994710   -0.00422025    0.00378745
     atom   15 type  4   force =    -0.00871016    0.00326322   -0.00534131
     atom   16 type  4   force =    -0.00555955    0.00164655   -0.00386982
     atom   17 type  4   force =    -0.00395201   -0.00800275   -0.00394047
     atom   18 type  4   force =     0.00420221    0.00561935   -0.00106981
     atom   19 type  4   force =     0.00787305   -0.01381347   -0.00518292
     atom   20 type  4   force =     0.00780036    0.00793211    0.01104544
     atom   21 type  4   force =    -0.01550698   -0.00200573   -0.00183033
     atom   22 type  4   force =     0.00380680    0.01195883   -0.01662836
     atom   23 type  4   force =     0.01223645    0.00881855    0.01117720
     atom   24 type  4   force =     0.00185013    0.00282691    0.00832825
     atom   25 type  4   force =     0.00512250   -0.00179762   -0.01168676
     atom   26 type  4   force =     0.00177353   -0.00205612   -0.00616317
     atom   27 type  4   force =    -0.00346156    0.00470667    0.00511306
     atom   28 type  4   force =    -0.02767546   -0.00479201   -0.00522372

     Total force =     0.066111     Total SCF correction =     0.000051


     Computing stress (Cartesian axis) and pressure

          total   stress  (Ry/bohr**3)                   (kbar)     P=       -5.40
  -0.00004770  -0.00002002   0.00001979           -7.02       -2.95        2.91
  -0.00002002  -0.00001072  -0.00000129           -2.95       -1.58       -0.19
   0.00001979  -0.00000129  -0.00005171            2.91       -0.19       -7.61

     Energy error            =      1.5E-02 Ry
     Gradient error          =      2.8E-02 Ry/Bohr
     Cell gradient error     =      7.6E+00 kbar

     number of scf cycles    =   3
     number of bfgs steps    =   2

     enthalpy           old  =   -1926.1682076020 Ry
     enthalpy           new  =   -1926.1829343051 Ry

     CASE: enthalpy          _new < enthalpy          _old

     new trust radius        =       0.1208024616 bohr
     new conv_thr            =       0.0000000010 Ry

     new unit-cell volume =   1668.28272 a.u.^3 (   247.21399 Ang^3 )
     density =      3.22396 g/cm^3

CELL_PARAMETERS (angstrom)
   7.581784436  -0.029410911   0.023925276
  -5.091622476   5.699038941  -0.027737589
  -2.247987332   1.012345046   5.732110839

ATOMIC_POSITIONS (angstrom)
Co              -4.1529351105        5.3342021838        5.3173800753
Mg              -3.0591599426        4.7074361190        2.3871429752
Mg               3.3069902499        1.9790036731        3.3421094152
Mg               4.3697872044        1.3332396886        0.4604456267
Mg               0.7872055463        6.2781225554        4.3117162565
Mg              -0.5008418979        0.3867955807        1.4334229513
Mg              -0.4991868707        3.4516842354        4.2980565171
Mg               0.7278951233        3.2316066545        1.4209176790
Ni              -1.6669381277        5.9697299365        5.2391020749
Ni              -1.8783916277        2.4128981940        2.3890702304
Ni               2.1247053996        4.2627238468        3.3506420012
Ni               1.9090204290        0.7077432548        0.4655359421
H               -0.4746861082        5.0359674004        5.4450976368
H               -0.3861198798        2.1465291424        2.5690914177
H                0.6288478434        4.5319140762        3.1539570157
H                0.7255792172        1.6414541280        0.2943742936
H                5.0143775094        1.0271685324        2.4442430034
H                3.9708319067        1.6983363835        5.3191892712
H               -3.6905222324        4.9555666087        0.3878947488
H               -4.7545742374        5.6612247538        3.3105166616
H               -2.5349890567        5.8418657722        3.9837506458
H               -2.3283928900        3.1688923147        1.0560016738
H                2.6168854442        3.5911505789        4.6394962345
H                2.7359690282        0.8430357138        1.7739636161
H                0.5892104799        1.8888855930        5.0010659660
H                2.6107364038        3.4510067040        2.1492319755
H               -2.3740101955        3.2390418091        3.5747365958
H               -0.4268488107        4.7703976259        0.6780268669



     Writing config-only to output data dir ./outdir/mg2nih4_co.save/ :
     XML data file
     NEW-OLD atomic charge density approx. for the potential
     New effective cutoffs (rho, wfc):  518.10   64.78

     Check: negative core charge=   -0.000002

     total cpu time spent up to now is     1856.6 secs

     Self-consistent Calculation

     iteration #  1     ecut=    60.00 Ry     beta= 0.30
     Davidson diagonalization with overlap
     c_bands:  1 eigenvalues not converged
     c_bands:  1 eigenvalues not converged
     ethr =  1.00E-06,  avg # of iterations =  8.8

     total cpu time spent up to now is     1963.4 secs

     total energy              =   -1926.17355564 Ry
     estimated scf accuracy    <       0.06006710 Ry

     iteration #  2     ecut=    60.00 Ry     beta= 0.30
     Davidson diagonalization with overlap
     ethr =  5.05E-05,  avg # of iterations =  3.0

     total cpu time spent up to now is     1999.9 secs

     total energy              =   -1926.16537810 Ry
     estimated scf accuracy    <       0.37221411 Ry

     iteration #  3     ecut=    60.00 Ry     beta= 0.30
     Davidson diagonalization with overlap
     ethr =  5.05E-05,  avg # of iterations =  2.9

     total cpu time spent up to now is     2034.0 secs

     total energy              =   -1926.18363762 Ry
     estimated scf accuracy    <       0.22631792 Ry

     iteration #  4     ecut=    60.00 Ry     beta= 0.30
     Davidson diagonalization with overlap
     ethr =  5.05E-05,  avg # of iterations =  2.0

     total cpu time spent up to now is     2061.4 secs

     total energy              =   -1926.19367015 Ry
     estimated scf accuracy    <       0.00314641 Ry

     iteration #  5     ecut=    60.00 Ry     beta= 0.30
     Davidson diagonalization with overlap
     ethr =  2.64E-06,  avg # of iterations =  2.1

     total cpu time spent up to now is     2091.4 secs

     total energy              =   -1926.19366871 Ry
     estimated scf accuracy    <       0.00326702 Ry

     iteration #  6     ecut=    60.00 Ry     beta= 0.30
     Davidson diagonalization with overlap
     ethr =  2.64E-06,  avg # of iterations =  1.0

     total cpu time spent up to now is     2113.9 secs

     total energy              =   -1926.19391288 Ry
     estimated scf accuracy    <       0.00035280 Ry

     iteration #  7     ecut=    60.00 Ry     beta= 0.30
     Davidson diagonalization with overlap
     ethr =  2.96E-07,  avg # of iterations =  2.0

     total cpu time spent up to now is     2142.3 secs

     total energy              =   -1926.19393831 Ry
     estimated scf accuracy    <       0.00012503 Ry

     iteration #  8     ecut=    60.00 Ry     beta= 0.30
     Davidson diagonalization with overlap
     ethr =  1.05E-07,  avg # of iterations =  2.0

     total cpu time spent up to now is     2169.3 secs

     total energy              =   -1926.19394999 Ry
     estimated scf accuracy    <       0.00009529 Ry

     iteration #  9     ecut=    60.00 Ry     beta= 0.30
     Davidson diagonalization with overlap
     ethr =  8.01E-08,  avg # of iterations =  1.0

     total cpu time spent up to now is     2191.9 secs

     total energy              =   -1926.19395558 Ry
     estimated scf accuracy    <       0.00000807 Ry

     iteration # 10     ecut=    60.00 Ry     beta= 0.30
     Davidson diagonalization with overlap
     ethr =  6.78E-09,  avg # of iterations =  4.0

     total cpu time spent up to now is     2235.4 secs

     total energy              =   -1926.19395834 Ry
     estimated scf accuracy    <       0.00001668 Ry

     iteration # 11     ecut=    60.00 Ry     beta= 0.30
     Davidson diagonalization with overlap
     ethr =  6.78E-09,  avg # of iterations =  1.9

     total cpu time spent up to now is     2263.1 secs

     total energy              =   -1926.19395948 Ry
     estimated scf accuracy    <       0.00000072 Ry

     iteration # 12     ecut=    60.00 Ry     beta= 0.30
     Davidson diagonalization with overlap
     ethr =  6.05E-10,  avg # of iterations =  2.0

     total cpu time spent up to now is     2291.7 secs

     total energy              =   -1926.19395961 Ry
     estimated scf accuracy    <       0.00000009 Ry

     iteration # 13     ecut=    60.00 Ry     beta= 0.30
     Davidson diagonalization with overlap
     ethr =  7.28E-11,  avg # of iterations =  1.5

     total cpu time spent up to now is     2319.7 secs

     total energy              =   -1926.19395962 Ry
     estimated scf accuracy    <          9.0E-09 Ry

     iteration # 14     ecut=    60.00 Ry     beta= 0.30
     Davidson diagonalization with overlap
     ethr =  7.54E-12,  avg # of iterations =  2.0

     total cpu time spent up to now is     2348.7 secs

     total energy              =   -1926.19395962 Ry
     estimated scf accuracy    <          1.1E-09 Ry

     iteration # 15     ecut=    60.00 Ry     beta= 0.30
     Davidson diagonalization with overlap
     ethr =  9.33E-13,  avg # of iterations =  4.1

     total cpu time spent up to now is     2391.3 secs

     End of self-consistent calculation

     Number of k-points >= 100: set verbosity='high' to print the bands.

     the Fermi energy is     6.6489 ev

!    total energy              =   -1926.19395963 Ry
     estimated scf accuracy    <          1.6E-10 Ry
     smearing contrib. (-TS)   =      -0.00025297 Ry
     internal energy E=F+TS    =   -1926.19370665 Ry

     The total energy is F=E-TS. E is the sum of the following terms:
     one-electron contribution =   -1702.78655298 Ry
     hartree contribution      =     885.70644773 Ry
     xc contribution           =    -198.41821381 Ry
     ewald contribution        =    -691.25601193 Ry
     DFT-D3 Dispersion         =      -0.36904657 Ry
     one-center paw contrib.   =    -219.07032909 Ry

     convergence has been achieved in  15 iterations

     Forces acting on atoms (cartesian axes, Ry/au):

     atom    1 type  1   force =    -0.00480902   -0.01587358    0.02553741
     atom    2 type  2   force =     0.00667878    0.00214043    0.00313467
     atom    3 type  2   force =    -0.00391000   -0.00111821   -0.00302010
     atom    4 type  2   force =    -0.00054238    0.00389011   -0.00520518
     atom    5 type  2   force =     0.00742649   -0.00021216   -0.00053024
     atom    6 type  2   force =    -0.00055800   -0.00275357    0.00167174
     atom    7 type  2   force =     0.00209383    0.00255549    0.00110914
     atom    8 type  2   force =    -0.00515427   -0.00070890   -0.00271971
     atom    9 type  3   force =     0.00137807   -0.00467093   -0.00352750
     atom   10 type  3   force =     0.00341380    0.00516176   -0.01147971
     atom   11 type  3   force =    -0.00459518    0.00038328    0.00196399
     atom   12 type  3   force =     0.00029816    0.00509216    0.00822180
     atom   13 type  4   force =     0.00816397   -0.00260075    0.00935772
     atom   14 type  4   force =     0.01103235   -0.00585607    0.00610083
     atom   15 type  4   force =    -0.00917786    0.00538071   -0.00773324
     atom   16 type  4   force =    -0.00911828    0.00273622   -0.00588962
     atom   17 type  4   force =    -0.00419388   -0.00899640   -0.00469549
     atom   18 type  4   force =     0.00402162    0.00593070   -0.00138567
     atom   19 type  4   force =     0.01021305   -0.01429743   -0.00472153
     atom   20 type  4   force =     0.00633588    0.00706192    0.01052191
     atom   21 type  4   force =    -0.01687227   -0.00166383   -0.00280792
     atom   22 type  4   force =     0.00514773    0.01065767   -0.01455110
     atom   23 type  4   force =     0.01445788    0.00851078    0.01364910
     atom   24 type  4   force =     0.00173318    0.00316596    0.00781704
     atom   25 type  4   force =     0.00555935   -0.00219613   -0.01400990
     atom   26 type  4   force =     0.00314059   -0.00215191   -0.00754641
     atom   27 type  4   force =    -0.00449620    0.00463063    0.00594806
     atom   28 type  4   force =    -0.02766740   -0.00419796   -0.00521012

     Total force =     0.072319     Total SCF correction =     0.000028


     Computing stress (Cartesian axis) and pressure

          total   stress  (Ry/bohr**3)                   (kbar)     P=       22.28
   0.00014731  -0.00001667   0.00002180           21.67       -2.45        3.21
  -0.00001667   0.00016914   0.00001889           -2.45       24.88        2.78
   0.00002180   0.00001889   0.00013785            3.21        2.78       20.28

     Energy error            =      1.1E-02 Ry
     Gradient error          =      2.8E-02 Ry/Bohr
     Cell gradient error     =      2.5E+01 kbar

     number of scf cycles    =   4
     number of bfgs steps    =   3

     enthalpy           old  =   -1926.1829343051 Ry
     enthalpy           new  =   -1926.1939596251 Ry

     CASE: enthalpy          _new < enthalpy          _old

     new trust radius        =       0.0938805503 bohr
     new conv_thr            =       0.0000000010 Ry

     new unit-cell volume =   1639.76396 a.u.^3 (   242.98795 Ang^3 )
     density =      3.28003 g/cm^3

CELL_PARAMETERS (angstrom)
   7.531403849  -0.043114615   0.037198013
  -5.068093134   5.688103567  -0.036710850
  -2.224750989   1.012778643   5.688093890

ATOMIC_POSITIONS (angstrom)
Co              -4.1340499147        5.3062837699        5.3123112264
Mg              -3.0332055459        4.7004086929        2.3685638266
Mg               3.2810637977        1.9639358284        3.3213762697
Mg               4.3360190414        1.3239578947        0.4552001032
Mg               0.7968261529        6.2490409917        4.2877883150
Mg              -0.4954086072        0.3840322592        1.4238343488
Mg              -0.4915358126        3.4425470901        4.2681156601
Mg               0.7102646090        3.2183025548        1.4070684813
Ni              -1.6555562264        5.9441108959        5.1904516052
Ni              -1.8601183690        2.4101606579        2.3592271005
Ni               2.1032892402        4.2430223421        3.3379375835
Ni               1.8951063936        0.7080437267        0.4701553151
H               -0.4611527046        5.0161351504        5.4186392446
H               -0.3684146566        2.1323403564        2.5570367747
H                0.6089184066        4.5204472041        3.1235400802
H                0.7105774010        1.6356933250        0.2870105944
H                4.9784408087        1.0043176873        2.4289563315
H                3.9565058864        1.6915076109        5.2871280680
H               -3.6580238466        4.9232528588        0.3695979315
H               -4.7151415262        5.6605377896        3.2984326892
H               -2.5476505867        5.8229915393        3.9509366779
H               -2.3102673886        3.1828117110        1.0157765996
H                2.6227196149        3.5910426243        4.6291815175
H                2.7218225701        0.8398906190        1.7795912846
H                0.5970911434        1.8776005036        4.9498413655
H                2.5928170305        3.4319186839        2.1308484247
H               -2.3623820491        3.2382235719        3.5508890726
H               -0.4787186903        4.7461883840        0.6606982569



     Writing config-only to output data dir ./outdir/mg2nih4_co.save/ :
     XML data file
     NEW-OLD atomic charge density approx. for the potential
     New effective cutoffs (rho, wfc):  527.44   65.94

     Check: negative core charge=   -0.000002

     total cpu time spent up to now is     2408.5 secs

     Self-consistent Calculation

     iteration #  1     ecut=    60.00 Ry     beta= 0.30
     Davidson diagonalization with overlap
     c_bands:  1 eigenvalues not converged
     c_bands:  1 eigenvalues not converged
     ethr =  1.00E-06,  avg # of iterations =  7.3

     total cpu time spent up to now is     2499.2 secs

     total energy              =   -1926.19854638 Ry
     estimated scf accuracy    <       0.01700359 Ry

     iteration #  2     ecut=    60.00 Ry     beta= 0.30
     Davidson diagonalization with overlap
     ethr =  1.43E-05,  avg # of iterations =  3.0

     total cpu time spent up to now is     2534.0 secs

     total energy              =   -1926.19520386 Ry
     estimated scf accuracy    <       0.10150186 Ry

     iteration #  3     ecut=    60.00 Ry     beta= 0.30
     Davidson diagonalization with overlap
     ethr =  1.43E-05,  avg # of iterations =  3.0

     total cpu time spent up to now is     2568.1 secs

     total energy              =   -1926.20015754 Ry
     estimated scf accuracy    <       0.04884062 Ry

     iteration #  4     ecut=    60.00 Ry     beta= 0.30
     Davidson diagonalization with overlap
     ethr =  1.43E-05,  avg # of iterations =  2.0

     total cpu time spent up to now is     2595.5 secs

     total energy              =   -1926.20261789 Ry
     estimated scf accuracy    <       0.00273506 Ry

     iteration #  5     ecut=    60.00 Ry     beta= 0.30
     Davidson diagonalization with overlap
     ethr =  2.30E-06,  avg # of iterations =  1.7

     total cpu time spent up to now is     2623.8 secs

     total energy              =   -1926.20265440 Ry
     estimated scf accuracy    <       0.00183058 Ry

     iteration #  6     ecut=    60.00 Ry     beta= 0.30
     Davidson diagonalization with overlap
     ethr =  1.54E-06,  avg # of iterations =  1.0

     total cpu time spent up to now is     2647.2 secs

     total energy              =   -1926.20281335 Ry
     estimated scf accuracy    <       0.00016911 Ry

     iteration #  7     ecut=    60.00 Ry     beta= 0.30
     Davidson diagonalization with overlap
     ethr =  1.42E-07,  avg # of iterations =  2.0

     total cpu time spent up to now is     2676.4 secs

     total energy              =   -1926.20281836 Ry
     estimated scf accuracy    <       0.00012805 Ry

     iteration #  8     ecut=    60.00 Ry     beta= 0.30
     Davidson diagonalization with overlap
     ethr =  1.08E-07,  avg # of iterations =  1.1

     total cpu time spent up to now is     2700.3 secs

     total energy              =   -1926.20282826 Ry
     estimated scf accuracy    <       0.00003510 Ry

     iteration #  9     ecut=    60.00 Ry     beta= 0.30
     Davidson diagonalization with overlap
     ethr =  2.95E-08,  avg # of iterations =  2.4

     total cpu time spent up to now is     2732.8 secs

     total energy              =   -1926.20283125 Ry
     estimated scf accuracy    <       0.00000574 Ry

     iteration # 10     ecut=    60.00 Ry     beta= 0.30
     Davidson diagonalization with overlap
     ethr =  4.82E-09,  avg # of iterations =  4.7

     total cpu time spent up to now is     2780.2 secs

     total energy              =   -1926.20283330 Ry
     estimated scf accuracy    <       0.00000828 Ry

     iteration # 11     ecut=    60.00 Ry     beta= 0.30
     Davidson diagonalization with overlap
     ethr =  4.82E-09,  avg # of iterations =  1.2

     total cpu time spent up to now is     2805.3 secs

     total energy              =   -1926.20283386 Ry
     estimated scf accuracy    <       0.00000029 Ry

     iteration # 12     ecut=    60.00 Ry     beta= 0.30
     Davidson diagonalization with overlap
     ethr =  2.40E-10,  avg # of iterations =  2.6

     total cpu time spent up to now is     2839.7 secs

     total energy              =   -1926.20283392 Ry
     estimated scf accuracy    <       0.00000009 Ry

     iteration # 13     ecut=    60.00 Ry     beta= 0.30
     Davidson diagonalization with overlap
     ethr =  7.32E-11,  avg # of iterations =  1.0

     total cpu time spent up to now is     2862.3 secs

     total energy              =   -1926.20283393 Ry
     estimated scf accuracy    <          3.9E-09 Ry

     iteration # 14     ecut=    60.00 Ry     beta= 0.30
     Davidson diagonalization with overlap
     ethr =  3.28E-12,  avg # of iterations =  2.5

     total cpu time spent up to now is     2896.1 secs

     End of self-consistent calculation

     Number of k-points >= 100: set verbosity='high' to print the bands.

     the Fermi energy is     6.8354 ev

!    total energy              =   -1926.20283393 Ry
     estimated scf accuracy    <          7.9E-10 Ry
     smearing contrib. (-TS)   =      -0.00032391 Ry
     internal energy E=F+TS    =   -1926.20251003 Ry

     The total energy is F=E-TS. E is the sum of the following terms:
     one-electron contribution =   -1693.03757632 Ry
     hartree contribution      =     881.58982700 Ry
     xc contribution           =    -198.51241066 Ry
     ewald contribution        =    -696.78253187 Ry
     DFT-D3 Dispersion         =      -0.37521582 Ry
     one-center paw contrib.   =    -219.08460235 Ry

     convergence has been achieved in  14 iterations

     Forces acting on atoms (cartesian axes, Ry/au):

     atom    1 type  1   force =    -0.00583469   -0.02033117    0.02485181
     atom    2 type  2   force =     0.00585180    0.00165849    0.00367332
     atom    3 type  2   force =    -0.00325185   -0.00032669   -0.00341095
     atom    4 type  2   force =     0.00068143    0.00410035   -0.00450207
     atom    5 type  2   force =     0.00459090    0.00229073   -0.00279269
     atom    6 type  2   force =    -0.00104311   -0.00373239    0.00226350
     atom    7 type  2   force =     0.00164092    0.00244053    0.00152445
     atom    8 type  2   force =    -0.00404896   -0.00023313   -0.00239309
     atom    9 type  3   force =     0.00120732   -0.00267056   -0.00259480
     atom   10 type  3   force =     0.00304820    0.00458340   -0.00963361
     atom   11 type  3   force =    -0.00383087    0.00069965   -0.00095182
     atom   12 type  3   force =     0.00048055    0.00471189    0.00757198
     atom   13 type  4   force =     0.00619283   -0.00097646    0.00977833
     atom   14 type  4   force =     0.00750933   -0.00608738    0.00704437
     atom   15 type  4   force =    -0.00607684    0.00627010   -0.00869080
     atom   16 type  4   force =    -0.00851058    0.00129490   -0.00649972
     atom   17 type  4   force =    -0.00236078   -0.00520521   -0.00528126
     atom   18 type  4   force =     0.00218327    0.00278129   -0.00157727
     atom   19 type  4   force =     0.01337566   -0.01098613   -0.00410472
     atom   20 type  4   force =     0.00332168    0.00307493    0.00930146
     atom   21 type  4   force =    -0.01481624   -0.00055844    0.00023539
     atom   22 type  4   force =     0.00564386    0.00784319   -0.01041216
     atom   23 type  4   force =     0.01495460    0.01015253    0.01174326
     atom   24 type  4   force =     0.00052706    0.00305543    0.00504492
     atom   25 type  4   force =     0.00308334   -0.00235038   -0.01140222
     atom   26 type  4   force =     0.00275288   -0.00059557   -0.00517361
     atom   27 type  4   force =    -0.00340511    0.00236805    0.00270423
     atom   28 type  4   force =    -0.02386662   -0.00327195   -0.00631620

     Total force =     0.065483     Total SCF correction =     0.000095


     Computing stress (Cartesian axis) and pressure

          total   stress  (Ry/bohr**3)                   (kbar)     P=       31.38
   0.00021123  -0.00001065   0.00001895           31.07       -1.57        2.79
  -0.00001065   0.00022466   0.00003225           -1.57       33.05        4.74
   0.00001895   0.00003225   0.00020412            2.79        4.74       30.03

     Energy error            =      8.9E-03 Ry
     Gradient error          =      2.5E-02 Ry/Bohr
     Cell gradient error     =      3.3E+01 kbar

     number of scf cycles    =   5
     number of bfgs steps    =   4

     enthalpy           old  =   -1926.1939596251 Ry
     enthalpy           new  =   -1926.2028339315 Ry

     CASE: enthalpy          _new < enthalpy          _old

     new trust radius        =       0.1399245703 bohr
     new conv_thr            =       0.0000000010 Ry

     new unit-cell volume =   1622.20402 a.u.^3 (   240.38583 Ang^3 )
     density =      3.31553 g/cm^3

CELL_PARAMETERS (angstrom)
   7.495302657  -0.062044639   0.057020840
  -5.057954152   5.697488963  -0.045632278
  -2.201547167   1.022359813   5.652717928

ATOMIC_POSITIONS (angstrom)
Co              -4.1268120321        5.2867159056        5.3385737377
Mg              -3.0091051928        4.7130852286        2.3578957230
Mg               3.2598880257        1.9547654775        3.3083196362
Mg               4.3094933611        1.3186416822        0.4509315659
Mg               0.8143561441        6.2412703401        4.2768657041
Mg              -0.4903300508        0.3814204917        1.4180044146
Mg              -0.4821104100        3.4489264360        4.2488632035
Mg               0.6888321748        3.2152847813        1.3962700727
Ni              -1.6458756243        5.9389610200        5.1503918723
Ni              -1.8422196515        2.4196006943        2.3284349455
Ni               2.0831810185        4.2374162786        3.3369208312
Ni               1.8846232223        0.7130781459        0.4811980357
H               -0.4426388001        5.0153667983        5.4128153703
H               -0.3447489292        2.1220304026        2.5557888598
H                0.5845613222        4.5291381139        3.0960229682
H                0.6910303877        1.6347593289        0.2773679707
H                4.9517315344        0.9797614032        2.4184468476
H                3.9548073778        1.6928268261        5.2676756422
H               -3.6237163554        4.8985107849        0.3485945611
H               -4.6815006507        5.6853947516        3.3019185451
H               -2.5785927691        5.8259195230        3.9286269317
H               -2.2937488771        3.2174634215        0.9661965086
H                2.6476960650        3.6140036120        4.6410478923
H                2.7142668038        0.8415505153        1.7962876412
H                0.6109240304        1.8733450031        4.9008151674
H                2.5805379842        3.4228514269        2.1179501441
H               -2.3564656560        3.2534922457        3.5346655621
H               -0.5568457223        4.7336772878        0.6406004980



     Writing config-only to output data dir ./outdir/mg2nih4_co.save/ :
     XML data file
     NEW-OLD atomic charge density approx. for the potential
     New effective cutoffs (rho, wfc):  536.36   67.05

     Check: negative core charge=   -0.000002

     total cpu time spent up to now is     2913.2 secs

     Self-consistent Calculation

     iteration #  1     ecut=    60.00 Ry     beta= 0.30
     Davidson diagonalization with overlap
     c_bands:  1 eigenvalues not converged
     c_bands:  1 eigenvalues not converged
     ethr =  1.00E-06,  avg # of iterations =  9.5

     total cpu time spent up to now is     3026.0 secs

     total energy              =   -1926.20706885 Ry
     estimated scf accuracy    <       0.02157626 Ry

     iteration #  2     ecut=    60.00 Ry     beta= 0.30
     Davidson diagonalization with overlap
     ethr =  1.81E-05,  avg # of iterations =  2.0

     total cpu time spent up to now is     3056.5 secs

     total energy              =   -1926.20219007 Ry
     estimated scf accuracy    <       0.11864367 Ry

     iteration #  3     ecut=    60.00 Ry     beta= 0.30
     Davidson diagonalization with overlap
     ethr =  1.81E-05,  avg # of iterations =  2.9

     total cpu time spent up to now is     3090.0 secs

     total energy              =   -1926.20805965 Ry
     estimated scf accuracy    <       0.03383484 Ry

     iteration #  4     ecut=    60.00 Ry     beta= 0.30
     Davidson diagonalization with overlap
     ethr =  1.81E-05,  avg # of iterations =  2.0

     total cpu time spent up to now is     3117.2 secs

     total energy              =   -1926.20973485 Ry
     estimated scf accuracy    <       0.01034317 Ry

     iteration #  5     ecut=    60.00 Ry     beta= 0.30
     Davidson diagonalization with overlap
     ethr =  8.69E-06,  avg # of iterations =  1.0

     total cpu time spent up to now is     3140.3 secs

     total energy              =   -1926.21031845 Ry
     estimated scf accuracy    <       0.00187611 Ry

     iteration #  6     ecut=    60.00 Ry     beta= 0.30
     Davidson diagonalization with overlap
     ethr =  1.58E-06,  avg # of iterations =  2.0

     total cpu time spent up to now is     3168.7 secs

     total energy              =   -1926.21051826 Ry
     estimated scf accuracy    <       0.00038460 Ry

     iteration #  7     ecut=    60.00 Ry     beta= 0.30
     Davidson diagonalization with overlap
     ethr =  3.23E-07,  avg # of iterations =  2.0

     total cpu time spent up to now is     3197.0 secs

     total energy              =   -1926.21051809 Ry
     estimated scf accuracy    <       0.00042588 Ry

     iteration #  8     ecut=    60.00 Ry     beta= 0.30
     Davidson diagonalization with overlap
     ethr =  3.23E-07,  avg # of iterations =  1.0

     total cpu time spent up to now is     3220.3 secs

     total energy              =   -1926.21054812 Ry
     estimated scf accuracy    <       0.00003560 Ry

     iteration #  9     ecut=    60.00 Ry     beta= 0.30
     Davidson diagonalization with overlap
     ethr =  2.99E-08,  avg # of iterations =  4.6

     total cpu time spent up to now is     3270.7 secs

     total energy              =   -1926.21055447 Ry
     estimated scf accuracy    <       0.00002631 Ry

     iteration # 10     ecut=    60.00 Ry     beta= 0.30
     Davidson diagonalization with overlap
     ethr =  2.21E-08,  avg # of iterations =  2.1

     total cpu time spent up to now is     3304.3 secs

     total energy              =   -1926.21055611 Ry
     estimated scf accuracy    <       0.00000722 Ry

     iteration # 11     ecut=    60.00 Ry     beta= 0.30
     Davidson diagonalization with overlap
     ethr =  6.06E-09,  avg # of iterations =  3.1

     total cpu time spent up to now is     3341.0 secs

     total energy              =   -1926.21055728 Ry
     estimated scf accuracy    <       0.00000056 Ry

     iteration # 12     ecut=    60.00 Ry     beta= 0.30
     Davidson diagonalization with overlap
     ethr =  4.69E-10,  avg # of iterations =  4.6

     total cpu time spent up to now is     3393.2 secs

     total energy              =   -1926.21055766 Ry
     estimated scf accuracy    <       0.00000010 Ry

     iteration # 13     ecut=    60.00 Ry     beta= 0.30
     Davidson diagonalization with overlap
     ethr =  8.24E-11,  avg # of iterations =  1.2

     total cpu time spent up to now is     3417.3 secs

     total energy              =   -1926.21055767 Ry
     estimated scf accuracy    <          7.1E-09 Ry

     iteration # 14     ecut=    60.00 Ry     beta= 0.30
     Davidson diagonalization with overlap
     ethr =  5.98E-12,  avg # of iterations =  2.2

     total cpu time spent up to now is     3448.2 secs

     End of self-consistent calculation

     Number of k-points >= 100: set verbosity='high' to print the bands.

     the Fermi energy is     6.9608 ev

!    total energy              =   -1926.21055767 Ry
     estimated scf accuracy    <          5.8E-10 Ry
     smearing contrib. (-TS)   =      -0.00033933 Ry
     internal energy E=F+TS    =   -1926.21021834 Ry

     The total energy is F=E-TS. E is the sum of the following terms:
     one-electron contribution =   -1684.71727385 Ry
     hartree contribution      =     877.98240371 Ry
     xc contribution           =    -198.54932011 Ry
     ewald contribution        =    -701.45954289 Ry
     DFT-D3 Dispersion         =      -0.37404459 Ry
     one-center paw contrib.   =    -219.09244061 Ry

     convergence has been achieved in  14 iterations

     Forces acting on atoms (cartesian axes, Ry/au):

     atom    1 type  1   force =    -0.00841367   -0.02084897    0.01568699
     atom    2 type  2   force =     0.00388781    0.00094188    0.00392008
     atom    3 type  2   force =    -0.00167339    0.00106284   -0.00339435
     atom    4 type  2   force =     0.00214894    0.00322154   -0.00344940
     atom    5 type  2   force =     0.00161679    0.00514254   -0.00458707
     atom    6 type  2   force =    -0.00166046   -0.00437862    0.00266035
     atom    7 type  2   force =     0.00050504    0.00178804    0.00170171
     atom    8 type  2   force =    -0.00238681    0.00044009   -0.00178967
     atom    9 type  3   force =    -0.00061848    0.00010039   -0.00195036
     atom   10 type  3   force =     0.00289470    0.00193444   -0.00370651
     atom   11 type  3   force =    -0.00150407    0.00126171   -0.00365366
     atom   12 type  3   force =     0.00134716    0.00254718    0.00360608
     atom   13 type  4   force =     0.00130841    0.00237083    0.00882107
     atom   14 type  4   force =     0.00023151   -0.00540897    0.00722632
     atom   15 type  4   force =     0.00035338    0.00660007   -0.00886159
     atom   16 type  4   force =    -0.00515120   -0.00211908   -0.00624126
     atom   17 type  4   force =     0.00110423    0.00229549   -0.00596825
     atom   18 type  4   force =    -0.00132214   -0.00305126   -0.00172362
     atom   19 type  4   force =     0.01783596   -0.00500499   -0.00291757
     atom   20 type  4   force =    -0.00175726   -0.00399675    0.00692673
     atom   21 type  4   force =    -0.00939910    0.00144675    0.00671599
     atom   22 type  4   force =     0.00448213    0.00052280   -0.00024297
     atom   23 type  4   force =     0.01431915    0.01355436    0.00679248
     atom   24 type  4   force =    -0.00188909    0.00252690   -0.00044253
     atom   25 type  4   force =    -0.00156693   -0.00202499   -0.00498383
     atom   26 type  4   force =     0.00125526    0.00226372    0.00005961
     atom   27 type  4   force =    -0.00073653   -0.00172648   -0.00363938
     atom   28 type  4   force =    -0.01521135   -0.00146146   -0.00656539

     Total force =     0.052484     Total SCF correction =     0.000099


     Computing stress (Cartesian axis) and pressure

          total   stress  (Ry/bohr**3)                   (kbar)     P=       31.68
   0.00020740   0.00000264   0.00000734           30.51        0.39        1.08
   0.00000264   0.00022110   0.00003812            0.39       32.53        5.61
   0.00000734   0.00003812   0.00021754            1.08        5.61       32.00

     Energy error            =      7.7E-03 Ry
     Gradient error          =      2.1E-02 Ry/Bohr
     Cell gradient error     =      3.3E+01 kbar

     number of scf cycles    =   6
     number of bfgs steps    =   5

     enthalpy           old  =   -1926.2028339315 Ry
     enthalpy           new  =   -1926.2105576715 Ry

     CASE: enthalpy          _new < enthalpy          _old

     new trust radius        =       0.1786545952 bohr
     new conv_thr            =       0.0000000010 Ry

     new unit-cell volume =   1632.36398 a.u.^3 (   241.89139 Ang^3 )
     density =      3.29490 g/cm^3

CELL_PARAMETERS (angstrom)
   7.498127778  -0.081790561   0.080159083
  -5.074426090   5.742360807  -0.049544512
  -2.187597545   1.045910848   5.650078903

ATOMIC_POSITIONS (angstrom)
Co              -4.1463943560        5.2894325692        5.4165713119
Mg              -2.9956271594        4.7595520595        2.3691608674
Mg               3.2546556928        1.9625299696        3.3149956541
Mg               4.3063383769        1.3244966019        0.4485205982
Mg               0.8419038871        6.2805455454        4.2965779417
Mg              -0.4883205730        0.3793878755        1.4226862788
Mg              -0.4730163680        3.4838692532        4.2595853842
Mg               0.6679498625        3.2343778826        1.3955729370
Ni              -1.6436782839        5.9764836563        5.1436372811
Ni              -1.8300945972        2.4481760742        2.3104603748
Ni               2.0734162897        4.2633281481        3.3597156197
Ni               1.8850710826        0.7255652661        0.4989826655
H               -0.4225950484        5.0546794530        5.4526517331
H               -0.3201903634        2.1229207164        2.5780985868
H                0.5628214970        4.5759254189        3.0842339411
H                0.6707321807        1.6422755097        0.2660703050
H                4.9520303116        0.9653866377        2.4192803745
H                3.9750529137        1.7090934846        5.2805811962
H               -3.5915797033        4.8973285453        0.3311317289
H               -4.6707117922        5.7479535148        3.3381712935
H               -2.6322330759        5.8714604334        3.9409397852
H               -2.2852867682        3.2763989286        0.9218806088
H                2.7020865361        3.6794689160        4.6928283972
H                2.7201235354        0.8534528826        1.8266572945
H                0.6287627253        1.8849093194        4.8770422322
H                2.5830441536        3.4393690964        2.1223466654
H               -2.3624125588        3.2929850243        3.5389497339
H               -0.6563904021        4.7493825225        0.6223778339



     Writing config-only to output data dir ./outdir/mg2nih4_co.save/ :
     XML data file
     NEW-OLD atomic charge density approx. for the potential
     New effective cutoffs (rho, wfc):  540.39   67.57

     Check: negative core charge=   -0.000002

     total cpu time spent up to now is     3465.2 secs

     Self-consistent Calculation

     iteration #  1     ecut=    60.00 Ry     beta= 0.30
     Davidson diagonalization with overlap
     c_bands:  1 eigenvalues not converged
     c_bands:  1 eigenvalues not converged
     ethr =  1.00E-06,  avg # of iterations = 10.2

     total cpu time spent up to now is     3580.1 secs

     total energy              =   -1926.21421669 Ry
     estimated scf accuracy    <       0.03428146 Ry

     iteration #  2     ecut=    60.00 Ry     beta= 0.30
     Davidson diagonalization with overlap
     ethr =  2.88E-05,  avg # of iterations =  3.0

     total cpu time spent up to now is     3613.8 secs

     total energy              =   -1926.20516460 Ry
     estimated scf accuracy    <       0.23182980 Ry

     iteration #  3     ecut=    60.00 Ry     beta= 0.30
     Davidson diagonalization with overlap
     ethr =  2.88E-05,  avg # of iterations =  3.0

     total cpu time spent up to now is     3646.2 secs

     total energy              =   -1926.21725442 Ry
     estimated scf accuracy    <       0.03534122 Ry

     iteration #  4     ecut=    60.00 Ry     beta= 0.30
     Davidson diagonalization with overlap
     ethr =  2.88E-05,  avg # of iterations =  1.6

     total cpu time spent up to now is     3675.2 secs

     total energy              =   -1926.21897004 Ry
     estimated scf accuracy    <       0.01733242 Ry

     iteration #  5     ecut=    60.00 Ry     beta= 0.30
     Davidson diagonalization with overlap
     ethr =  1.46E-05,  avg # of iterations =  1.1

     total cpu time spent up to now is     3699.7 secs

     total energy              =   -1926.22001529 Ry
     estimated scf accuracy    <       0.00200315 Ry

     iteration #  6     ecut=    60.00 Ry     beta= 0.30
     Davidson diagonalization with overlap
     ethr =  1.68E-06,  avg # of iterations =  2.1

     total cpu time spent up to now is     3730.8 secs

     total energy              =   -1926.22025213 Ry
     estimated scf accuracy    <       0.00081790 Ry

     iteration #  7     ecut=    60.00 Ry     beta= 0.30
     Davidson diagonalization with overlap
     ethr =  6.87E-07,  avg # of iterations =  1.4

     total cpu time spent up to now is     3757.8 secs

     total energy              =   -1926.22027164 Ry
     estimated scf accuracy    <       0.00044325 Ry

     iteration #  8     ecut=    60.00 Ry     beta= 0.30
     Davidson diagonalization with overlap
     ethr =  3.72E-07,  avg # of iterations =  1.3

     total cpu time spent up to now is     3784.1 secs

     total energy              =   -1926.22031108 Ry
     estimated scf accuracy    <       0.00010756 Ry

     iteration #  9     ecut=    60.00 Ry     beta= 0.30
     Davidson diagonalization with overlap
     ethr =  9.04E-08,  avg # of iterations =  4.7

     total cpu time spent up to now is     3845.1 secs

     total energy              =   -1926.22032223 Ry
     estimated scf accuracy    <       0.00003497 Ry

     iteration # 10     ecut=    60.00 Ry     beta= 0.30
     Davidson diagonalization with overlap
     ethr =  2.94E-08,  avg # of iterations =  4.0

     total cpu time spent up to now is     3892.0 secs

     total energy              =   -1926.22032632 Ry
     estimated scf accuracy    <       0.00000768 Ry

     iteration # 11     ecut=    60.00 Ry     beta= 0.30
     Davidson diagonalization with overlap
     ethr =  6.45E-09,  avg # of iterations =  4.8

     total cpu time spent up to now is     3938.6 secs

     total energy              =   -1926.22032843 Ry
     estimated scf accuracy    <       0.00000084 Ry

     iteration # 12     ecut=    60.00 Ry     beta= 0.30
     Davidson diagonalization with overlap
     ethr =  7.02E-10,  avg # of iterations =  2.6

     total cpu time spent up to now is     3974.1 secs

     total energy              =   -1926.22032865 Ry
     estimated scf accuracy    <       0.00000008 Ry

     iteration # 13     ecut=    60.00 Ry     beta= 0.30
     Davidson diagonalization with overlap
     ethr =  6.43E-11,  avg # of iterations =  1.8

     total cpu time spent up to now is     4002.7 secs

     total energy              =   -1926.22032866 Ry
     estimated scf accuracy    <          8.7E-09 Ry

     iteration # 14     ecut=    60.00 Ry     beta= 0.30
     Davidson diagonalization with overlap
     ethr =  7.31E-12,  avg # of iterations =  2.3

     total cpu time spent up to now is     4036.6 secs

     End of self-consistent calculation

     Number of k-points >= 100: set verbosity='high' to print the bands.

     the Fermi energy is     6.9089 ev

!    total energy              =   -1926.22032866 Ry
     estimated scf accuracy    <          9.8E-10 Ry
     smearing contrib. (-TS)   =      -0.00053802 Ry
     internal energy E=F+TS    =   -1926.21979064 Ry

     The total energy is F=E-TS. E is the sum of the following terms:
     one-electron contribution =   -1683.56389457 Ry
     hartree contribution      =     877.29608868 Ry
     xc contribution           =    -198.46877720 Ry
     ewald contribution        =    -702.02740067 Ry
     DFT-D3 Dispersion         =      -0.37198006 Ry
     one-center paw contrib.   =    -219.08382682 Ry

     convergence has been achieved in  14 iterations

     Forces acting on atoms (cartesian axes, Ry/au):

     atom    1 type  1   force =    -0.01049007   -0.00503449   -0.01854151
     atom    2 type  2   force =     0.00104698    0.00031752    0.00380480
     atom    3 type  2   force =     0.00117434    0.00236338   -0.00288470
     atom    4 type  2   force =     0.00364446    0.00175145   -0.00187756
     atom    5 type  2   force =    -0.00111582    0.00714789   -0.00469321
     atom    6 type  2   force =    -0.00216830   -0.00364687    0.00221916
     atom    7 type  2   force =    -0.00101958    0.00102746    0.00103907
     atom    8 type  2   force =    -0.00071549    0.00039459   -0.00049730
     atom    9 type  3   force =    -0.00309881    0.00308593   -0.00091168
     atom   10 type  3   force =     0.00254636   -0.00326809    0.00633437
     atom   11 type  3   force =     0.00206860    0.00209055   -0.00540720
     atom   12 type  3   force =     0.00252177   -0.00128700   -0.00372385
     atom   13 type  4   force =    -0.00629173    0.00695712    0.00540089
     atom   14 type  4   force =    -0.00908852   -0.00318753    0.00553737
     atom   15 type  4   force =     0.00912052    0.00531736   -0.00699114
     atom   16 type  4   force =     0.00136553   -0.00713149   -0.00421636
     atom   17 type  4   force =     0.00563285    0.01228467   -0.00641515
     atom   18 type  4   force =    -0.00630102   -0.01074531   -0.00175786
     atom   19 type  4   force =     0.02088139    0.00234781   -0.00076403
     atom   20 type  4   force =    -0.00815681   -0.01284442    0.00319096
     atom   21 type  4   force =    -0.00057653    0.00379840    0.01427061
     atom   22 type  4   force =    -0.00226147   -0.02035645    0.02653316
     atom   23 type  4   force =     0.01096822    0.01626657   -0.00042367
     atom   24 type  4   force =    -0.00528897    0.00138807   -0.00795794
     atom   25 type  4   force =    -0.00730838   -0.00036091    0.00505404
     atom   26 type  4   force =    -0.00148267    0.00599196    0.00784901
     atom   27 type  4   force =     0.00332863   -0.00685585   -0.01180383
     atom   28 type  4   force =     0.00106452    0.00218771   -0.00236646

     Total force =     0.067184     Total SCF correction =     0.000127


     Computing stress (Cartesian axis) and pressure

          total   stress  (Ry/bohr**3)                   (kbar)     P=       16.88
   0.00008690   0.00002732  -0.00001635           12.78        4.02       -2.41
   0.00002732   0.00011845   0.00001827            4.02       17.42        2.69
  -0.00001635   0.00001827   0.00013893           -2.41        2.69       20.44

     Energy error            =      9.8E-03 Ry
     Gradient error          =      2.7E-02 Ry/Bohr
     Cell gradient error     =      2.0E+01 kbar

     number of scf cycles    =   7
     number of bfgs steps    =   6

     enthalpy           old  =   -1926.2105576715 Ry
     enthalpy           new  =   -1926.2203286636 Ry

     CASE: enthalpy          _new < enthalpy          _old

     new trust radius        =       0.0627288352 bohr
     new conv_thr            =       0.0000000010 Ry

     new unit-cell volume =   1665.66739 a.u.^3 (   246.82644 Ang^3 )
     density =      3.22902 g/cm^3

CELL_PARAMETERS (angstrom)
   7.547094011  -0.073120190   0.073854429
  -5.100808421   5.770772722  -0.042013586
  -2.205799199   1.052844976   5.696114496

ATOMIC_POSITIONS (angstrom)
Co              -4.1744325870        5.3203500769        5.4467011353
Mg              -3.0136357126        4.7849413503        2.3937320998
Mg               3.2773517593        1.9818053172        3.3379646206
Mg               4.3383666655        1.3383327077        0.4507068600
Mg               0.8446224645        6.3272213647        4.3282560371
Mg              -0.4934746736        0.3805791395        1.4350796438
Mg              -0.4769642726        3.5069902899        4.2950137481
Mg               0.6771577326        3.2556794078        1.4087483574
Ni              -1.6538013275        6.0167546998        5.1905508416
Ni              -1.8417403104        2.4609435613        2.3350876640
Ni               2.0909583392        4.2948507153        3.3814275927
Ni               1.8993214194        0.7305400714        0.5001876423
H               -0.4289415831        5.0913507164        5.4972586632
H               -0.3289565201        2.1369796401        2.6004996965
H                0.5759363623        4.6072508929        3.1090749411
H                0.6782611874        1.6501919539        0.2678592664
H                4.9866558354        0.9857977412        2.4329888477
H                3.9943767368        1.7214873566        5.3181313979
H               -3.6049002204        4.9286872731        0.3421558548
H               -4.7042631074        5.7706099382        3.3671918414
H               -2.6397890638        5.9083420051        3.9823774225
H               -2.2992274557        3.2787947674        0.9525626847
H                2.7191755383        3.7095749392        4.7247365328
H                2.7344107204        0.8623959748        1.8318169255
H                0.6264726456        1.9006987153        4.9206765477
H                2.6015403624        3.4674228482        2.1428990912
H               -2.3750657623        3.3075346356        3.5645431698
H               -0.6426057019        4.7808570185        0.6331456168



     Writing config-only to output data dir ./outdir/mg2nih4_co.save/ :
     XML data file
     NEW-OLD atomic charge density approx. for the potential
     New effective cutoffs (rho, wfc):  531.76   66.49

     Check: negative core charge=   -0.000002

     total cpu time spent up to now is     4053.7 secs

     Self-consistent Calculation

     iteration #  1     ecut=    60.00 Ry     beta= 0.30
     Davidson diagonalization with overlap
     ethr =  1.00E-06,  avg # of iterations =  4.8

     total cpu time spent up to now is     4117.4 secs

     total energy              =   -1926.22093856 Ry
     estimated scf accuracy    <       0.01525908 Ry

     iteration #  2     ecut=    60.00 Ry     beta= 0.30
     Davidson diagonalization with overlap
     ethr =  1.28E-05,  avg # of iterations =  3.0

     total cpu time spent up to now is     4152.8 secs

     total energy              =   -1926.21762025 Ry
     estimated scf accuracy    <       0.11249837 Ry

     iteration #  3     ecut=    60.00 Ry     beta= 0.30
     Davidson diagonalization with overlap
     ethr =  1.28E-05,  avg # of iterations =  3.0

     total cpu time spent up to now is     4186.4 secs

     total energy              =   -1926.22415898 Ry
     estimated scf accuracy    <       0.04348923 Ry

     iteration #  4     ecut=    60.00 Ry     beta= 0.30
     Davidson diagonalization with overlap
     ethr =  1.28E-05,  avg # of iterations =  2.0

     total cpu time spent up to now is     4213.9 secs

     total energy              =   -1926.22613484 Ry
     estimated scf accuracy    <       0.00038349 Ry

     iteration #  5     ecut=    60.00 Ry     beta= 0.30
     Davidson diagonalization with overlap
     ethr =  3.22E-07,  avg # of iterations =  2.3

     total cpu time spent up to now is     4246.7 secs

     total energy              =   -1926.22612333 Ry
     estimated scf accuracy    <       0.00110075 Ry

     iteration #  6     ecut=    60.00 Ry     beta= 0.30
     Davidson diagonalization with overlap
     ethr =  3.22E-07,  avg # of iterations =  2.0

     total cpu time spent up to now is     4274.8 secs

     total energy              =   -1926.22619961 Ry
     estimated scf accuracy    <       0.00003728 Ry

     iteration #  7     ecut=    60.00 Ry     beta= 0.30
     Davidson diagonalization with overlap
     ethr =  3.13E-08,  avg # of iterations =  2.0

     total cpu time spent up to now is     4303.7 secs

     total energy              =   -1926.22619979 Ry
     estimated scf accuracy    <       0.00006409 Ry

     iteration #  8     ecut=    60.00 Ry     beta= 0.30
     Davidson diagonalization with overlap
     ethr =  3.13E-08,  avg # of iterations =  1.7

     total cpu time spent up to now is     4333.4 secs

     total energy              =   -1926.22620450 Ry
     estimated scf accuracy    <       0.00000593 Ry

     iteration #  9     ecut=    60.00 Ry     beta= 0.30
     Davidson diagonalization with overlap
     ethr =  4.98E-09,  avg # of iterations =  4.7

     total cpu time spent up to now is     4383.4 secs

     total energy              =   -1926.22620532 Ry
     estimated scf accuracy    <       0.00000242 Ry

     iteration # 10     ecut=    60.00 Ry     beta= 0.30
     Davidson diagonalization with overlap
     ethr =  2.03E-09,  avg # of iterations =  4.1

     total cpu time spent up to now is     4425.4 secs

     total energy              =   -1926.22620580 Ry
     estimated scf accuracy    <       0.00000173 Ry

     iteration # 11     ecut=    60.00 Ry     beta= 0.30
     Davidson diagonalization with overlap
     ethr =  1.46E-09,  avg # of iterations =  1.1

     total cpu time spent up to now is     4449.3 secs

     total energy              =   -1926.22620592 Ry
     estimated scf accuracy    <       0.00000006 Ry

     iteration # 12     ecut=    60.00 Ry     beta= 0.30
     Davidson diagonalization with overlap
     ethr =  5.34E-11,  avg # of iterations =  3.8

     total cpu time spent up to now is     4497.4 secs

     total energy              =   -1926.22620601 Ry
     estimated scf accuracy    <       0.00000002 Ry

     iteration # 13     ecut=    60.00 Ry     beta= 0.30
     Davidson diagonalization with overlap
     ethr =  1.47E-11,  avg # of iterations =  1.9

     total cpu time spent up to now is     4525.9 secs

     total energy              =   -1926.22620601 Ry
     estimated scf accuracy    <          2.9E-09 Ry

     iteration # 14     ecut=    60.00 Ry     beta= 0.30
     Davidson diagonalization with overlap
     ethr =  2.41E-12,  avg # of iterations =  2.1

     total cpu time spent up to now is     4554.8 secs

     End of self-consistent calculation

     Number of k-points >= 100: set verbosity='high' to print the bands.

     the Fermi energy is     6.7029 ev

!    total energy              =   -1926.22620601 Ry
     estimated scf accuracy    <          1.2E-10 Ry
     smearing contrib. (-TS)   =      -0.00053097 Ry
     internal energy E=F+TS    =   -1926.22567504 Ry

     The total energy is F=E-TS. E is the sum of the following terms:
     one-electron contribution =   -1692.85771679 Ry
     hartree contribution      =     881.11676322 Ry
     xc contribution           =    -198.31902773 Ry
     ewald contribution        =    -696.73587327 Ry
     DFT-D3 Dispersion         =      -0.36486923 Ry
     one-center paw contrib.   =    -219.06495124 Ry

     convergence has been achieved in  14 iterations

     Forces acting on atoms (cartesian axes, Ry/au):

     atom    1 type  1   force =    -0.00967626   -0.00998183   -0.00428130
     atom    2 type  2   force =     0.00077007    0.00099831    0.00320662
     atom    3 type  2   force =     0.00138958    0.00133815   -0.00277568
     atom    4 type  2   force =     0.00265173    0.00117474   -0.00222400
     atom    5 type  2   force =     0.00025935    0.00494173   -0.00258453
     atom    6 type  2   force =    -0.00129386   -0.00261941    0.00125998
     atom    7 type  2   force =    -0.00041903    0.00145600    0.00066617
     atom    8 type  2   force =    -0.00129456   -0.00010269   -0.00047865
     atom    9 type  3   force =    -0.00310692    0.00300677    0.00095114
     atom   10 type  3   force =     0.00182970   -0.00364087    0.00644327
     atom   11 type  3   force =     0.00175791    0.00171416   -0.00448187
     atom   12 type  3   force =     0.00136571   -0.00182682   -0.00508791
     atom   13 type  4   force =    -0.00669846    0.00656752    0.00441817
     atom   14 type  4   force =    -0.00820617   -0.00223499    0.00414407
     atom   15 type  4   force =     0.00849254    0.00394806   -0.00545857
     atom   16 type  4   force =     0.00252534   -0.00724440   -0.00298705
     atom   17 type  4   force =     0.00547938    0.01239976   -0.00608266
     atom   18 type  4   force =    -0.00626162   -0.01064486   -0.00155017
     atom   19 type  4   force =     0.02078031    0.00284427   -0.00229662
     atom   20 type  4   force =    -0.00716750   -0.01201045    0.00386584
     atom   21 type  4   force =    -0.00106433    0.00298882    0.01261139
     atom   22 type  4   force =     0.00048040   -0.01128749    0.01548374
     atom   23 type  4   force =     0.00991283    0.01688357   -0.00116158
     atom   24 type  4   force =    -0.00483159    0.00146591   -0.00706390
     atom   25 type  4   force =    -0.00721051    0.00021091    0.00636556
     atom   26 type  4   force =    -0.00207778    0.00582726    0.00853503
     atom   27 type  4   force =     0.00370718   -0.00650939   -0.01192586
     atom   28 type  4   force =    -0.00209343    0.00033725   -0.00751063

     Total force =     0.057466     Total SCF correction =     0.000028


     Computing stress (Cartesian axis) and pressure

          total   stress  (Ry/bohr**3)                   (kbar)     P=       -0.52
  -0.00002446   0.00001579  -0.00001147           -3.60        2.32       -1.69
   0.00001579   0.00000498   0.00002061            2.32        0.73        3.03
  -0.00001147   0.00002061   0.00000879           -1.69        3.03        1.29

     Energy error            =      5.9E-03 Ry
     Gradient error          =      2.1E-02 Ry/Bohr
     Cell gradient error     =      3.6E+00 kbar

     number of scf cycles    =   8
     number of bfgs steps    =   7

     enthalpy           old  =   -1926.2203286636 Ry
     enthalpy           new  =   -1926.2262060082 Ry

     CASE: enthalpy          _new < enthalpy          _old

     new trust radius        =       0.0576802665 bohr
     new conv_thr            =       0.0000000010 Ry

     new unit-cell volume =   1690.28618 a.u.^3 (   250.47457 Ang^3 )
     density =      3.18199 g/cm^3

CELL_PARAMETERS (angstrom)
   7.573966353  -0.067697984   0.071971905
  -5.114866209   5.799123317  -0.031964429
  -2.214510180   1.066034690   5.729963035

ATOMIC_POSITIONS (angstrom)
Co              -4.2005880776        5.3374839533        5.4887991406
Mg              -3.0175145879        4.8151133577        2.4205970660
Mg               3.2891116050        2.0021125838        3.3539675941
Mg               4.3576846413        1.3531126083        0.4491455678
Mg               0.8541910385        6.3766148398        4.3578214397
Mg              -0.4972803490        0.3797738965        1.4463052602
Mg              -0.4771215007        3.5357197799        4.3257912008
Mg               0.6778169119        3.2764988891        1.4193991500
Ni              -1.6598348490        6.0589356049        5.2276203872
Ni              -1.8431320072        2.4749631673        2.3547993295
Ni               2.1005364205        4.3281058516        3.4015421467
Ni               1.9085122948        0.7371566222        0.5016928867
H               -0.4322345764        5.1351725828        5.5454111976
H               -0.3340008301        2.1471145722        2.6262524179
H                0.5860078010        4.6459914832        3.1228983999
H                0.6802989124        1.6528564012        0.2650227127
H                5.0086664297        1.0096654977        2.4373641612
H                4.0031185854        1.7323754285        5.3464373807
H               -3.5854226298        4.9501679297        0.3487821147
H               -4.7231687821        5.7932330074        3.4051092992
H               -2.6547534485        5.9489769840        4.0283291715
H               -2.3026129340        3.2857785514        0.9777463586
H                2.7484626270        3.7639129038        4.7613009958
H                2.7391503293        0.8754983655        1.8375549742
H                0.6227929101        1.9186110883        4.9511451654
H                2.6119065434        3.4983693314        2.1656451674
H               -2.3801113080        3.3238754735        3.5788201340
H               -0.6562216806        4.8072495728        0.6342863344



     Writing config-only to output data dir ./outdir/mg2nih4_co.save/ :
     XML data file
     NEW-OLD atomic charge density approx. for the potential
     New effective cutoffs (rho, wfc):  526.95   65.89

     Check: negative core charge=   -0.000002

     total cpu time spent up to now is     4572.4 secs

     Self-consistent Calculation

     iteration #  1     ecut=    60.00 Ry     beta= 0.30
     Davidson diagonalization with overlap
     ethr =  1.00E-06,  avg # of iterations =  4.9

     total cpu time spent up to now is     4638.0 secs

     total energy              =   -1926.22923180 Ry
     estimated scf accuracy    <       0.00840131 Ry

     iteration #  2     ecut=    60.00 Ry     beta= 0.30
     Davidson diagonalization with overlap
     ethr =  7.06E-06,  avg # of iterations =  3.0

     total cpu time spent up to now is     4673.6 secs

     total energy              =   -1926.22940064 Ry
     estimated scf accuracy    <       0.02643109 Ry

     iteration #  3     ecut=    60.00 Ry     beta= 0.30
     Davidson diagonalization with overlap
     ethr =  7.06E-06,  avg # of iterations =  2.8

     total cpu time spent up to now is     4708.9 secs

     total energy              =   -1926.23142284 Ry
     estimated scf accuracy    <       0.00847136 Ry

     iteration #  4     ecut=    60.00 Ry     beta= 0.30
     Davidson diagonalization with overlap
     ethr =  7.06E-06,  avg # of iterations =  1.0

     total cpu time spent up to now is     4732.0 secs

     total energy              =   -1926.23182242 Ry
     estimated scf accuracy    <       0.00067967 Ry

     iteration #  5     ecut=    60.00 Ry     beta= 0.30
     Davidson diagonalization with overlap
     ethr =  5.71E-07,  avg # of iterations =  2.0

     total cpu time spent up to now is     4760.5 secs

     total energy              =   -1926.23180360 Ry
     estimated scf accuracy    <       0.00117767 Ry

     iteration #  6     ecut=    60.00 Ry     beta= 0.30
     Davidson diagonalization with overlap
     ethr =  5.71E-07,  avg # of iterations =  1.1

     total cpu time spent up to now is     4784.9 secs

     total energy              =   -1926.23188071 Ry
     estimated scf accuracy    <       0.00003472 Ry

     iteration #  7     ecut=    60.00 Ry     beta= 0.30
     Davidson diagonalization with overlap
     ethr =  2.92E-08,  avg # of iterations =  2.8

     total cpu time spent up to now is     4820.6 secs

     total energy              =   -1926.23188456 Ry
     estimated scf accuracy    <       0.00004752 Ry

     iteration #  8     ecut=    60.00 Ry     beta= 0.30
     Davidson diagonalization with overlap
     ethr =  2.92E-08,  avg # of iterations =  1.2

     total cpu time spent up to now is     4845.5 secs

     total energy              =   -1926.23188670 Ry
     estimated scf accuracy    <       0.00001174 Ry

     iteration #  9     ecut=    60.00 Ry     beta= 0.30
     Davidson diagonalization with overlap
     ethr =  9.87E-09,  avg # of iterations =  3.1

     total cpu time spent up to now is     4892.6 secs

     total energy              =   -1926.23188787 Ry
     estimated scf accuracy    <       0.00000070 Ry

     iteration # 10     ecut=    60.00 Ry     beta= 0.30
     Davidson diagonalization with overlap
     ethr =  5.90E-10,  avg # of iterations =  4.3

     total cpu time spent up to now is     4946.8 secs

     total energy              =   -1926.23188839 Ry
     estimated scf accuracy    <       0.00000128 Ry

     iteration # 11     ecut=    60.00 Ry     beta= 0.30
     Davidson diagonalization with overlap
     ethr =  5.90E-10,  avg # of iterations =  2.0

     total cpu time spent up to now is     4974.5 secs

     total energy              =   -1926.23188848 Ry
     estimated scf accuracy    <       0.00000005 Ry

     iteration # 12     ecut=    60.00 Ry     beta= 0.30
     Davidson diagonalization with overlap
     ethr =  4.38E-11,  avg # of iterations =  2.0

     total cpu time spent up to now is     5003.7 secs

     total energy              =   -1926.23188849 Ry
     estimated scf accuracy    <          7.7E-09 Ry

     iteration # 13     ecut=    60.00 Ry     beta= 0.30
     Davidson diagonalization with overlap
     ethr =  6.43E-12,  avg # of iterations =  1.0

     total cpu time spent up to now is     5027.2 secs

     total energy              =   -1926.23188849 Ry
     estimated scf accuracy    <          1.2E-09 Ry

     iteration # 14     ecut=    60.00 Ry     beta= 0.30
     Davidson diagonalization with overlap
     ethr =  1.03E-12,  avg # of iterations =  2.0

     total cpu time spent up to now is     5055.4 secs

     End of self-consistent calculation

     Number of k-points >= 100: set verbosity='high' to print the bands.

     the Fermi energy is     6.5583 ev

!    total energy              =   -1926.23188849 Ry
     estimated scf accuracy    <          1.3E-10 Ry
     smearing contrib. (-TS)   =      -0.00061715 Ry
     internal energy E=F+TS    =   -1926.23127134 Ry

     The total energy is F=E-TS. E is the sum of the following terms:
     one-electron contribution =   -1700.04176211 Ry
     hartree contribution      =     884.10990562 Ry
     xc contribution           =    -198.22165422 Ry
     ewald contribution        =    -692.66754060 Ry
     DFT-D3 Dispersion         =      -0.35979820 Ry
     one-center paw contrib.   =    -219.05042183 Ry

     convergence has been achieved in  14 iterations

     Forces acting on atoms (cartesian axes, Ry/au):

     atom    1 type  1   force =    -0.00833475   -0.00839419   -0.00294040
     atom    2 type  2   force =     0.00044615    0.00153794    0.00277331
     atom    3 type  2   force =     0.00194761    0.00029057   -0.00262463
     atom    4 type  2   force =     0.00226839    0.00114428   -0.00232994
     atom    5 type  2   force =     0.00044380    0.00311969   -0.00064606
     atom    6 type  2   force =    -0.00080731   -0.00142047    0.00007126
     atom    7 type  2   force =    -0.00003493    0.00246332    0.00009895
     atom    8 type  2   force =    -0.00185263   -0.00106521   -0.00016169
     atom    9 type  3   force =    -0.00373452    0.00192682    0.00272916
     atom   10 type  3   force =     0.00124008   -0.00348667    0.00617264
     atom   11 type  3   force =     0.00122622    0.00043824   -0.00225631
     atom   12 type  3   force =     0.00073144   -0.00229527   -0.00522575
     atom   13 type  4   force =    -0.00681670    0.00584606    0.00297748
     atom   14 type  4   force =    -0.00624254   -0.00155937    0.00296733
     atom   15 type  4   force =     0.00741541    0.00284908   -0.00396038
     atom   16 type  4   force =     0.00285004   -0.00691703   -0.00170982
     atom   17 type  4   force =     0.00472223    0.01121810   -0.00565950
     atom   18 type  4   force =    -0.00624711   -0.00916809   -0.00124030
     atom   19 type  4   force =     0.01941676    0.00258140   -0.00297055
     atom   20 type  4   force =    -0.00610674   -0.01028189    0.00378142
     atom   21 type  4   force =    -0.00105110    0.00240074    0.01008131
     atom   22 type  4   force =     0.00018670   -0.00895784    0.01246305
     atom   23 type  4   force =     0.00816777    0.01583221   -0.00185137
     atom   24 type  4   force =    -0.00426722    0.00137163   -0.00644230
     atom   25 type  4   force =    -0.00647635    0.00138618    0.00709832
     atom   26 type  4   force =    -0.00223520    0.00507593    0.00843465
     atom   27 type  4   force =     0.00374165   -0.00579694   -0.01081837
     atom   28 type  4   force =    -0.00059715   -0.00013920   -0.00881150

     Total force =     0.051179     Total SCF correction =     0.000033


     Computing stress (Cartesian axis) and pressure

          total   stress  (Ry/bohr**3)                   (kbar)     P=      -11.54
  -0.00009377   0.00001157  -0.00001015          -13.79        1.70       -1.49
   0.00001157  -0.00006757   0.00001565            1.70       -9.94        2.30
  -0.00001015   0.00001565  -0.00007395           -1.49        2.30      -10.88

     Energy error            =      5.7E-03 Ry
     Gradient error          =      1.9E-02 Ry/Bohr
     Cell gradient error     =      1.4E+01 kbar

     number of scf cycles    =   9
     number of bfgs steps    =   8

     enthalpy           old  =   -1926.2262060082 Ry
     enthalpy           new  =   -1926.2318884923 Ry

     CASE: enthalpy          _new < enthalpy          _old

     new trust radius        =       0.0638249451 bohr
     new conv_thr            =       0.0000000010 Ry

     new unit-cell volume =   1701.73629 a.u.^3 (   252.17130 Ang^3 )
     density =      3.16058 g/cm^3

CELL_PARAMETERS (angstrom)
   7.580013148  -0.062878973   0.070352134
  -5.115456995   5.814532135  -0.022404293
  -2.216892255   1.076696613   5.747597832

ATOMIC_POSITIONS (angstrom)
Co              -4.2166240743        5.3416107481        5.5160144531
Mg              -3.0130458514        4.8349811403        2.4407057267
Mg               3.2920105780        2.0168343589        3.3602658544
Mg               4.3648932033        1.3645380022        0.4456466801
Mg               0.8622546474        6.4103555691        4.3759731673
Mg              -0.4996095147        0.3782415127        1.4530409123
Mg              -0.4758418708        3.5568939530        4.3441239802
Mg               0.6754209200        3.2890397295        1.4257804670
Ni              -1.6622954650        6.0864488369        5.2500637284
Ni              -1.8392144803        2.4827995993        2.3682859324
Ni               2.1038796729        4.3504165412        3.4130617722
Ni               1.9122466738        0.7416069778        0.5010419491
H               -0.4351888807        5.1674730002        5.5782659341
H               -0.3377999870        2.1519005172        2.6447888914
H                0.5943006037        4.6739600024        3.1273945903
H                0.6806814081        1.6505767687        0.2613400621
H                5.0171168914        1.0314242337        2.4341859062
H                4.0003749542        1.7379935275        5.3597323482
H               -3.5535944410        4.9596932293        0.3528889133
H               -4.7293117740        5.8023588861        3.4344496474
H               -2.6641009466        5.9759669025        4.0633451131
H               -2.2999416560        3.2854692312        0.9996737720
H                2.7715988957        3.8120768300        4.7848552855
H                2.7360531747        0.8865928505        1.8381868809
H                0.6171082030        1.9322771577        4.9682742365
H                2.6145134521        3.5213062741        2.1832624823
H               -2.3783606512        3.3321727688        3.5817437246
H               -0.6702291234        4.8218877102        0.6312470172



     Writing config-only to output data dir ./outdir/mg2nih4_co.save/ :
     XML data file
     NEW-OLD atomic charge density approx. for the potential
     New effective cutoffs (rho, wfc):  525.16   65.66

     Check: negative core charge=   -0.000002

     total cpu time spent up to now is     5072.3 secs

     Self-consistent Calculation

     iteration #  1     ecut=    60.00 Ry     beta= 0.30
     Davidson diagonalization with overlap
     ethr =  1.00E-06,  avg # of iterations =  4.8

     total cpu time spent up to now is     5136.7 secs

     total energy              =   -1926.23617997 Ry
     estimated scf accuracy    <       0.00310995 Ry

     iteration #  2     ecut=    60.00 Ry     beta= 0.30
     Davidson diagonalization with overlap
     ethr =  2.61E-06,  avg # of iterations =  3.1

     total cpu time spent up to now is     5173.8 secs

     total energy              =   -1926.23610113 Ry
     estimated scf accuracy    <       0.00815816 Ry

     iteration #  3     ecut=    60.00 Ry     beta= 0.30
     Davidson diagonalization with overlap
     ethr =  2.61E-06,  avg # of iterations =  2.1

     total cpu time spent up to now is     5203.9 secs

     total energy              =   -1926.23662442 Ry
     estimated scf accuracy    <       0.00350418 Ry

     iteration #  4     ecut=    60.00 Ry     beta= 0.30
     Davidson diagonalization with overlap
     ethr =  2.61E-06,  avg # of iterations =  1.2

     total cpu time spent up to now is     5228.2 secs

     total energy              =   -1926.23679503 Ry
     estimated scf accuracy    <       0.00132429 Ry

     iteration #  5     ecut=    60.00 Ry     beta= 0.30
     Davidson diagonalization with overlap
     ethr =  1.11E-06,  avg # of iterations =  1.3

     total cpu time spent up to now is     5253.7 secs

     total energy              =   -1926.23681367 Ry
     estimated scf accuracy    <       0.00098618 Ry

     iteration #  6     ecut=    60.00 Ry     beta= 0.30
     Davidson diagonalization with overlap
     ethr =  8.29E-07,  avg # of iterations =  1.0

     total cpu time spent up to now is     5276.4 secs

     total energy              =   -1926.23688208 Ry
     estimated scf accuracy    <       0.00003135 Ry

     iteration #  7     ecut=    60.00 Ry     beta= 0.30
     Davidson diagonalization with overlap
     ethr =  2.63E-08,  avg # of iterations =  2.5

     total cpu time spent up to now is     5311.2 secs

     total energy              =   -1926.23688311 Ry
     estimated scf accuracy    <       0.00007178 Ry

     iteration #  8     ecut=    60.00 Ry     beta= 0.30
     Davidson diagonalization with overlap
     ethr =  2.63E-08,  avg # of iterations =  2.0

     total cpu time spent up to now is     5338.8 secs

     total energy              =   -1926.23688702 Ry
     estimated scf accuracy    <       0.00000858 Ry

     iteration #  9     ecut=    60.00 Ry     beta= 0.30
     Davidson diagonalization with overlap
     ethr =  7.21E-09,  avg # of iterations =  4.7

     total cpu time spent up to now is     5394.1 secs

     total energy              =   -1926.23688812 Ry
     estimated scf accuracy    <       0.00000125 Ry

     iteration # 10     ecut=    60.00 Ry     beta= 0.30
     Davidson diagonalization with overlap
     ethr =  1.05E-09,  avg # of iterations =  4.5

     total cpu time spent up to now is     5439.3 secs

     total energy              =   -1926.23688848 Ry
     estimated scf accuracy    <       0.00000167 Ry

     iteration # 11     ecut=    60.00 Ry     beta= 0.30
     Davidson diagonalization with overlap
     ethr =  1.05E-09,  avg # of iterations =  1.0

     total cpu time spent up to now is     5462.6 secs

     total energy              =   -1926.23688860 Ry
     estimated scf accuracy    <       0.00000003 Ry

     iteration # 12     ecut=    60.00 Ry     beta= 0.30
     Davidson diagonalization with overlap
     ethr =  2.37E-11,  avg # of iterations =  3.1

     total cpu time spent up to now is     5501.1 secs

     total energy              =   -1926.23688861 Ry
     estimated scf accuracy    <       0.00000002 Ry

     iteration # 13     ecut=    60.00 Ry     beta= 0.30
     Davidson diagonalization with overlap
     ethr =  1.68E-11,  avg # of iterations =  1.0

     total cpu time spent up to now is     5524.4 secs

     total energy              =   -1926.23688861 Ry
     estimated scf accuracy    <          1.2E-09 Ry

     iteration # 14     ecut=    60.00 Ry     beta= 0.30
     Davidson diagonalization with overlap
     ethr =  9.73E-13,  avg # of iterations =  2.2

     total cpu time spent up to now is     5556.3 secs

     End of self-consistent calculation

     Number of k-points >= 100: set verbosity='high' to print the bands.

     the Fermi energy is     6.4938 ev

!    total energy              =   -1926.23688862 Ry
     estimated scf accuracy    <          1.4E-10 Ry
     smearing contrib. (-TS)   =      -0.00070778 Ry
     internal energy E=F+TS    =   -1926.23618083 Ry

     The total energy is F=E-TS. E is the sum of the following terms:
     one-electron contribution =   -1704.24975688 Ry
     hartree contribution      =     885.91663586 Ry
     xc contribution           =    -198.18880138 Ry
     ewald contribution        =    -690.31368229 Ry
     DFT-D3 Dispersion         =      -0.35748428 Ry
     one-center paw contrib.   =    -219.04309187 Ry

     convergence has been achieved in  14 iterations

     Forces acting on atoms (cartesian axes, Ry/au):

     atom    1 type  1   force =    -0.00607807   -0.00596487   -0.00303450
     atom    2 type  2   force =     0.00042553    0.00186275    0.00249280
     atom    3 type  2   force =     0.00225973   -0.00069335   -0.00253462
     atom    4 type  2   force =     0.00207563    0.00158594   -0.00247555
     atom    5 type  2   force =     0.00021926    0.00176495    0.00073940
     atom    6 type  2   force =    -0.00061697   -0.00059379   -0.00088033
     atom    7 type  2   force =     0.00022519    0.00346471   -0.00031483
     atom    8 type  2   force =    -0.00236251   -0.00191299    0.00011878
     atom    9 type  3   force =    -0.00417065    0.00039721    0.00376599
     atom   10 type  3   force =     0.00112734   -0.00266260    0.00481598
     atom   11 type  3   force =     0.00032869   -0.00099410    0.00027754
     atom   12 type  3   force =     0.00023997   -0.00225585   -0.00403572
     atom   13 type  4   force =    -0.00586358    0.00462939    0.00211435
     atom   14 type  4   force =    -0.00329400   -0.00149296    0.00246474
     atom   15 type  4   force =     0.00544966    0.00236372   -0.00314283
     atom   16 type  4   force =     0.00193287   -0.00596927   -0.00102929
     atom   17 type  4   force =     0.00331474    0.00848237   -0.00522728
     atom   18 type  4   force =    -0.00570046   -0.00648380   -0.00095197
     atom   19 type  4   force =     0.01694733    0.00154870   -0.00308237
     atom   20 type  4   force =    -0.00457321   -0.00754522    0.00386523
     atom   21 type  4   force =    -0.00177707    0.00183991    0.00692985
     atom   22 type  4   force =    -0.00060486   -0.00708170    0.00973872
     atom   23 type  4   force =     0.00658968    0.01301416   -0.00193520
     atom   24 type  4   force =    -0.00330990    0.00132936   -0.00516147
     atom   25 type  4   force =    -0.00497796    0.00236702    0.00620381
     atom   26 type  4   force =    -0.00180352    0.00373596    0.00701337
     atom   27 type  4   force =     0.00307236   -0.00444293   -0.00827797
     atom   28 type  4   force =     0.00092480   -0.00029272   -0.00845662

     Total force =     0.041629     Total SCF correction =     0.000042


     Computing stress (Cartesian axis) and pressure

          total   stress  (Ry/bohr**3)                   (kbar)     P=      -14.80
  -0.00010965   0.00000864  -0.00000804          -16.13        1.27       -1.18
   0.00000864  -0.00008942   0.00001258            1.27      -13.15        1.85
  -0.00000804   0.00001258  -0.00010267           -1.18        1.85      -15.10

     Energy error            =      5.0E-03 Ry
     Gradient error          =      1.7E-02 Ry/Bohr
     Cell gradient error     =      1.6E+01 kbar

     number of scf cycles    =  10
     number of bfgs steps    =   9

     enthalpy           old  =   -1926.2318884923 Ry
     enthalpy           new  =   -1926.2368886153 Ry

     CASE: enthalpy          _new < enthalpy          _old

     new trust radius        =       0.0960571915 bohr
     new conv_thr            =       0.0000000010 Ry

     new unit-cell volume =   1707.37651 a.u.^3 (   253.00709 Ang^3 )
     density =      3.15014 g/cm^3

CELL_PARAMETERS (angstrom)
   7.572574368  -0.056742481   0.068699425
  -5.106106750   5.826620027  -0.009237024
  -2.215111987   1.090232377   5.758880826

ATOMIC_POSITIONS (angstrom)
Co              -4.2309836139        5.3380876573        5.5421574235
Mg              -2.9999409991        4.8558304095        2.4638735725
Mg               3.2895346754        2.0329879390        3.3610441209
Mg               4.3658913846        1.3786301189        0.4389213427
Mg               0.8727932660        6.4461082444        4.3929328067
Mg              -0.5018011722        0.3756566885        1.4584883423
Mg              -0.4726542300        3.5821625954        4.3597330439
Mg               0.6690721559        3.3000268889        1.4314268734
Ni              -1.6633278548        6.1136346496        5.2700271949
Ni              -1.8291793052        2.4897071803        2.3814923994
Ni               2.1033592580        4.3730226923        3.4236937148
Ni               1.9132198499        0.7463476316        0.4991559810
H               -0.4385037088        5.2045058651        5.6125897945
H               -0.3406429059        2.1541884180        2.6655228433
H                0.6038595160        4.7059161943        3.1257819533
H                0.6791192627        1.6435529252        0.2552859687
H                5.0182186622        1.0595782314        2.4232513954
H                3.9878885582        1.7430377806        5.3662197842
H               -3.4985606080        4.9631325206        0.3563706985
H               -4.7275798160        5.8062400741        3.4696714996
H               -2.6742704696        6.0040235889        4.1031319811
H               -2.2919349305        3.2799962005        1.0273047724
H                2.8003812213        3.8758220047        4.8081082276
H                2.7259905341        0.9010308526        1.8355564090
H                0.6082398939        1.9490850000        4.9807088268
H                2.6125164941        3.5473239909        2.2036820911
H               -2.3708724277        3.3384602939        3.5772427953
H               -0.6908538615        4.8334422904        0.6234293189



     Writing config-only to output data dir ./outdir/mg2nih4_co.save/ :
     XML data file
     NEW-OLD atomic charge density approx. for the potential
     New effective cutoffs (rho, wfc):  525.08   65.67

     Check: negative core charge=   -0.000002

     total cpu time spent up to now is     5573.5 secs

     Self-consistent Calculation

     iteration #  1     ecut=    60.00 Ry     beta= 0.30
     Davidson diagonalization with overlap
     c_bands:  1 eigenvalues not converged
     c_bands:  1 eigenvalues not converged
     ethr =  1.00E-06,  avg # of iterations =  6.1

     total cpu time spent up to now is     5649.1 secs

     total energy              =   -1926.24164348 Ry
     estimated scf accuracy    <       0.00444995 Ry

     iteration #  2     ecut=    60.00 Ry     beta= 0.30
     Davidson diagonalization with overlap
     ethr =  3.74E-06,  avg # of iterations =  3.3

     total cpu time spent up to now is     5685.7 secs

     total energy              =   -1926.24028549 Ry
     estimated scf accuracy    <       0.03688457 Ry

     iteration #  3     ecut=    60.00 Ry     beta= 0.30
     Davidson diagonalization with overlap
     ethr =  3.74E-06,  avg # of iterations =  3.0

     total cpu time spent up to now is     5718.2 secs

     total energy              =   -1926.24209887 Ry
     estimated scf accuracy    <       0.00478223 Ry

     iteration #  4     ecut=    60.00 Ry     beta= 0.30
     Davidson diagonalization with overlap
     ethr =  3.74E-06,  avg # of iterations =  1.1

     total cpu time spent up to now is     5742.4 secs

     total energy              =   -1926.24231419 Ry
     estimated scf accuracy    <       0.00179262 Ry

     iteration #  5     ecut=    60.00 Ry     beta= 0.30
     Davidson diagonalization with overlap
     ethr =  1.51E-06,  avg # of iterations =  1.3

     total cpu time spent up to now is     5768.9 secs

     total energy              =   -1926.24239578 Ry
     estimated scf accuracy    <       0.00084438 Ry

     iteration #  6     ecut=    60.00 Ry     beta= 0.30
     Davidson diagonalization with overlap
     ethr =  7.10E-07,  avg # of iterations =  1.2

     total cpu time spent up to now is     5795.0 secs

     total energy              =   -1926.24246897 Ry
     estimated scf accuracy    <       0.00006779 Ry

     iteration #  7     ecut=    60.00 Ry     beta= 0.30
     Davidson diagonalization with overlap
     ethr =  5.70E-08,  avg # of iterations =  2.0

     total cpu time spent up to now is     5825.5 secs

     total energy              =   -1926.24246871 Ry
     estimated scf accuracy    <       0.00014538 Ry

     iteration #  8     ecut=    60.00 Ry     beta= 0.30
     Davidson diagonalization with overlap
     ethr =  5.70E-08,  avg # of iterations =  2.0

     total cpu time spent up to now is     5853.4 secs

     total energy              =   -1926.24247725 Ry
     estimated scf accuracy    <       0.00001045 Ry

     iteration #  9     ecut=    60.00 Ry     beta= 0.30
     Davidson diagonalization with overlap
     ethr =  8.78E-09,  avg # of iterations =  4.8

     total cpu time spent up to now is     5903.9 secs

     total energy              =   -1926.24247968 Ry
     estimated scf accuracy    <       0.00000439 Ry

     iteration # 10     ecut=    60.00 Ry     beta= 0.30
     Davidson diagonalization with overlap
     ethr =  3.69E-09,  avg # of iterations =  2.5

     total cpu time spent up to now is     5941.9 secs

     total energy              =   -1926.24247990 Ry
     estimated scf accuracy    <       0.00000229 Ry

     iteration # 11     ecut=    60.00 Ry     beta= 0.30
     Davidson diagonalization with overlap
     ethr =  1.92E-09,  avg # of iterations =  2.1

     total cpu time spent up to now is     5970.2 secs

     total energy              =   -1926.24248013 Ry
     estimated scf accuracy    <       0.00000008 Ry

     iteration # 12     ecut=    60.00 Ry     beta= 0.30
     Davidson diagonalization with overlap
     ethr =  6.66E-11,  avg # of iterations =  4.6

     total cpu time spent up to now is     6027.6 secs

     total energy              =   -1926.24248027 Ry
     estimated scf accuracy    <       0.00000003 Ry

     iteration # 13     ecut=    60.00 Ry     beta= 0.30
     Davidson diagonalization with overlap
     ethr =  2.18E-11,  avg # of iterations =  1.0

     total cpu time spent up to now is     6050.5 secs

     total energy              =   -1926.24248027 Ry
     estimated scf accuracy    <          1.7E-09 Ry

     iteration # 14     ecut=    60.00 Ry     beta= 0.30
     Davidson diagonalization with overlap
     ethr =  1.46E-12,  avg # of iterations =  2.5

     total cpu time spent up to now is     6083.9 secs

     End of self-consistent calculation

     Number of k-points >= 100: set verbosity='high' to print the bands.

     the Fermi energy is     6.4647 ev

!    total energy              =   -1926.24248027 Ry
     estimated scf accuracy    <          2.5E-10 Ry
     smearing contrib. (-TS)   =      -0.00083565 Ry
     internal energy E=F+TS    =   -1926.24164463 Ry

     The total energy is F=E-TS. E is the sum of the following terms:
     one-electron contribution =   -1707.80536593 Ry
     hartree contribution      =     887.51262769 Ry
     xc contribution           =    -198.19182326 Ry
     ewald contribution        =    -688.36245120 Ry
     DFT-D3 Dispersion         =      -0.35635783 Ry
     one-center paw contrib.   =    -219.03827409 Ry

     convergence has been achieved in  14 iterations

     Forces acting on atoms (cartesian axes, Ry/au):

     atom    1 type  1   force =    -0.00060768   -0.00048632   -0.00414143
     atom    2 type  2   force =     0.00051547    0.00205642    0.00215883
     atom    3 type  2   force =     0.00255242   -0.00198394   -0.00241454
     atom    4 type  2   force =     0.00188583    0.00257756   -0.00271774
     atom    5 type  2   force =    -0.00039863    0.00024958    0.00226699
     atom    6 type  2   force =    -0.00059976    0.00019271   -0.00196247
     atom    7 type  2   force =     0.00038587    0.00465242   -0.00074208
     atom    8 type  2   force =    -0.00290741   -0.00291554    0.00055312
     atom    9 type  3   force =    -0.00447518   -0.00172068    0.00433803
     atom   10 type  3   force =     0.00154439   -0.00139814    0.00255317
     atom   11 type  3   force =    -0.00100525   -0.00277765    0.00384996
     atom   12 type  3   force =    -0.00037286   -0.00211743   -0.00172557
     atom   13 type  4   force =    -0.00386833    0.00271133    0.00135567
     atom   14 type  4   force =     0.00110504   -0.00181904    0.00227438
     atom   15 type  4   force =     0.00236976    0.00211815   -0.00251790
     atom   16 type  4   force =    -0.00006772   -0.00436152   -0.00055198
     atom   17 type  4   force =     0.00101560    0.00378588   -0.00460671
     atom   18 type  4   force =    -0.00466615   -0.00221106   -0.00058628
     atom   19 type  4   force =     0.01158210    0.00051088   -0.00223278
     atom   20 type  4   force =    -0.00234109   -0.00339851    0.00416953
     atom   21 type  4   force =    -0.00311085    0.00115961    0.00239916
     atom   22 type  4   force =    -0.00222389   -0.00476618    0.00605440
     atom   23 type  4   force =     0.00387693    0.00591439   -0.00268455
     atom   24 type  4   force =    -0.00171482    0.00126937   -0.00294746
     atom   25 type  4   force =    -0.00247719    0.00356414    0.00392540
     atom   26 type  4   force =    -0.00086283    0.00154043    0.00423455
     atom   27 type  4   force =     0.00165759   -0.00215645   -0.00375504
     atom   28 type  4   force =     0.00320866   -0.00019040   -0.00654665

     Total force =     0.027971     Total SCF correction =     0.000071


     Computing stress (Cartesian axis) and pressure

          total   stress  (Ry/bohr**3)                   (kbar)     P=      -13.71
  -0.00009356   0.00000546  -0.00000514          -13.76        0.80       -0.76
   0.00000546  -0.00008318   0.00001100            0.80      -12.24        1.62
  -0.00000514   0.00001100  -0.00010288           -0.76        1.62      -15.13

     Energy error            =      5.6E-03 Ry
     Gradient error          =      1.2E-02 Ry/Bohr
     Cell gradient error     =      1.5E+01 kbar

     number of scf cycles    =  11
     number of bfgs steps    =  10

     enthalpy           old  =   -1926.2368886153 Ry
     enthalpy           new  =   -1926.2424802735 Ry

     CASE: enthalpy          _new < enthalpy          _old

     new trust radius        =       0.1126631476 bohr
     new conv_thr            =       0.0000000010 Ry

     new unit-cell volume =   1701.35219 a.u.^3 (   252.11438 Ang^3 )
     density =      3.16129 g/cm^3

CELL_PARAMETERS (angstrom)
   7.546358380  -0.049340708   0.066506378
  -5.083287042   5.827993377   0.007147037
  -2.208007820   1.104559738   5.755653500

ATOMIC_POSITIONS (angstrom)
Co              -4.2352134097        5.3267551719        5.5543728944
Mg              -2.9775103291        4.8711397620        2.4854037434
Mg               3.2803235819        2.0462708212        3.3516353464
Mg               4.3575781282        1.3938329396        0.4286905748
Mg               0.8827672657        6.4737340495        4.4031975842
Mg              -0.5034942724        0.3726339807        1.4591501991
Mg              -0.4677153366        3.6073620398        4.3654600530
Mg               0.6586303490        3.3039866623        1.4348535456
Ni              -1.6627709896        6.1309376194        5.2811430462
Ni              -1.8122875859        2.4925232311        2.3907791734
Ni               2.0969017025        4.3881520652        3.4307637677
Ni               1.9094094768        0.7493491036        0.4957235183
H               -0.4421512206        5.2377272130        5.6374529922
H               -0.3405155305        2.1516589286        2.6831779336
H                0.6131213042        4.7342083519        3.1150563053
H                0.6749394005        1.6304324530        0.2477677410
H                5.0071175811        1.0898470579        2.4019983127
H                3.9624521040        1.7472577423        5.3584481264
H               -3.4244216415        4.9561767888        0.3597249796
H               -4.7143834942        5.7994103370        3.5037787925
H               -2.6818145951        6.0246483075        4.1375839367
H               -2.2793609425        3.2655706015        1.0579209349
H                2.8274064668        3.9414684033        4.8202480069
H                2.7080344237        0.9167512885        1.8272205485
H                0.5965849990        1.9676747040        4.9819863821
H                2.6041920107        3.5700030536        2.2223250181
H               -2.3566148937        3.3391980398        3.5628484451
H               -0.7103152918        4.8362629813        0.6115849092



     Writing config-only to output data dir ./outdir/mg2nih4_co.save/ :
     XML data file
     NEW-OLD atomic charge density approx. for the potential
     New effective cutoffs (rho, wfc):  527.69   66.00

     Check: negative core charge=   -0.000002

     total cpu time spent up to now is     6101.0 secs

     Self-consistent Calculation

     iteration #  1     ecut=    60.00 Ry     beta= 0.30
     Davidson diagonalization with overlap
     ethr =  1.00E-06,  avg # of iterations =  6.5

     total cpu time spent up to now is     6182.9 secs

     total energy              =   -1926.24337660 Ry
     estimated scf accuracy    <       0.00806950 Ry

     iteration #  2     ecut=    60.00 Ry     beta= 0.30
     Davidson diagonalization with overlap
     ethr =  6.78E-06,  avg # of iterations =  3.1

     total cpu time spent up to now is     6218.8 secs

     total energy              =   -1926.23931503 Ry
     estimated scf accuracy    <       0.13446626 Ry

     iteration #  3     ecut=    60.00 Ry     beta= 0.30
     Davidson diagonalization with overlap
     ethr =  6.78E-06,  avg # of iterations =  3.0

     total cpu time spent up to now is     6252.1 secs

     total energy              =   -1926.24528431 Ry
     estimated scf accuracy    <       0.00245260 Ry

     iteration #  4     ecut=    60.00 Ry     beta= 0.30
     Davidson diagonalization with overlap
     ethr =  2.06E-06,  avg # of iterations =  2.1

     total cpu time spent up to now is     6281.1 secs

     total energy              =   -1926.24535396 Ry
     estimated scf accuracy    <       0.00332920 Ry

     iteration #  5     ecut=    60.00 Ry     beta= 0.30
     Davidson diagonalization with overlap
     ethr =  2.06E-06,  avg # of iterations =  1.0

     total cpu time spent up to now is     6304.2 secs

     total energy              =   -1926.24553816 Ry
     estimated scf accuracy    <       0.00035238 Ry

     iteration #  6     ecut=    60.00 Ry     beta= 0.30
     Davidson diagonalization with overlap
     ethr =  2.96E-07,  avg # of iterations =  2.0

     total cpu time spent up to now is     6333.1 secs

     total energy              =   -1926.24558069 Ry
     estimated scf accuracy    <       0.00014792 Ry

     iteration #  7     ecut=    60.00 Ry     beta= 0.30
     Davidson diagonalization with overlap
     ethr =  1.24E-07,  avg # of iterations =  2.0

     total cpu time spent up to now is     6361.3 secs

     total energy              =   -1926.24558579 Ry
     estimated scf accuracy    <       0.00011619 Ry

     iteration #  8     ecut=    60.00 Ry     beta= 0.30
     Davidson diagonalization with overlap
     ethr =  9.76E-08,  avg # of iterations =  1.1

     total cpu time spent up to now is     6386.0 secs

     total energy              =   -1926.24559527 Ry
     estimated scf accuracy    <       0.00000529 Ry

     iteration #  9     ecut=    60.00 Ry     beta= 0.30
     Davidson diagonalization with overlap
     ethr =  4.45E-09,  avg # of iterations =  5.0

     total cpu time spent up to now is     6436.9 secs

     total energy              =   -1926.24559689 Ry
     estimated scf accuracy    <       0.00000826 Ry

     iteration # 10     ecut=    60.00 Ry     beta= 0.30
     Davidson diagonalization with overlap
     ethr =  4.45E-09,  avg # of iterations =  1.0

     total cpu time spent up to now is     6460.1 secs

     total energy              =   -1926.24559727 Ry
     estimated scf accuracy    <       0.00000120 Ry

     iteration # 11     ecut=    60.00 Ry     beta= 0.30
     Davidson diagonalization with overlap
     ethr =  1.01E-09,  avg # of iterations =  2.0

     total cpu time spent up to now is     6489.1 secs

     total energy              =   -1926.24559742 Ry
     estimated scf accuracy    <       0.00000020 Ry

     iteration # 12     ecut=    60.00 Ry     beta= 0.30
     Davidson diagonalization with overlap
     ethr =  1.66E-10,  avg # of iterations =  1.4

     total cpu time spent up to now is     6516.1 secs

     total energy              =   -1926.24559744 Ry
     estimated scf accuracy    <       0.00000002 Ry

     iteration # 13     ecut=    60.00 Ry     beta= 0.30
     Davidson diagonalization with overlap
     ethr =  1.52E-11,  avg # of iterations =  2.3

     total cpu time spent up to now is     6546.6 secs

     total energy              =   -1926.24559744 Ry
     estimated scf accuracy    <          1.2E-09 Ry

     iteration # 14     ecut=    60.00 Ry     beta= 0.30
     Davidson diagonalization with overlap
     ethr =  9.87E-13,  avg # of iterations =  4.1

     total cpu time spent up to now is     6591.4 secs

     End of self-consistent calculation

     Number of k-points >= 100: set verbosity='high' to print the bands.

     the Fermi energy is     6.5040 ev

!    total energy              =   -1926.24559744 Ry
     estimated scf accuracy    <          1.8E-10 Ry
     smearing contrib. (-TS)   =      -0.00096041 Ry
     internal energy E=F+TS    =   -1926.24463703 Ry

     The total energy is F=E-TS. E is the sum of the following terms:
     one-electron contribution =   -1709.29396502 Ry
     hartree contribution      =     888.32390142 Ry
     xc contribution           =    -198.25347737 Ry
     ewald contribution        =    -687.62436166 Ry
     DFT-D3 Dispersion         =      -0.35756650 Ry
     one-center paw contrib.   =    -219.03916790 Ry

     convergence has been achieved in  14 iterations

     Forces acting on atoms (cartesian axes, Ry/au):

     atom    1 type  1   force =     0.00947062    0.00773820   -0.00409080
     atom    2 type  2   force =     0.00074292    0.00190337    0.00181780
     atom    3 type  2   force =     0.00251925   -0.00327335   -0.00223261
     atom    4 type  2   force =     0.00143469    0.00411051   -0.00317458
     atom    5 type  2   force =    -0.00130578   -0.00122616    0.00361404
     atom    6 type  2   force =    -0.00081165    0.00048977   -0.00275119
     atom    7 type  2   force =     0.00032709    0.00564782   -0.00093688
     atom    8 type  2   force =    -0.00316656   -0.00387076    0.00110906
     atom    9 type  3   force =    -0.00393987   -0.00361046    0.00337599
     atom   10 type  3   force =     0.00271088    0.00006050   -0.00054737
     atom   11 type  3   force =    -0.00276098   -0.00458077    0.00754337
     atom   12 type  3   force =    -0.00114546   -0.00181685    0.00178151
     atom   13 type  4   force =    -0.00043740    0.00007463    0.00116987
     atom   14 type  4   force =     0.00645753   -0.00275251    0.00272314
     atom   15 type  4   force =    -0.00164466    0.00233606   -0.00244295
     atom   16 type  4   force =    -0.00326813   -0.00203159   -0.00062601
     atom   17 type  4   force =    -0.00196594   -0.00265684   -0.00376609
     atom   18 type  4   force =    -0.00309093    0.00306380   -0.00025157
     atom   19 type  4   force =     0.00205184    0.00062443    0.00033209
     atom   20 type  4   force =     0.00039307    0.00169118    0.00495979
     atom   21 type  4   force =    -0.00525787    0.00048255   -0.00286450
     atom   22 type  4   force =    -0.00442431   -0.00097770    0.00006331
     atom   23 type  4   force =     0.00025878   -0.00728593   -0.00517472
     atom   24 type  4   force =     0.00060866    0.00128639    0.00046483
     atom   25 type  4   force =     0.00104565    0.00463856   -0.00024194
     atom   26 type  4   force =     0.00054401   -0.00130388    0.00003285
     atom   27 type  4   force =    -0.00059709    0.00099978    0.00276127
     atom   28 type  4   force =     0.00525165    0.00023925   -0.00264772

     Total force =     0.028648     Total SCF correction =     0.000045


     Computing stress (Cartesian axis) and pressure

          total   stress  (Ry/bohr**3)                   (kbar)     P=       -5.63
  -0.00002841   0.00000059  -0.00000066           -4.18        0.09       -0.10
   0.00000059  -0.00003226   0.00001365            0.09       -4.75        2.01
  -0.00000066   0.00001365  -0.00005423           -0.10        2.01       -7.98

     Energy error            =      3.1E-03 Ry
     Gradient error          =      9.5E-03 Ry/Bohr
     Cell gradient error     =      8.0E+00 kbar

     number of scf cycles    =  12
     number of bfgs steps    =  11

     enthalpy           old  =   -1926.2424802735 Ry
     enthalpy           new  =   -1926.2455974404 Ry

     CASE: enthalpy          _new < enthalpy          _old

     new trust radius        =       0.0168450882 bohr
     new conv_thr            =       0.0000000009 Ry

     new unit-cell volume =   1693.03896 a.u.^3 (   250.88249 Ang^3 )
     density =      3.17681 g/cm^3

CELL_PARAMETERS (angstrom)
   7.535959093  -0.049078615   0.066043820
  -5.076119730   5.819186829   0.008853709
  -2.205260683   1.104369969   5.744376216

ATOMIC_POSITIONS (angstrom)
Co              -4.2243898441        5.3255516960        5.5412663701
Mg              -2.9735249568        4.8653244946        2.4823792012
Mg               3.2771764246        2.0424152084        3.3443893181
Mg               4.3521999043        1.3937778568        0.4268582265
Mg               0.8804182961        6.4644735545        4.3978869144
Mg              -0.5032155165        0.3729914381        1.4547467576
Mg              -0.4672165351        3.6058811870        4.3570401338
Mg               0.6565696429        3.2974611934        1.4334828992
Ni              -1.6625298956        6.1215100978        5.2739994109
Ni              -1.8087815309        2.4891278002        2.3870294836
Ni               2.0929278148        4.3801382173        3.4286324604
Ni               1.9061545234        0.7471480141        0.4952177523
H               -0.4423467778        5.2314443988        5.6271976148
H               -0.3374382055        2.1481850735        2.6791432102
H                0.6118108665        4.7286669424        3.1094466235
H                0.6730437825        1.6269990905        0.2478261581
H                4.9992676628        1.0878424780        2.3957473896
H                3.9550745600        1.7476640226        5.3478976878
H               -3.4198034731        4.9500497836        0.3609462856
H               -4.7079337647        5.7923544426        3.5000836231
H               -2.6796310144        6.0169491580        4.1292389870
H               -2.2787121476        3.2600784028        1.0572027457
H                2.8222045410        3.9320034610        4.8077676991
H                2.7045290300        0.9163359978        1.8235427209
H                0.5958447708        1.9686887153        4.9731560657
H                2.6006861772        3.5646216005        2.2189664530
H               -2.3535293270        3.3355132612        3.5578937273
H               -0.7047534990        4.8294969703        0.6108465212



     Writing config-only to output data dir ./outdir/mg2nih4_co.save/ :
     XML data file
     NEW-OLD atomic charge density approx. for the potential
     New effective cutoffs (rho, wfc):  529.46   66.22

     Check: negative core charge=   -0.000002

     total cpu time spent up to now is     6608.3 secs

     Self-consistent Calculation

     iteration #  1     ecut=    60.00 Ry     beta= 0.30
     Davidson diagonalization with overlap
     ethr =  1.00E-06,  avg # of iterations =  4.0

     total cpu time spent up to now is     6660.9 secs

     total energy              =   -1926.24623474 Ry
     estimated scf accuracy    <       0.00104787 Ry

     iteration #  2     ecut=    60.00 Ry     beta= 0.30
     Davidson diagonalization with overlap
     ethr =  8.81E-07,  avg # of iterations =  3.0

     total cpu time spent up to now is     6696.7 secs

     total energy              =   -1926.24599113 Ry
     estimated scf accuracy    <       0.00810474 Ry

     iteration #  3     ecut=    60.00 Ry     beta= 0.30
     Davidson diagonalization with overlap
     ethr =  8.81E-07,  avg # of iterations =  3.0

     total cpu time spent up to now is     6730.8 secs

     total energy              =   -1926.24645625 Ry
     estimated scf accuracy    <       0.00220475 Ry

     iteration #  4     ecut=    60.00 Ry     beta= 0.30
     Davidson diagonalization with overlap
     ethr =  8.81E-07,  avg # of iterations =  2.0

     total cpu time spent up to now is     6758.3 secs

     total energy              =   -1926.24657105 Ry
     estimated scf accuracy    <       0.00003886 Ry

     iteration #  5     ecut=    60.00 Ry     beta= 0.30
     Davidson diagonalization with overlap
     ethr =  3.27E-08,  avg # of iterations =  2.2

     total cpu time spent up to now is     6789.8 secs

     total energy              =   -1926.24657134 Ry
     estimated scf accuracy    <       0.00006111 Ry

     iteration #  6     ecut=    60.00 Ry     beta= 0.30
     Davidson diagonalization with overlap
     ethr =  3.27E-08,  avg # of iterations =  1.9

     total cpu time spent up to now is     6819.8 secs

     total energy              =   -1926.24657563 Ry
     estimated scf accuracy    <       0.00000600 Ry

     iteration #  7     ecut=    60.00 Ry     beta= 0.30
     Davidson diagonalization with overlap
     ethr =  5.04E-09,  avg # of iterations =  2.0

     total cpu time spent up to now is     6849.8 secs

     total energy              =   -1926.24657594 Ry
     estimated scf accuracy    <       0.00000615 Ry

     iteration #  8     ecut=    60.00 Ry     beta= 0.30
     Davidson diagonalization with overlap
     ethr =  5.04E-09,  avg # of iterations =  1.0

     total cpu time spent up to now is     6873.5 secs

     total energy              =   -1926.24657635 Ry
     estimated scf accuracy    <       0.00000105 Ry

     iteration #  9     ecut=    60.00 Ry     beta= 0.30
     Davidson diagonalization with overlap
     ethr =  8.80E-10,  avg # of iterations =  5.0

     total cpu time spent up to now is     6925.9 secs

     total energy              =   -1926.24657654 Ry
     estimated scf accuracy    <       0.00000009 Ry

     iteration # 10     ecut=    60.00 Ry     beta= 0.30
     Davidson diagonalization with overlap
     ethr =  7.74E-11,  avg # of iterations =  4.8

     total cpu time spent up to now is     6979.6 secs

     total energy              =   -1926.24657659 Ry
     estimated scf accuracy    <       0.00000019 Ry

     iteration # 11     ecut=    60.00 Ry     beta= 0.30
     Davidson diagonalization with overlap
     ethr =  7.74E-11,  avg # of iterations =  2.0

     total cpu time spent up to now is     7007.2 secs

     total energy              =   -1926.24657660 Ry
     estimated scf accuracy    <          1.0E-08 Ry

     iteration # 12     ecut=    60.00 Ry     beta= 0.30
     Davidson diagonalization with overlap
     ethr =  8.39E-12,  avg # of iterations =  2.0

     total cpu time spent up to now is     7036.1 secs

     total energy              =   -1926.24657661 Ry
     estimated scf accuracy    <          1.6E-09 Ry

     iteration # 13     ecut=    60.00 Ry     beta= 0.30
     Davidson diagonalization with overlap
     ethr =  1.34E-12,  avg # of iterations =  1.3

     total cpu time spent up to now is     7062.4 secs

     End of self-consistent calculation

     Number of k-points >= 100: set verbosity='high' to print the bands.

     the Fermi energy is     6.5557 ev

!    total energy              =   -1926.24657661 Ry
     estimated scf accuracy    <          9.7E-11 Ry
     smearing contrib. (-TS)   =      -0.00096119 Ry
     internal energy E=F+TS    =   -1926.24561542 Ry

     The total energy is F=E-TS. E is the sum of the following terms:
     one-electron contribution =   -1707.46447382 Ry
     hartree contribution      =     887.59885716 Ry
     xc contribution           =    -198.28684361 Ry
     ewald contribution        =    -688.69055794 Ry
     DFT-D3 Dispersion         =      -0.35923838 Ry
     one-center paw contrib.   =    -219.04335882 Ry

     convergence has been achieved in  13 iterations

     Forces acting on atoms (cartesian axes, Ry/au):

     atom    1 type  1   force =     0.00784294    0.00504146   -0.00394194
     atom    2 type  2   force =     0.00078481    0.00158686    0.00188069
     atom    3 type  2   force =     0.00215760   -0.00296938   -0.00220735
     atom    4 type  2   force =     0.00104646    0.00412836   -0.00331327
     atom    5 type  2   force =    -0.00127630   -0.00099071    0.00321904
     atom    6 type  2   force =    -0.00094775   -0.00002882   -0.00217558
     atom    7 type  2   force =     0.00015362    0.00526509   -0.00064241
     atom    8 type  2   force =    -0.00275369   -0.00380495    0.00108283
     atom    9 type  3   force =    -0.00277688   -0.00257602    0.00171657
     atom   10 type  3   force =     0.00270256    0.00018231   -0.00088449
     atom   11 type  3   force =    -0.00298636   -0.00417806    0.00607271
     atom   12 type  3   force =    -0.00105563   -0.00090972    0.00208644
     atom   13 type  4   force =     0.00034874   -0.00024861    0.00156249
     atom   14 type  4   force =     0.00609890   -0.00302433    0.00308281
     atom   15 type  4   force =    -0.00177661    0.00260165   -0.00276922
     atom   16 type  4   force =    -0.00363457   -0.00168799   -0.00097299
     atom   17 type  4   force =    -0.00180374   -0.00281590   -0.00351152
     atom   18 type  4   force =    -0.00299955    0.00273999   -0.00038543
     atom   19 type  4   force =     0.00206818   -0.00015048    0.00025369
     atom   20 type  4   force =     0.00032571    0.00152614    0.00511687
     atom   21 type  4   force =    -0.00549315    0.00053184   -0.00243340
     atom   22 type  4   force =    -0.00422964   -0.00000225   -0.00103833
     atom   23 type  4   force =     0.00167101   -0.00617585   -0.00346199
     atom   24 type  4   force =     0.00096043    0.00136519    0.00102099
     atom   25 type  4   force =     0.00136286    0.00442762   -0.00103104
     atom   26 type  4   force =     0.00052682   -0.00120300   -0.00024441
     atom   27 type  4   force =    -0.00069010    0.00090653    0.00307996
     atom   28 type  4   force =     0.00437334    0.00046302   -0.00116173

     Total force =     0.025606     Total SCF correction =     0.000033


     Computing stress (Cartesian axis) and pressure

          total   stress  (Ry/bohr**3)                   (kbar)     P=       -1.89
  -0.00000318  -0.00000016   0.00000043           -0.47       -0.02        0.06
  -0.00000016  -0.00001095   0.00001165           -0.02       -1.61        1.71
   0.00000043   0.00001165  -0.00002451            0.06        1.71       -3.61

     Energy error            =      9.8E-04 Ry
     Gradient error          =      7.8E-03 Ry/Bohr
     Cell gradient error     =      3.6E+00 kbar

     number of scf cycles    =  13
     number of bfgs steps    =  12

     enthalpy           old  =   -1926.2455974404 Ry
     enthalpy           new  =   -1926.2465766057 Ry

     CASE: enthalpy          _new < enthalpy          _old

     new trust radius        =       0.0252584602 bohr
     new conv_thr            =       0.0000000008 Ry

     new unit-cell volume =   1682.12975 a.u.^3 (   249.26591 Ang^3 )
     density =      3.19742 g/cm^3

CELL_PARAMETERS (angstrom)
   7.521818497  -0.049257174   0.066634680
  -5.066765233   5.809894053   0.013282368
  -2.200704304   1.107715634   5.728174088

ATOMIC_POSITIONS (angstrom)
Co              -4.2092634544        5.3259457574        5.5268364007
Mg              -2.9659796442        4.8624121466        2.4820980301
Mg               3.2735873409        2.0380160065        3.3332557043
Mg               4.3454322199        1.3971960187        0.4222340267
Mg               0.8792731239        6.4568598304        4.3946445406
Mg              -0.5034607824        0.3731866010        1.4481905528
Mg              -0.4657847440        3.6110238501        4.3467139661
Mg               0.6509525649        3.2885214840        1.4327567926
Ni              -1.6632102394        6.1125178253        5.2653809327
Ni              -1.8012398722        2.4867984226        2.3815470180
Ni               2.0857491023        4.3708556486        3.4301419611
Ni               1.9015346150        0.7450837944        0.4962724901
H               -0.4414866832        5.2287704493        5.6186192669
H               -0.3294699212        2.1423580922        2.6778924586
H                0.6089782390        4.7279171517        3.0995736181
H                0.6675561992        1.6209931900        0.2463777221
H                4.9883278714        1.0859054028        2.3841163774
H                3.9438245938        1.7515391693        5.3332164156
H               -3.4058419103        4.9409245294        0.3629042075
H               -4.6985869111        5.7870660205        3.5027672476
H               -2.6832867276        6.0118794688        4.1211221218
H               -2.2788550525        3.2550607403        1.0561089342
H                2.8222597483        3.9264862634        4.7938902199
H                2.6998830293        0.9187285522        1.8202088631
H                0.5956962317        1.9751747152        4.9591755838
H                2.5962605960        3.5600213269        2.2164976806
H               -2.3493629492        3.3338326564        3.5518453733
H               -0.7026011469        4.8218600757        0.6088873963



     Writing config-only to output data dir ./outdir/mg2nih4_co.save/ :
     XML data file
     NEW-OLD atomic charge density approx. for the potential
     New effective cutoffs (rho, wfc):  532.28   66.56

     Check: negative core charge=   -0.000002

     total cpu time spent up to now is     7079.4 secs

     Self-consistent Calculation

     iteration #  1     ecut=    60.00 Ry     beta= 0.30
     Davidson diagonalization with overlap
     ethr =  1.00E-06,  avg # of iterations =  4.1

     total cpu time spent up to now is     7134.7 secs

     total energy              =   -1926.24695964 Ry
     estimated scf accuracy    <       0.00281303 Ry

     iteration #  2     ecut=    60.00 Ry     beta= 0.30
     Davidson diagonalization with overlap
     ethr =  2.36E-06,  avg # of iterations =  3.1

     total cpu time spent up to now is     7171.4 secs

     total energy              =   -1926.24574097 Ry
     estimated scf accuracy    <       0.03956869 Ry

     iteration #  3     ecut=    60.00 Ry     beta= 0.30
     Davidson diagonalization with overlap
     ethr =  2.36E-06,  avg # of iterations =  3.0

     total cpu time spent up to now is     7205.2 secs

     total energy              =   -1926.24772526 Ry
     estimated scf accuracy    <       0.00247842 Ry

     iteration #  4     ecut=    60.00 Ry     beta= 0.30
     Davidson diagonalization with overlap
     ethr =  2.08E-06,  avg # of iterations =  1.0

     total cpu time spent up to now is     7228.6 secs

     total energy              =   -1926.24789351 Ry
     estimated scf accuracy    <       0.00008875 Ry

     iteration #  5     ecut=    60.00 Ry     beta= 0.30
     Davidson diagonalization with overlap
     ethr =  7.46E-08,  avg # of iterations =  3.0

     total cpu time spent up to now is     7263.9 secs

     total energy              =   -1926.24790125 Ry
     estimated scf accuracy    <       0.00009813 Ry

     iteration #  6     ecut=    60.00 Ry     beta= 0.30
     Davidson diagonalization with overlap
     ethr =  7.46E-08,  avg # of iterations =  1.4

     total cpu time spent up to now is     7292.2 secs

     total energy              =   -1926.24790596 Ry
     estimated scf accuracy    <       0.00002248 Ry

     iteration #  7     ecut=    60.00 Ry     beta= 0.30
     Davidson diagonalization with overlap
     ethr =  1.89E-08,  avg # of iterations =  2.0

     total cpu time spent up to now is     7320.5 secs

     total energy              =   -1926.24790828 Ry
     estimated scf accuracy    <       0.00000799 Ry

     iteration #  8     ecut=    60.00 Ry     beta= 0.30
     Davidson diagonalization with overlap
     ethr =  6.72E-09,  avg # of iterations =  1.8

     total cpu time spent up to now is     7350.5 secs

     total energy              =   -1926.24790844 Ry
     estimated scf accuracy    <       0.00000550 Ry

     iteration #  9     ecut=    60.00 Ry     beta= 0.30
     Davidson diagonalization with overlap
     ethr =  4.62E-09,  avg # of iterations =  1.5

     total cpu time spent up to now is     7378.4 secs

     total energy              =   -1926.24790895 Ry
     estimated scf accuracy    <       0.00000020 Ry

     iteration # 10     ecut=    60.00 Ry     beta= 0.30
     Davidson diagonalization with overlap
     ethr =  1.68E-10,  avg # of iterations =  4.1

     total cpu time spent up to now is     7431.3 secs

     total energy              =   -1926.24790920 Ry
     estimated scf accuracy    <       0.00000039 Ry

     iteration # 11     ecut=    60.00 Ry     beta= 0.30
     Davidson diagonalization with overlap
     ethr =  1.68E-10,  avg # of iterations =  1.7

     total cpu time spent up to now is     7460.1 secs

     total energy              =   -1926.24790922 Ry
     estimated scf accuracy    <       0.00000003 Ry

     iteration # 12     ecut=    60.00 Ry     beta= 0.30
     Davidson diagonalization with overlap
     ethr =  2.80E-11,  avg # of iterations =  2.0

     total cpu time spent up to now is     7489.6 secs

     total energy              =   -1926.24790923 Ry
     estimated scf accuracy    <          5.5E-09 Ry

     iteration # 13     ecut=    60.00 Ry     beta= 0.30
     Davidson diagonalization with overlap
     ethr =  4.61E-12,  avg # of iterations =  1.8

     total cpu time spent up to now is     7519.3 secs

     End of self-consistent calculation

     Number of k-points >= 100: set verbosity='high' to print the bands.

     the Fermi energy is     6.6270 ev

!    total energy              =   -1926.24790923 Ry
     estimated scf accuracy    <          5.0E-10 Ry
     smearing contrib. (-TS)   =      -0.00098732 Ry
     internal energy E=F+TS    =   -1926.24692191 Ry

     The total energy is F=E-TS. E is the sum of the following terms:
     one-electron contribution =   -1704.93780087 Ry
     hartree contribution      =     886.59716717 Ry
     xc contribution           =    -198.32794341 Ry
     ewald contribution        =    -690.16824774 Ry
     DFT-D3 Dispersion         =      -0.36147014 Ry
     one-center paw contrib.   =    -219.04862692 Ry

     convergence has been achieved in  13 iterations

     Forces acting on atoms (cartesian axes, Ry/au):

     atom    1 type  1   force =     0.00613223    0.00261228   -0.00544993
     atom    2 type  2   force =     0.00053618    0.00088178    0.00180446
     atom    3 type  2   force =     0.00182139   -0.00232112   -0.00208213
     atom    4 type  2   force =     0.00039064    0.00409093   -0.00342052
     atom    5 type  2   force =    -0.00122387   -0.00053939    0.00256748
     atom    6 type  2   force =    -0.00125018   -0.00090646   -0.00115261
     atom    7 type  2   force =    -0.00033991    0.00426200   -0.00018844
     atom    8 type  2   force =    -0.00183176   -0.00355657    0.00106745
     atom    9 type  3   force =    -0.00066802   -0.00074860   -0.00123618
     atom   10 type  3   force =     0.00254261   -0.00008544   -0.00060402
     atom   11 type  3   force =    -0.00284957   -0.00274695    0.00332041
     atom   12 type  3   force =    -0.00061643    0.00033880    0.00166505
     atom   13 type  4   force =     0.00091269   -0.00031650    0.00184469
     atom   14 type  4   force =     0.00428653   -0.00315145    0.00338750
     atom   15 type  4   force =    -0.00116165    0.00273395   -0.00298854
     atom   16 type  4   force =    -0.00351947   -0.00152626   -0.00136204
     atom   17 type  4   force =    -0.00101525   -0.00216414   -0.00295518
     atom   18 type  4   force =    -0.00311476    0.00171182   -0.00061703
     atom   19 type  4   force =     0.00100104   -0.00033984    0.00070683
     atom   20 type  4   force =    -0.00040407    0.00030124    0.00520358
     atom   21 type  4   force =    -0.00497988    0.00071023   -0.00102679
     atom   22 type  4   force =    -0.00418700    0.00059555   -0.00138510
     atom   23 type  4   force =     0.00325175   -0.00590034   -0.00177346
     atom   24 type  4   force =     0.00129274    0.00126279    0.00134175
     atom   25 type  4   force =     0.00130522    0.00428007   -0.00128723
     atom   26 type  4   force =     0.00019226   -0.00073554   -0.00003569
     atom   27 type  4   force =    -0.00040879    0.00019942    0.00287543
     atom   28 type  4   force =     0.00390530    0.00105775    0.00178027

     Total force =     0.022178     Total SCF correction =     0.000067


     Computing stress (Cartesian axis) and pressure

          total   stress  (Ry/bohr**3)                   (kbar)     P=        2.51
   0.00002486   0.00000056  -0.00000032            3.66        0.08       -0.05
   0.00000056   0.00001293   0.00000754            0.08        1.90        1.11
  -0.00000032   0.00000754   0.00001341           -0.05        1.11        1.97

     Energy error            =      1.3E-03 Ry
     Gradient error          =      6.1E-03 Ry/Bohr
     Cell gradient error     =      3.7E+00 kbar

     number of scf cycles    =  14
     number of bfgs steps    =  13

     enthalpy           old  =   -1926.2465766057 Ry
     enthalpy           new  =   -1926.2479092292 Ry

     CASE: enthalpy          _new < enthalpy          _old

     new trust radius        =       0.0378910646 bohr
     new conv_thr            =       0.0000000006 Ry

     new unit-cell volume =   1669.39523 a.u.^3 (   247.37885 Ang^3 )
     density =      3.22181 g/cm^3

CELL_PARAMETERS (angstrom)
   7.506539464  -0.048260617   0.066749073
  -5.055756045   5.799063510   0.023452738
  -2.196084904   1.116196321   5.708411884

ATOMIC_POSITIONS (angstrom)
Co              -4.1874022439        5.3314426606        5.5077221419
Mg              -2.9555152045        4.8633405492        2.4884529253
Mg               3.2723259506        2.0333356941        3.3169638034
Mg               4.3396450113        1.4080862789        0.4124138067
Mg               0.8784403956        6.4530234171        4.3973886472
Mg              -0.5056364429        0.3729077333        1.4389400435
Mg              -0.4642072616        3.6275375115        4.3361125993
Mg               0.6414405097        3.2751665964        1.4346837637
Ni              -1.6662436860        6.1054882173        5.2581698842
Ni              -1.7886664342        2.4852499633        2.3768302815
Ni               2.0749738828        4.3604291918        3.4383085266
Ni               1.8960877498        0.7432627128        0.4988003052
H               -0.4407477304        5.2325455586        5.6150432848
H               -0.3155931898        2.1330786803        2.6827315604
H                0.6061052280        4.7351280470        3.0853105565
H                0.6575217587        1.6103965921        0.2430087007
H                4.9759685754        1.0864996243        2.3643014842
H                3.9260473394        1.7613409623        5.3141797596
H               -3.3808007242        4.9296875383        0.3688305499
H               -4.6892038721        5.7820288528        3.5181186296
H               -2.6953545052        6.0114072428        4.1168927635
H               -2.2833414406        3.2482757882        1.0588203348
H                2.8302626101        3.9233506583        4.7770641869
H                2.6949756018        0.9259419692        1.8164585574
H                0.5952979517        1.9926669942        4.9423509783
H                2.5918221633        3.5578872041        2.2174227463
H               -2.3444312444        3.3338762574        3.5468252612
H               -0.6979915363        4.8146064987        0.6084456421



     Writing config-only to output data dir ./outdir/mg2nih4_co.save/ :
     XML data file
     NEW-OLD atomic charge density approx. for the potential
     New effective cutoffs (rho, wfc):  535.75   67.01

     Check: negative core charge=   -0.000002

     total cpu time spent up to now is     7537.1 secs

     Self-consistent Calculation

     iteration #  1     ecut=    60.00 Ry     beta= 0.30
     Davidson diagonalization with overlap
     c_bands:  1 eigenvalues not converged
     c_bands:  1 eigenvalues not converged
     c_bands:  1 eigenvalues not converged
     c_bands:  1 eigenvalues not converged
     ethr =  1.00E-06,  avg # of iterations =  4.9

     total cpu time spent up to now is     7604.6 secs

     total energy              =   -1926.24765602 Ry
     estimated scf accuracy    <       0.00614501 Ry

     iteration #  2     ecut=    60.00 Ry     beta= 0.30
     Davidson diagonalization with overlap
     ethr =  5.16E-06,  avg # of iterations =  3.1

     total cpu time spent up to now is     7640.5 secs

     total energy              =   -1926.24493354 Ry
     estimated scf accuracy    <       0.08702427 Ry

     iteration #  3     ecut=    60.00 Ry     beta= 0.30
     Davidson diagonalization with overlap
     ethr =  5.16E-06,  avg # of iterations =  3.0

     total cpu time spent up to now is     7674.0 secs

     total energy              =   -1926.24920158 Ry
     estimated scf accuracy    <       0.00362012 Ry

     iteration #  4     ecut=    60.00 Ry     beta= 0.30
     Davidson diagonalization with overlap
     ethr =  3.04E-06,  avg # of iterations =  1.7

     total cpu time spent up to now is     7703.2 secs

     total energy              =   -1926.24947418 Ry
     estimated scf accuracy    <       0.00050540 Ry

     iteration #  5     ecut=    60.00 Ry     beta= 0.30
     Davidson diagonalization with overlap
     ethr =  4.25E-07,  avg # of iterations =  2.0

     total cpu time spent up to now is     7732.6 secs

     total energy              =   -1926.24949851 Ry
     estimated scf accuracy    <       0.00034515 Ry

     iteration #  6     ecut=    60.00 Ry     beta= 0.30
     Davidson diagonalization with overlap
     ethr =  2.90E-07,  avg # of iterations =  1.5

     total cpu time spent up to now is     7761.4 secs

     total energy              =   -1926.24952373 Ry
     estimated scf accuracy    <       0.00005547 Ry

     iteration #  7     ecut=    60.00 Ry     beta= 0.30
     Davidson diagonalization with overlap
     ethr =  4.66E-08,  avg # of iterations =  2.0

     total cpu time spent up to now is     7790.0 secs

     total energy              =   -1926.24952696 Ry
     estimated scf accuracy    <       0.00003838 Ry

     iteration #  8     ecut=    60.00 Ry     beta= 0.30
     Davidson diagonalization with overlap
     ethr =  3.23E-08,  avg # of iterations =  1.2

     total cpu time spent up to now is     7814.8 secs

     total energy              =   -1926.24952919 Ry
     estimated scf accuracy    <       0.00000932 Ry

     iteration #  9     ecut=    60.00 Ry     beta= 0.30
     Davidson diagonalization with overlap
     ethr =  7.84E-09,  avg # of iterations =  2.0

     total cpu time spent up to now is     7843.1 secs

     total energy              =   -1926.24953019 Ry
     estimated scf accuracy    <       0.00000100 Ry

     iteration # 10     ecut=    60.00 Ry     beta= 0.30
     Davidson diagonalization with overlap
     ethr =  8.42E-10,  avg # of iterations =  4.0

     total cpu time spent up to now is     7893.8 secs

     total energy              =   -1926.24953085 Ry
     estimated scf accuracy    <       0.00000222 Ry

     iteration # 11     ecut=    60.00 Ry     beta= 0.30
     Davidson diagonalization with overlap
     ethr =  8.42E-10,  avg # of iterations =  2.0

     total cpu time spent up to now is     7922.4 secs

     total energy              =   -1926.24953101 Ry
     estimated scf accuracy    <       0.00000005 Ry

     iteration # 12     ecut=    60.00 Ry     beta= 0.30
     Davidson diagonalization with overlap
     ethr =  4.08E-11,  avg # of iterations =  3.0

     total cpu time spent up to now is     7958.0 secs

     total energy              =   -1926.24953102 Ry
     estimated scf accuracy    <       0.00000002 Ry

     iteration # 13     ecut=    60.00 Ry     beta= 0.30
     Davidson diagonalization with overlap
     ethr =  1.40E-11,  avg # of iterations =  1.4

     total cpu time spent up to now is     7985.8 secs

     total energy              =   -1926.24953102 Ry
     estimated scf accuracy    <          1.1E-09 Ry

     iteration # 14     ecut=    60.00 Ry     beta= 0.30
     Davidson diagonalization with overlap
     ethr =  8.85E-13,  avg # of iterations =  2.0

     total cpu time spent up to now is     8015.1 secs

     End of self-consistent calculation

     Number of k-points >= 100: set verbosity='high' to print the bands.

     the Fermi energy is     6.7165 ev

!    total energy              =   -1926.24953102 Ry
     estimated scf accuracy    <          1.5E-10 Ry
     smearing contrib. (-TS)   =      -0.00103420 Ry
     internal energy E=F+TS    =   -1926.24849683 Ry

     The total energy is F=E-TS. E is the sum of the following terms:
     one-electron contribution =   -1702.00053812 Ry
     hartree contribution      =     885.44428481 Ry
     xc contribution           =    -198.37146417 Ry
     ewald contribution        =    -691.90205150 Ry
     DFT-D3 Dispersion         =      -0.36411886 Ry
     one-center paw contrib.   =    -219.05460898 Ry

     convergence has been achieved in  14 iterations

     Forces acting on atoms (cartesian axes, Ry/au):

     atom    1 type  1   force =     0.00305833   -0.00138956   -0.00627222
     atom    2 type  2   force =    -0.00009977   -0.00041410    0.00140186
     atom    3 type  2   force =     0.00142111   -0.00101347   -0.00176198
     atom    4 type  2   force =    -0.00088354    0.00368581   -0.00338747
     atom    5 type  2   force =    -0.00080897    0.00006481    0.00154569
     atom    6 type  2   force =    -0.00172843   -0.00232213    0.00054258
     atom    7 type  2   force =    -0.00132248    0.00220925    0.00050740
     atom    8 type  2   force =    -0.00010991   -0.00282248    0.00078382
     atom    9 type  3   force =     0.00312963    0.00174774   -0.00576429
     atom   10 type  3   force =     0.00182572   -0.00046267   -0.00017406
     atom   11 type  3   force =    -0.00244192   -0.00039856   -0.00122204
     atom   12 type  3   force =     0.00019292    0.00226416    0.00067075
     atom   13 type  4   force =     0.00143762   -0.00020597    0.00210692
     atom   14 type  4   force =     0.00068420   -0.00312357    0.00361483
     atom   15 type  4   force =     0.00018128    0.00258636   -0.00300750
     atom   16 type  4   force =    -0.00281236   -0.00140689   -0.00186226
     atom   17 type  4   force =     0.00053521   -0.00076560   -0.00186963
     atom   18 type  4   force =    -0.00304841    0.00027222   -0.00096380
     atom   19 type  4   force =    -0.00075248   -0.00025307    0.00132405
     atom   20 type  4   force =    -0.00151899   -0.00168902    0.00557273
     atom   21 type  4   force =    -0.00393533    0.00090811    0.00153183
     atom   22 type  4   force =    -0.00369850    0.00239565   -0.00274451
     atom   23 type  4   force =     0.00567712   -0.00545317    0.00038251
     atom   24 type  4   force =     0.00164613    0.00085333    0.00141935
     atom   25 type  4   force =     0.00094193    0.00416350   -0.00113669
     atom   26 type  4   force =    -0.00051575    0.00003000    0.00050186
     atom   27 type  4   force =     0.00029825   -0.00118934    0.00214081
     atom   28 type  4   force =     0.00264741    0.00172867    0.00611948

     Total force =     0.021767     Total SCF correction =     0.000046


     Computing stress (Cartesian axis) and pressure

          total   stress  (Ry/bohr**3)                   (kbar)     P=        7.03
   0.00005191   0.00000264  -0.00000260            7.64        0.39       -0.38
   0.00000264   0.00003610   0.00000080            0.39        5.31        0.12
  -0.00000260   0.00000080   0.00005539           -0.38        0.12        8.15

     Energy error            =      1.6E-03 Ry
     Gradient error          =      6.3E-03 Ry/Bohr
     Cell gradient error     =      8.1E+00 kbar

     number of scf cycles    =  15
     number of bfgs steps    =  14

     enthalpy           old  =   -1926.2479092292 Ry
     enthalpy           new  =   -1926.2495310238 Ry

     CASE: enthalpy          _new < enthalpy          _old

     new trust radius        =       0.0450825836 bohr
     new conv_thr            =       0.0000000006 Ry

     new unit-cell volume =   1663.52383 a.u.^3 (   246.50880 Ang^3 )
     density =      3.23318 g/cm^3

CELL_PARAMETERS (angstrom)
   7.500961433  -0.045512951   0.065570006
  -5.049947332   5.793973980   0.036244889
  -2.195110420   1.127243770   5.698540200

ATOMIC_POSITIONS (angstrom)
Co              -4.1711084792        5.3402727867        5.4966665009
Mg              -2.9476767977        4.8704083660        2.5024577385
Mg               3.2762165462        2.0322848868        3.3040570387
Mg               4.3397459073        1.4246406344        0.4001339615
Mg               0.8795045261        6.4595524537        4.4093669101
Mg              -0.5099580725        0.3712758130        1.4326616470
Mg              -0.4639316599        3.6517224311        4.3341050316
Mg               0.6324708807        3.2643937708        1.4397774061
Ni              -1.6700058056        6.1078803718        5.2585184273
Ni              -1.7766696835        2.4862640767        2.3774898855
Ni               2.0658730992        4.3567961836        3.4516236642
Ni               1.8936147733        0.7440974963        0.5017947124
H               -0.4407082309        5.2456081371        5.6247677264
H               -0.3025799220        2.1243898706        2.6957883349
H                0.6058532718        4.7517731719        3.0740001636
H                0.6470268546        1.5994036398        0.2382212579
H                4.9710185446        1.0919587324        2.3449047596
H                3.9098314823        1.7742298512        5.3024084222
H               -3.3541607866        4.9232335567        0.3773567846
H               -4.6870899576        5.7808287666        3.5464884819
H               -2.7139451382        6.0199687344        4.1247896838
H               -2.2920097066        3.2446875784        1.0655481319
H                2.8482162672        3.9277298226        4.7690435175
H                2.6933651059        0.9365125258        1.8150211020
H                0.5944650376        2.0170299815        4.9341392824
H                2.5906010497        3.5625145860        2.2242260498
H               -2.3416353840        3.3364448038        3.5478153112
H               -0.6936721889        4.8139641706        0.6117993988



     Writing config-only to output data dir ./outdir/mg2nih4_co.save/ :
     XML data file
     NEW-OLD atomic charge density approx. for the potential
     New effective cutoffs (rho, wfc):  537.56   67.26

     Check: negative core charge=   -0.000002

     total cpu time spent up to now is     8032.6 secs

     Self-consistent Calculation

     iteration #  1     ecut=    60.00 Ry     beta= 0.30
     Davidson diagonalization with overlap
     ethr =  1.00E-06,  avg # of iterations =  5.0

     total cpu time spent up to now is     8101.2 secs

     total energy              =   -1926.24995073 Ry
     estimated scf accuracy    <       0.00409375 Ry

     iteration #  2     ecut=    60.00 Ry     beta= 0.30
     Davidson diagonalization with overlap
     ethr =  3.44E-06,  avg # of iterations =  3.2

     total cpu time spent up to now is     8138.4 secs

     total energy              =   -1926.24829652 Ry
     estimated scf accuracy    <       0.04875346 Ry

     iteration #  3     ecut=    60.00 Ry     beta= 0.30
     Davidson diagonalization with overlap
     ethr =  3.44E-06,  avg # of iterations =  3.0

     total cpu time spent up to now is     8170.6 secs

     total energy              =   -1926.25073351 Ry
     estimated scf accuracy    <       0.00192326 Ry

     iteration #  4     ecut=    60.00 Ry     beta= 0.30
     Davidson diagonalization with overlap
     ethr =  1.62E-06,  avg # of iterations =  2.0

     total cpu time spent up to now is     8198.2 secs

     total energy              =   -1926.25080705 Ry
     estimated scf accuracy    <       0.00135145 Ry

     iteration #  5     ecut=    60.00 Ry     beta= 0.30
     Davidson diagonalization with overlap
     ethr =  1.14E-06,  avg # of iterations =  1.0

     total cpu time spent up to now is     8220.9 secs

     total energy              =   -1926.25089335 Ry
     estimated scf accuracy    <       0.00018847 Ry

     iteration #  6     ecut=    60.00 Ry     beta= 0.30
     Davidson diagonalization with overlap
     ethr =  1.58E-07,  avg # of iterations =  2.0

     total cpu time spent up to now is     8248.9 secs

     total energy              =   -1926.25091419 Ry
     estimated scf accuracy    <       0.00006796 Ry

     iteration #  7     ecut=    60.00 Ry     beta= 0.30
     Davidson diagonalization with overlap
     ethr =  5.71E-08,  avg # of iterations =  1.6

     total cpu time spent up to now is     8278.5 secs

     total energy              =   -1926.25091658 Ry
     estimated scf accuracy    <       0.00003466 Ry

     iteration #  8     ecut=    60.00 Ry     beta= 0.30
     Davidson diagonalization with overlap
     ethr =  2.91E-08,  avg # of iterations =  1.0

     total cpu time spent up to now is     8301.6 secs

     total energy              =   -1926.25091955 Ry
     estimated scf accuracy    <       0.00000388 Ry

     iteration #  9     ecut=    60.00 Ry     beta= 0.30
     Davidson diagonalization with overlap
     ethr =  3.26E-09,  avg # of iterations =  4.8

     total cpu time spent up to now is     8347.5 secs

     total energy              =   -1926.25092070 Ry
     estimated scf accuracy    <       0.00000233 Ry

     iteration # 10     ecut=    60.00 Ry     beta= 0.30
     Davidson diagonalization with overlap
     ethr =  1.96E-09,  avg # of iterations =  1.2

     total cpu time spent up to now is     8371.8 secs

     total energy              =   -1926.25092083 Ry
     estimated scf accuracy    <       0.00000069 Ry

     iteration # 11     ecut=    60.00 Ry     beta= 0.30
     Davidson diagonalization with overlap
     ethr =  5.83E-10,  avg # of iterations =  2.0

     total cpu time spent up to now is     8399.3 secs

     total energy              =   -1926.25092089 Ry
     estimated scf accuracy    <       0.00000006 Ry

     iteration # 12     ecut=    60.00 Ry     beta= 0.30
     Davidson diagonalization with overlap
     ethr =  5.40E-11,  avg # of iterations =  2.2

     total cpu time spent up to now is     8428.3 secs

     total energy              =   -1926.25092090 Ry
     estimated scf accuracy    <       0.00000001 Ry

     iteration # 13     ecut=    60.00 Ry     beta= 0.30
     Davidson diagonalization with overlap
     ethr =  9.95E-12,  avg # of iterations =  2.1

     total cpu time spent up to now is     8456.5 secs

     total energy              =   -1926.25092091 Ry
     estimated scf accuracy    <          1.2E-09 Ry

     iteration # 14     ecut=    60.00 Ry     beta= 0.30
     Davidson diagonalization with overlap
     ethr =  1.02E-12,  avg # of iterations =  2.6

     total cpu time spent up to now is     8488.5 secs

     End of self-consistent calculation

     Number of k-points >= 100: set verbosity='high' to print the bands.

     the Fermi energy is     6.7658 ev

!    total energy              =   -1926.25092091 Ry
     estimated scf accuracy    <          9.2E-11 Ry
     smearing contrib. (-TS)   =      -0.00107619 Ry
     internal energy E=F+TS    =   -1926.24984472 Ry

     The total energy is F=E-TS. E is the sum of the following terms:
     one-electron contribution =   -1700.58889692 Ry
     hartree contribution      =     884.89495192 Ry
     xc contribution           =    -198.38401607 Ry
     ewald contribution        =    -692.74955061 Ry
     DFT-D3 Dispersion         =      -0.36536962 Ry
     one-center paw contrib.   =    -219.05696342 Ry

     convergence has been achieved in  14 iterations

     Forces acting on atoms (cartesian axes, Ry/au):

     atom    1 type  1   force =     0.00051153   -0.00428236   -0.00569285
     atom    2 type  2   force =    -0.00087005   -0.00158321    0.00074942
     atom    3 type  2   force =     0.00128177    0.00040766   -0.00132719
     atom    4 type  2   force =    -0.00207275    0.00290932   -0.00300305
     atom    5 type  2   force =    -0.00012691    0.00044256    0.00072620
     atom    6 type  2   force =    -0.00208001   -0.00339360    0.00188250
     atom    7 type  2   force =    -0.00234269    0.00011344    0.00092310
     atom    8 type  2   force =     0.00152659   -0.00186185    0.00022236
     atom    9 type  3   force =     0.00614766    0.00321385   -0.00877537
     atom   10 type  3   force =     0.00045406   -0.00058477   -0.00017388
     atom   11 type  3   force =    -0.00148013    0.00150244   -0.00455581
     atom   12 type  3   force =     0.00095946    0.00349116   -0.00032567
     atom   13 type  4   force =     0.00158540    0.00003843    0.00213205
     atom   14 type  4   force =    -0.00295960   -0.00278127    0.00339579
     atom   15 type  4   force =     0.00156818    0.00196939   -0.00255861
     atom   16 type  4   force =    -0.00171457   -0.00140632   -0.00212135
     atom   17 type  4   force =     0.00210727    0.00072552   -0.00076506
     atom   18 type  4   force =    -0.00263603   -0.00060227   -0.00120875
     atom   19 type  4   force =    -0.00247097    0.00051631    0.00182870
     atom   20 type  4   force =    -0.00232886   -0.00329579    0.00620681
     atom   21 type  4   force =    -0.00284865    0.00094161    0.00389822
     atom   22 type  4   force =    -0.00277075    0.00432810   -0.00403922
     atom   23 type  4   force =     0.00726399   -0.00510991    0.00098316
     atom   24 type  4   force =     0.00168835    0.00014617    0.00093967
     atom   25 type  4   force =     0.00036513    0.00420428   -0.00039979
     atom   26 type  4   force =    -0.00121932    0.00058847    0.00102906
     atom   27 type  4   force =     0.00112115   -0.00258450    0.00111058
     atom   28 type  4   force =     0.00134079    0.00194715    0.00891900

     Total force =     0.026049     Total SCF correction =     0.000050


     Computing stress (Cartesian axis) and pressure

          total   stress  (Ry/bohr**3)                   (kbar)     P=        8.08
   0.00005522   0.00000519  -0.00000600            8.12        0.76       -0.88
   0.00000519   0.00004040  -0.00000488            0.76        5.94       -0.72
  -0.00000600  -0.00000488   0.00006910           -0.88       -0.72       10.17

     Energy error            =      1.4E-03 Ry
     Gradient error          =      8.9E-03 Ry/Bohr
     Cell gradient error     =      1.0E+01 kbar

     number of scf cycles    =  16
     number of bfgs steps    =  15

     enthalpy           old  =   -1926.2495310238 Ry
     enthalpy           new  =   -1926.2509209062 Ry

     CASE: enthalpy          _new < enthalpy          _old

     new trust radius        =       0.0674367619 bohr
     new conv_thr            =       0.0000000009 Ry

     new unit-cell volume =   1663.21685 a.u.^3 (   246.46331 Ang^3 )
     density =      3.23378 g/cm^3

CELL_PARAMETERS (angstrom)
   7.503575753  -0.039725311   0.061858879
  -5.047374533   5.792738012   0.054397937
  -2.198130615   1.142287981   5.697205370

ATOMIC_POSITIONS (angstrom)
Co              -4.1571669453        5.3522516539        5.4913806915
Mg              -2.9410581458        4.8837452087        2.5269209248
Mg               3.2860188908        2.0349630355        3.2914832950
Mg               4.3450871862        1.4506368142        0.3820484906
Mg               0.8827925545        6.4771301555        4.4327205491
Mg              -0.5178099652        0.3670844391        1.4285941615
Mg              -0.4657596629        3.6873555302        4.3404737234
Mg               0.6229154665        3.2536911544        1.4485948793
Ni              -1.6740009837        6.1194622573        5.2652524998
Ni              -1.7633937183        2.4895105094        2.3836186088
Ni               2.0566467151        4.3592623830        3.4714915685
Ni               1.8938276738        0.7483685750        0.5053302579
H               -0.4415271620        5.2699095838        5.6499796778
H               -0.2893309840        2.1139771036        2.7199621397
H                0.6088675191        4.7805828474        3.0630835787
H                0.6341799607        1.5853340726        0.2305342942
H                4.9727691196        1.1040826289        2.3216115349
H                3.8909102140        1.7925613212        5.2950488382
H               -3.3208839313        4.9204056050        0.3906541583
H               -4.6920138914        5.7813940789        3.5952079728
H               -2.7427720073        6.0384386362        4.1476388519
H               -2.3065294690        3.2442168007        1.0769906223
H                2.8804138711        3.9389604689        4.7671763664
H                2.6945996163        0.9522878783        1.8150301983
H                0.5923700328        2.0536481613        4.9335670790
H                2.5918908393        3.5748274286        2.2381147278
H               -2.3399987759        3.3404472859        3.5551110241
H               -0.6880555462        4.8196739275        0.6208498918



     Writing config-only to output data dir ./outdir/mg2nih4_co.save/ :
     XML data file
     NEW-OLD atomic charge density approx. for the potential
     New effective cutoffs (rho, wfc):  538.31   67.34

     Check: negative core charge=   -0.000002

     total cpu time spent up to now is     8505.4 secs

     Self-consistent Calculation

     iteration #  1     ecut=    60.00 Ry     beta= 0.30
     Davidson diagonalization with overlap
     ethr =  1.00E-06,  avg # of iterations =  5.8

     total cpu time spent up to now is     8578.6 secs

     total energy              =   -1926.25203705 Ry
     estimated scf accuracy    <       0.00458023 Ry

     iteration #  2     ecut=    60.00 Ry     beta= 0.30
     Davidson diagonalization with overlap
     ethr =  3.85E-06,  avg # of iterations =  3.1

     total cpu time spent up to now is     8614.6 secs

     total energy              =   -1926.25084788 Ry
     estimated scf accuracy    <       0.02701412 Ry

     iteration #  3     ecut=    60.00 Ry     beta= 0.30
     Davidson diagonalization with overlap
     ethr =  3.85E-06,  avg # of iterations =  3.0

     total cpu time spent up to now is     8646.7 secs

     total energy              =   -1926.25239481 Ry
     estimated scf accuracy    <       0.00459866 Ry

     iteration #  4     ecut=    60.00 Ry     beta= 0.30
     Davidson diagonalization with overlap
     ethr =  3.85E-06,  avg # of iterations =  1.0

     total cpu time spent up to now is     8670.1 secs

     total energy              =   -1926.25249989 Ry
     estimated scf accuracy    <       0.00296855 Ry

     iteration #  5     ecut=    60.00 Ry     beta= 0.30
     Davidson diagonalization with overlap
     ethr =  2.49E-06,  avg # of iterations =  1.0

     total cpu time spent up to now is     8693.6 secs

     total energy              =   -1926.25270334 Ry
     estimated scf accuracy    <       0.00010791 Ry

     iteration #  6     ecut=    60.00 Ry     beta= 0.30
     Davidson diagonalization with overlap
     ethr =  9.07E-08,  avg # of iterations =  2.1

     total cpu time spent up to now is     8724.5 secs

     total energy              =   -1926.25270673 Ry
     estimated scf accuracy    <       0.00018966 Ry

     iteration #  7     ecut=    60.00 Ry     beta= 0.30
     Davidson diagonalization with overlap
     ethr =  9.07E-08,  avg # of iterations =  2.0

     total cpu time spent up to now is     8752.7 secs

     total energy              =   -1926.25271806 Ry
     estimated scf accuracy    <       0.00003398 Ry

     iteration #  8     ecut=    60.00 Ry     beta= 0.30
     Davidson diagonalization with overlap
     ethr =  2.86E-08,  avg # of iterations =  2.0

     total cpu time spent up to now is     8780.5 secs

     total energy              =   -1926.25272007 Ry
     estimated scf accuracy    <       0.00001078 Ry

     iteration #  9     ecut=    60.00 Ry     beta= 0.30
     Davidson diagonalization with overlap
     ethr =  9.05E-09,  avg # of iterations =  3.0

     total cpu time spent up to now is     8816.9 secs

     total energy              =   -1926.25272147 Ry
     estimated scf accuracy    <       0.00000468 Ry

     iteration # 10     ecut=    60.00 Ry     beta= 0.30
     Davidson diagonalization with overlap
     ethr =  3.93E-09,  avg # of iterations =  4.5

     total cpu time spent up to now is     8859.3 secs

     total energy              =   -1926.25272219 Ry
     estimated scf accuracy    <       0.00000265 Ry

     iteration # 11     ecut=    60.00 Ry     beta= 0.30
     Davidson diagonalization with overlap
     ethr =  2.23E-09,  avg # of iterations =  2.2

     total cpu time spent up to now is     8890.2 secs

     total energy              =   -1926.25272255 Ry
     estimated scf accuracy    <       0.00000011 Ry

     iteration # 12     ecut=    60.00 Ry     beta= 0.30
     Davidson diagonalization with overlap
     ethr =  8.87E-11,  avg # of iterations =  3.0

     total cpu time spent up to now is     8929.7 secs

     total energy              =   -1926.25272262 Ry
     estimated scf accuracy    <       0.00000004 Ry

     iteration # 13     ecut=    60.00 Ry     beta= 0.30
     Davidson diagonalization with overlap
     ethr =  3.49E-11,  avg # of iterations =  1.0

     total cpu time spent up to now is     8952.5 secs

     total energy              =   -1926.25272262 Ry
     estimated scf accuracy    <          1.9E-09 Ry

     iteration # 14     ecut=    60.00 Ry     beta= 0.30
     Davidson diagonalization with overlap
     ethr =  1.63E-12,  avg # of iterations =  3.0

     total cpu time spent up to now is     8989.3 secs

     End of self-consistent calculation

     Number of k-points >= 100: set verbosity='high' to print the bands.

     the Fermi energy is     6.7836 ev

!    total energy              =   -1926.25272262 Ry
     estimated scf accuracy    <          2.1E-10 Ry
     smearing contrib. (-TS)   =      -0.00110713 Ry
     internal energy E=F+TS    =   -1926.25161550 Ry

     The total energy is F=E-TS. E is the sum of the following terms:
     one-electron contribution =   -1700.32989416 Ry
     hartree contribution      =     884.79035290 Ry
     xc contribution           =    -198.36824318 Ry
     ewald contribution        =    -692.92215034 Ry
     DFT-D3 Dispersion         =      -0.36547022 Ry
     one-center paw contrib.   =    -219.05621049 Ry

     convergence has been achieved in  14 iterations

     Forces acting on atoms (cartesian axes, Ry/au):

     atom    1 type  1   force =    -0.00171364   -0.00607887   -0.00358725
     atom    2 type  2   force =    -0.00176888   -0.00260579   -0.00015508
     atom    3 type  2   force =     0.00138140    0.00211397   -0.00070966
     atom    4 type  2   force =    -0.00316348    0.00160340   -0.00206968
     atom    5 type  2   force =     0.00087187    0.00064006   -0.00003809
     atom    6 type  2   force =    -0.00227534   -0.00407366    0.00284992
     atom    7 type  2   force =    -0.00345917   -0.00211674    0.00096075
     atom    8 type  2   force =     0.00312718   -0.00060055   -0.00070813
     atom    9 type  3   force =     0.00785554    0.00359067   -0.00982537
     atom   10 type  3   force =    -0.00177665   -0.00034128   -0.00097172
     atom   11 type  3   force =     0.00033538    0.00291971   -0.00650712
     atom   12 type  3   force =     0.00160950    0.00397771   -0.00121599
     atom   13 type  4   force =     0.00157970    0.00032609    0.00197773
     atom   14 type  4   force =    -0.00686107   -0.00199555    0.00252459
     atom   15 type  4   force =     0.00299837    0.00071968   -0.00150084
     atom   16 type  4   force =    -0.00019445   -0.00145035   -0.00216321
     atom   17 type  4   force =     0.00376266    0.00229357    0.00043866
     atom   18 type  4   force =    -0.00170879   -0.00091273   -0.00138073
     atom   19 type  4   force =    -0.00420523    0.00208601    0.00219587
     atom   20 type  4   force =    -0.00275726   -0.00446376    0.00733796
     atom   21 type  4   force =    -0.00174571    0.00074641    0.00614394
     atom   22 type  4   force =    -0.00110653    0.00633262   -0.00507485
     atom   23 type  4   force =     0.00803206   -0.00452963   -0.00017973
     atom   24 type  4   force =     0.00143330   -0.00100296   -0.00005465
     atom   25 type  4   force =    -0.00041220    0.00435742    0.00085417
     atom   26 type  4   force =    -0.00188171    0.00088941    0.00136808
     atom   27 type  4   force =     0.00203308   -0.00401104   -0.00025378
     atom   28 type  4   force =     0.00001005    0.00158620    0.00974421

     Total force =     0.030792     Total SCF correction =     0.000064


     Computing stress (Cartesian axis) and pressure

          total   stress  (Ry/bohr**3)                   (kbar)     P=        5.77
   0.00003468   0.00000776  -0.00001050            5.10        1.14       -1.54
   0.00000776   0.00002759  -0.00001000            1.14        4.06       -1.47
  -0.00001050  -0.00001000   0.00005540           -1.54       -1.47        8.15

     Energy error            =      1.8E-03 Ry
     Gradient error          =      9.8E-03 Ry/Bohr
     Cell gradient error     =      8.1E+00 kbar

     number of scf cycles    =  17
     number of bfgs steps    =  16

     enthalpy           old  =   -1926.2509209062 Ry
     enthalpy           new  =   -1926.2527226244 Ry

     CASE: enthalpy          _new < enthalpy          _old

     new trust radius        =       0.1009623188 bohr
     new conv_thr            =       0.0000000010 Ry

     new unit-cell volume =   1668.72526 a.u.^3 (   247.27957 Ang^3 )
     density =      3.22310 g/cm^3

CELL_PARAMETERS (angstrom)
   7.513892418  -0.029132645   0.053342909
  -5.046411587   5.794453017   0.079484417
  -2.206500544   1.160926369   5.706097539

ATOMIC_POSITIONS (angstrom)
Co              -4.1453739894        5.3646787526        5.4921362929
Mg              -2.9355978518        4.9024228480        2.5637790744
Mg               3.3023410459        2.0426685952        3.2777583706
Mg               4.3547790097        1.4887841613        0.3552659354
Mg               0.8888499694        6.5067233518        4.4686793516
Mg              -0.5307994148        0.3582759626        1.4276608826
Mg              -0.4716742548        3.7350883971        4.3563238475
Mg               0.6134463380        3.2421773851        1.4607824269
Ni              -1.6765639573        6.1404525835        5.2770892018
Ni              -1.7493065164        2.4945996813        2.3953711209
Ni               2.0470156723        4.3686780000        3.4970747923
Ni               1.8971613902        0.7576955249        0.5087085503
H               -0.4434702088        5.3064837766        5.6936159317
H               -0.2784006018        2.1003031576        2.7576379257
H                0.6167955240        4.8229130267        3.0514438145
H                0.6185413540        1.5664765074        0.2182519992
H                4.9821493767        1.1253516345        2.2921464198
H                3.8661309202        1.8171417484        5.2910238025
H               -3.2790965675        4.9221037985        0.4104795652
H               -4.7048737952        5.7808807136        3.6716826260
H               -2.7841052888        6.0672406406        4.1902173710
H               -2.3274190301        3.2485175422        1.0930180841
H                2.9308046242        3.9559883331        4.7695612753
H                2.6984909518        0.9737507900        1.8154658171
H                0.5874744697        2.1062145983        4.9423031922
H                2.5948457776        3.5961519534        2.2598026506
H               -2.3386562733        3.3432873291        3.5694899755
H               -0.6797646506        4.8324035817        0.6381778073



     Writing config-only to output data dir ./outdir/mg2nih4_co.save/ :
     XML data file
     NEW-OLD atomic charge density approx. for the potential
     New effective cutoffs (rho, wfc):  537.67   67.27

     Check: negative core charge=   -0.000002

     total cpu time spent up to now is     9006.1 secs

     Self-consistent Calculation

     iteration #  1     ecut=    60.00 Ry     beta= 0.30
     Davidson diagonalization with overlap
     ethr =  1.00E-06,  avg # of iterations =  7.2

     total cpu time spent up to now is     9094.9 secs

     total energy              =   -1926.25419997 Ry
     estimated scf accuracy    <       0.00691305 Ry

     iteration #  2     ecut=    60.00 Ry     beta= 0.30
     Davidson diagonalization with overlap
     ethr =  5.81E-06,  avg # of iterations =  2.2

     total cpu time spent up to now is     9126.1 secs

     total energy              =   -1926.25368903 Ry
     estimated scf accuracy    <       0.00937847 Ry

     iteration #  3     ecut=    60.00 Ry     beta= 0.30
     Davidson diagonalization with overlap
     ethr =  5.81E-06,  avg # of iterations =  2.0

     total cpu time spent up to now is     9153.7 secs

     total energy              =   -1926.25406618 Ry
     estimated scf accuracy    <       0.01098189 Ry

     iteration #  4     ecut=    60.00 Ry     beta= 0.30
     Davidson diagonalization with overlap
     ethr =  5.81E-06,  avg # of iterations =  2.0

     total cpu time spent up to now is     9180.9 secs

     total energy              =   -1926.25438556 Ry
     estimated scf accuracy    <       0.00936321 Ry

     iteration #  5     ecut=    60.00 Ry     beta= 0.30
     Davidson diagonalization with overlap
     ethr =  5.81E-06,  avg # of iterations =  1.0

     total cpu time spent up to now is     9203.8 secs

     total energy              =   -1926.25483617 Ry
     estimated scf accuracy    <       0.00047695 Ry

     iteration #  6     ecut=    60.00 Ry     beta= 0.30
     Davidson diagonalization with overlap
     ethr =  4.01E-07,  avg # of iterations =  2.0

     total cpu time spent up to now is     9232.6 secs

     total energy              =   -1926.25489486 Ry
     estimated scf accuracy    <       0.00023800 Ry

     iteration #  7     ecut=    60.00 Ry     beta= 0.30
     Davidson diagonalization with overlap
     ethr =  2.00E-07,  avg # of iterations =  1.1

     total cpu time spent up to now is     9256.9 secs

     total energy              =   -1926.25490577 Ry
     estimated scf accuracy    <       0.00005827 Ry

     iteration #  8     ecut=    60.00 Ry     beta= 0.30
     Davidson diagonalization with overlap
     ethr =  4.90E-08,  avg # of iterations =  2.0

     total cpu time spent up to now is     9284.4 secs

     total energy              =   -1926.25491160 Ry
     estimated scf accuracy    <       0.00001791 Ry

     iteration #  9     ecut=    60.00 Ry     beta= 0.30
     Davidson diagonalization with overlap
     ethr =  1.51E-08,  avg # of iterations =  3.8

     total cpu time spent up to now is     9326.5 secs

     total energy              =   -1926.25491383 Ry
     estimated scf accuracy    <       0.00000427 Ry

     iteration # 10     ecut=    60.00 Ry     beta= 0.30
     Davidson diagonalization with overlap
     ethr =  3.59E-09,  avg # of iterations =  4.3

     total cpu time spent up to now is     9372.1 secs

     total energy              =   -1926.25491525 Ry
     estimated scf accuracy    <       0.00000307 Ry

     iteration # 11     ecut=    60.00 Ry     beta= 0.30
     Davidson diagonalization with overlap
     ethr =  2.58E-09,  avg # of iterations =  1.2

     total cpu time spent up to now is     9396.8 secs

     total energy              =   -1926.25491553 Ry
     estimated scf accuracy    <       0.00000017 Ry

     iteration # 12     ecut=    60.00 Ry     beta= 0.30
     Davidson diagonalization with overlap
     ethr =  1.43E-10,  avg # of iterations =  2.2

     total cpu time spent up to now is     9428.2 secs

     total energy              =   -1926.25491555 Ry
     estimated scf accuracy    <       0.00000004 Ry

     iteration # 13     ecut=    60.00 Ry     beta= 0.30
     Davidson diagonalization with overlap
     ethr =  3.67E-11,  avg # of iterations =  1.0

     total cpu time spent up to now is     9451.0 secs

     total energy              =   -1926.25491556 Ry
     estimated scf accuracy    <          2.4E-09 Ry

     iteration # 14     ecut=    60.00 Ry     beta= 0.30
     Davidson diagonalization with overlap
     ethr =  2.01E-12,  avg # of iterations =  3.0

     total cpu time spent up to now is     9489.3 secs

     End of self-consistent calculation

     Number of k-points >= 100: set verbosity='high' to print the bands.

     the Fermi energy is     6.7673 ev

!    total energy              =   -1926.25491556 Ry
     estimated scf accuracy    <          3.2E-10 Ry
     smearing contrib. (-TS)   =      -0.00110388 Ry
     internal energy E=F+TS    =   -1926.25381168 Ry

     The total energy is F=E-TS. E is the sum of the following terms:
     one-electron contribution =   -1701.21115950 Ry
     hartree contribution      =     885.11379394 Ry
     xc contribution           =    -198.32322451 Ry
     ewald contribution        =    -692.41659759 Ry
     DFT-D3 Dispersion         =      -0.36436929 Ry
     one-center paw contrib.   =    -219.05225472 Ry

     convergence has been achieved in  14 iterations

     Forces acting on atoms (cartesian axes, Ry/au):

     atom    1 type  1   force =    -0.00339123   -0.00579388    0.00039667
     atom    2 type  2   force =    -0.00255366   -0.00312750   -0.00110164
     atom    3 type  2   force =     0.00172852    0.00393426    0.00007644
     atom    4 type  2   force =    -0.00371949   -0.00022608   -0.00030994
     atom    5 type  2   force =     0.00203136    0.00060064   -0.00078720
     atom    6 type  2   force =    -0.00218231   -0.00390904    0.00297677
     atom    7 type  2   force =    -0.00447584   -0.00405979    0.00034929
     atom    8 type  2   force =     0.00430333    0.00079180   -0.00194773
     atom    9 type  3   force =     0.00681108    0.00231202   -0.00731360
     atom   10 type  3   force =    -0.00469675    0.00049710   -0.00295504
     atom   11 type  3   force =     0.00305351    0.00335305   -0.00625488
     atom   12 type  3   force =     0.00173037    0.00338779   -0.00160236
     atom   13 type  4   force =     0.00161849    0.00053690    0.00164989
     atom   14 type  4   force =    -0.01031838   -0.00063320    0.00068114
     atom   15 type  4   force =     0.00410901   -0.00125627    0.00029488
     atom   16 type  4   force =     0.00153770   -0.00144346   -0.00192568
     atom   17 type  4   force =     0.00506959    0.00340762    0.00153153
     atom   18 type  4   force =    -0.00010816   -0.00040832   -0.00145827
     atom   19 type  4   force =    -0.00552836    0.00442058    0.00218777
     atom   20 type  4   force =    -0.00244714   -0.00456734    0.00910324
     atom   21 type  4   force =    -0.00093460    0.00019663    0.00766997
     atom   22 type  4   force =     0.00147765    0.00780718   -0.00537096
     atom   23 type  4   force =     0.00760388   -0.00356905   -0.00337154
     atom   24 type  4   force =     0.00093121   -0.00261964   -0.00130511
     atom   25 type  4   force =    -0.00125840    0.00449930    0.00235842
     atom   26 type  4   force =    -0.00223023    0.00067394    0.00104646
     atom   27 type  4   force =     0.00272647   -0.00510592   -0.00175270
     atom   28 type  4   force =    -0.00088761    0.00030068    0.00713418

     Total force =     0.033367     Total SCF correction =     0.000076


     Computing stress (Cartesian axis) and pressure

          total   stress  (Ry/bohr**3)                   (kbar)     P=        0.18
  -0.00000932   0.00000889  -0.00001441           -1.37        1.31       -2.12
   0.00000889  -0.00000000  -0.00001378            1.31       -0.00       -2.03
  -0.00001441  -0.00001378   0.00001307           -2.12       -2.03        1.92

     Energy error            =      2.2E-03 Ry
     Gradient error          =      1.0E-02 Ry/Bohr
     Cell gradient error     =      2.1E+00 kbar

     number of scf cycles    =  18
     number of bfgs steps    =  17

     enthalpy           old  =   -1926.2527226244 Ry
     enthalpy           new  =   -1926.2549155601 Ry

     CASE: enthalpy          _new < enthalpy          _old

     new trust radius        =       0.0864246734 bohr
     new conv_thr            =       0.0000000010 Ry

     new unit-cell volume =   1675.05111 a.u.^3 (   248.21696 Ang^3 )
     density =      3.21093 g/cm^3

CELL_PARAMETERS (angstrom)
   7.522034886  -0.018792747   0.043127253
  -5.044204240   5.796096893   0.097824334
  -2.215463952   1.171401236   5.718506208

ATOMIC_POSITIONS (angstrom)
Co              -4.1405426268        5.3674667259        5.4966329588
Mg              -2.9333933796        4.9133714133        2.5914712476
Mg               3.3147492273        2.0514906591        3.2681220338
Mg               4.3602155891        1.5183466464        0.3329740764
Mg               0.8942211160        6.5295686337        4.4947967755
Mg              -0.5424829797        0.3482829909        1.4302910746
Mg              -0.4801231082        3.7661688290        4.3705643287
Mg               0.6098883626        3.2349261025        1.4678812997
Ni              -1.6748611972        6.1564241093        5.2838916011
Ni              -1.7429002537        2.4978633073        2.4037726098
Ni               2.0418098517        4.3785241668        3.5114285785
Ni               1.9009241052        0.7676225722        0.5093711967
H               -0.4451114536        5.3328160393        5.7295780220
H               -0.2785204931        2.0894327344        2.7870459424
H                0.6257360957        4.8533550570        3.0434492051
H                0.6085854968        1.5521720860        0.2069924893
H                4.9921670250        1.1444257377        2.2707681620
H                3.8459817336        1.8340165743        5.2890340046
H               -3.2512113456        4.9274397664        0.4263669115
H               -4.7165758374        5.7761930955        3.7365492836
H               -2.8150494912        6.0879699562        4.2291693770
H               -2.3415052097        3.2564796444        1.1027648627
H                2.9717613072        3.9658359698        4.7696932050
H                2.7015545317        0.9878325842        1.8144418235
H                0.5811736270        2.1466303560        4.9539125781
H                2.5957407102        3.6134978055        2.2753690703
H               -2.3367803198        3.3401593460        3.5815182970
H               -0.6723173721        4.8435624491        0.6545581041



     Writing config-only to output data dir ./outdir/mg2nih4_co.save/ :
     XML data file
     NEW-OLD atomic charge density approx. for the potential
     New effective cutoffs (rho, wfc):  535.71   67.07

     Check: negative core charge=   -0.000002

     total cpu time spent up to now is     9506.1 secs

     Self-consistent Calculation

     iteration #  1     ecut=    60.00 Ry     beta= 0.30
     Davidson diagonalization with overlap
     ethr =  1.00E-06,  avg # of iterations =  5.6

     total cpu time spent up to now is     9579.5 secs

     total energy              =   -1926.25626529 Ry
     estimated scf accuracy    <       0.00400055 Ry

     iteration #  2     ecut=    60.00 Ry     beta= 0.30
     Davidson diagonalization with overlap
     ethr =  3.36E-06,  avg # of iterations =  2.4

     total cpu time spent up to now is     9614.0 secs

     total energy              =   -1926.25573595 Ry
     estimated scf accuracy    <       0.00990610 Ry

     iteration #  3     ecut=    60.00 Ry     beta= 0.30
     Davidson diagonalization with overlap
     ethr =  3.36E-06,  avg # of iterations =  2.4

     total cpu time spent up to now is     9646.3 secs

     total energy              =   -1926.25623282 Ry
     estimated scf accuracy    <       0.00721093 Ry

     iteration #  4     ecut=    60.00 Ry     beta= 0.30
     Davidson diagonalization with overlap
     ethr =  3.36E-06,  avg # of iterations =  2.0

     total cpu time spent up to now is     9673.9 secs

     total energy              =   -1926.25650478 Ry
     estimated scf accuracy    <       0.00356491 Ry

     iteration #  5     ecut=    60.00 Ry     beta= 0.30
     Davidson diagonalization with overlap
     ethr =  3.00E-06,  avg # of iterations =  1.0

     total cpu time spent up to now is     9697.0 secs

     total energy              =   -1926.25668451 Ry
     estimated scf accuracy    <       0.00034410 Ry

     iteration #  6     ecut=    60.00 Ry     beta= 0.30
     Davidson diagonalization with overlap
     ethr =  2.89E-07,  avg # of iterations =  2.0

     total cpu time spent up to now is     9726.1 secs

     total energy              =   -1926.25672556 Ry
     estimated scf accuracy    <       0.00010853 Ry

     iteration #  7     ecut=    60.00 Ry     beta= 0.30
     Davidson diagonalization with overlap
     ethr =  9.12E-08,  avg # of iterations =  1.0

     total cpu time spent up to now is     9749.2 secs

     total energy              =   -1926.25673137 Ry
     estimated scf accuracy    <       0.00000804 Ry

     iteration #  8     ecut=    60.00 Ry     beta= 0.30
     Davidson diagonalization with overlap
     ethr =  6.76E-09,  avg # of iterations =  4.0

     total cpu time spent up to now is     9788.9 secs

     total energy              =   -1926.25673324 Ry
     estimated scf accuracy    <       0.00001217 Ry

     iteration #  9     ecut=    60.00 Ry     beta= 0.30
     Davidson diagonalization with overlap
     ethr =  6.76E-09,  avg # of iterations =  1.7

     total cpu time spent up to now is     9816.7 secs

     total energy              =   -1926.25673402 Ry
     estimated scf accuracy    <       0.00000117 Ry

     iteration # 10     ecut=    60.00 Ry     beta= 0.30
     Davidson diagonalization with overlap
     ethr =  9.84E-10,  avg # of iterations =  2.0

     total cpu time spent up to now is     9845.0 secs

     total energy              =   -1926.25673417 Ry
     estimated scf accuracy    <       0.00000018 Ry

     iteration # 11     ecut=    60.00 Ry     beta= 0.30
     Davidson diagonalization with overlap
     ethr =  1.52E-10,  avg # of iterations =  2.1

     total cpu time spent up to now is     9874.6 secs

     total energy              =   -1926.25673418 Ry
     estimated scf accuracy    <       0.00000028 Ry

     iteration # 12     ecut=    60.00 Ry     beta= 0.30
     Davidson diagonalization with overlap
     ethr =  1.52E-10,  avg # of iterations =  1.2

     total cpu time spent up to now is     9898.9 secs

     total energy              =   -1926.25673420 Ry
     estimated scf accuracy    <       0.00000002 Ry

     iteration # 13     ecut=    60.00 Ry     beta= 0.30
     Davidson diagonalization with overlap
     ethr =  1.89E-11,  avg # of iterations =  2.6

     total cpu time spent up to now is     9931.1 secs

     total energy              =   -1926.25673420 Ry
     estimated scf accuracy    <          3.4E-09 Ry

     iteration # 14     ecut=    60.00 Ry     beta= 0.30
     Davidson diagonalization with overlap
     ethr =  2.82E-12,  avg # of iterations =  2.3

     total cpu time spent up to now is     9962.9 secs

     End of self-consistent calculation

     Number of k-points >= 100: set verbosity='high' to print the bands.

     the Fermi energy is     6.7375 ev

!    total energy              =   -1926.25673420 Ry
     estimated scf accuracy    <          2.7E-10 Ry
     smearing contrib. (-TS)   =      -0.00106705 Ry
     internal energy E=F+TS    =   -1926.25566715 Ry

     The total energy is F=E-TS. E is the sum of the following terms:
     one-electron contribution =   -1702.30068893 Ry
     hartree contribution      =     885.50647337 Ry
     xc contribution           =    -198.28368046 Ry
     ewald contribution        =    -691.76654928 Ry
     DFT-D3 Dispersion         =      -0.36308887 Ry
     one-center paw contrib.   =    -219.04813299 Ry

     convergence has been achieved in  14 iterations

     Forces acting on atoms (cartesian axes, Ry/au):

     atom    1 type  1   force =    -0.00351849   -0.00341513    0.00405695
     atom    2 type  2   force =    -0.00258671   -0.00263022   -0.00142547
     atom    3 type  2   force =     0.00191214    0.00451357    0.00048454
     atom    4 type  2   force =    -0.00303396   -0.00128358    0.00127069
     atom    5 type  2   force =     0.00245420    0.00043049   -0.00128425
     atom    6 type  2   force =    -0.00176110   -0.00276043    0.00200331
     atom    7 type  2   force =    -0.00455315   -0.00434239   -0.00062373
     atom    8 type  2   force =     0.00408561    0.00126467   -0.00256011
     atom    9 type  3   force =     0.00330636    0.00009667   -0.00236362
     atom   10 type  3   force =    -0.00591073    0.00173480   -0.00493235
     atom   11 type  3   force =     0.00487868    0.00235629   -0.00390582
     atom   12 type  3   force =     0.00110363    0.00200837   -0.00100580
     atom   13 type  4   force =     0.00186019    0.00054067    0.00132781
     atom   14 type  4   force =    -0.01081058    0.00049087   -0.00104839
     atom   15 type  4   force =     0.00378773   -0.00256671    0.00159384
     atom   16 type  4   force =     0.00206244   -0.00121592   -0.00161439
     atom   17 type  4   force =     0.00482893    0.00288571    0.00165032
     atom   18 type  4   force =     0.00123192    0.00051658   -0.00140353
     atom   19 type  4   force =    -0.00538591    0.00576679    0.00159865
     atom   20 type  4   force =    -0.00153559   -0.00329285    0.01029915
     atom   21 type  4   force =    -0.00108159   -0.00040373    0.00727866
     atom   22 type  4   force =     0.00319829    0.00753724   -0.00463373
     atom   23 type  4   force =     0.00642826   -0.00278887   -0.00604919
     atom   24 type  4   force =     0.00075426   -0.00363556   -0.00159522
     atom   25 type  4   force =    -0.00164924    0.00439947    0.00298835
     atom   26 type  4   force =    -0.00189078   -0.00001051   -0.00015900
     atom   27 type  4   force =     0.00247142   -0.00498805   -0.00236409
     atom   28 type  4   force =    -0.00064622   -0.00120823    0.00241641

     Total force =     0.031804     Total SCF correction =     0.000043


     Computing stress (Cartesian axis) and pressure

          total   stress  (Ry/bohr**3)                   (kbar)     P=       -4.48
  -0.00004292   0.00000666  -0.00001231           -6.31        0.98       -1.81
   0.00000666  -0.00002148  -0.00001371            0.98       -3.16       -2.02
  -0.00001231  -0.00001371  -0.00002699           -1.81       -2.02       -3.97

     Energy error            =      1.8E-03 Ry
     Gradient error          =      1.1E-02 Ry/Bohr
     Cell gradient error     =      6.3E+00 kbar

     number of scf cycles    =  19
     number of bfgs steps    =  18

     enthalpy           old  =   -1926.2549155601 Ry
     enthalpy           new  =   -1926.2567342046 Ry

     CASE: enthalpy          _new < enthalpy          _old

     new trust radius        =       0.1056982331 bohr
     new conv_thr            =       0.0000000010 Ry

     new unit-cell volume =   1679.34534 a.u.^3 (   248.85330 Ang^3 )
     density =      3.20272 g/cm^3

CELL_PARAMETERS (angstrom)
   7.523312649  -0.006477807   0.029151474
  -5.035951089   5.795280894   0.114937550
  -2.224954225   1.177145296   5.730620864

ATOMIC_POSITIONS (angstrom)
Co              -4.1356649818        5.3609566425        5.5013256506
Mg              -2.9306648682        4.9182457797        2.6160186916
Mg               3.3246895063        2.0624890833        3.2554181445
Mg               4.3589875937        1.5482229959        0.3077851970
Mg               0.9004577232        6.5485630723        4.5150295926
Mg              -0.5561605993        0.3340208669        1.4346613615
Mg              -0.4934509430        3.7896847417        4.3816476000
Mg               0.6093632117        3.2266613128        1.4703714321
Ni              -1.6685539427        6.1675494952        5.2828366177
Ni              -1.7400466370        2.5000778544        2.4064410907
Ni               2.0375009729        4.3877617486        3.5178013329
Ni               1.9038908157        0.7804286073        0.5082584869
H               -0.4452456726        5.3542812164        5.7634121265
H               -0.2880867201        2.0759495965        2.8146488266
H                0.6366494943        4.8792054216        3.0323668061
H                0.5992166927        1.5364819457        0.1924675775
H                5.0008590283        1.1646905262        2.2473065798
H                3.8210370435        1.8488130146        5.2820067368
H               -3.2250610308        4.9354165305        0.4424434525
H               -4.7255924127        5.7644774739        3.8096645218
H               -2.8460067096        6.1038979887        4.2714421537
H               -2.3512773064        3.2705134265        1.1061300800
H                3.0156025347        3.9679717303        4.7607365862
H                2.7029349162        0.9980453851        1.8107887498
H                0.5718036609        2.1883164696        4.9650967827
H                2.5924512055        3.6290502980        2.2863774274
H               -2.3318253634        3.3288161651        3.5910697675
H               -0.6641045270        4.8526879824        0.6723850467



     Writing config-only to output data dir ./outdir/mg2nih4_co.save/ :
     XML data file
     NEW-OLD atomic charge density approx. for the potential
     New effective cutoffs (rho, wfc):  534.20   66.83

     Check: negative core charge=   -0.000002

     total cpu time spent up to now is     9979.8 secs

     Self-consistent Calculation

     iteration #  1     ecut=    60.00 Ry     beta= 0.30
     Davidson diagonalization with overlap
     c_bands:  1 eigenvalues not converged
     c_bands:  1 eigenvalues not converged
     ethr =  1.00E-06,  avg # of iterations =  6.2

     total cpu time spent up to now is    10058.5 secs

     total energy              =   -1926.25851984 Ry
     estimated scf accuracy    <       0.00431696 Ry

     iteration #  2     ecut=    60.00 Ry     beta= 0.30
     Davidson diagonalization with overlap
     ethr =  3.63E-06,  avg # of iterations =  2.3

     total cpu time spent up to now is    10091.3 secs

     total energy              =   -1926.25768675 Ry
     estimated scf accuracy    <       0.01576668 Ry

     iteration #  3     ecut=    60.00 Ry     beta= 0.30
     Davidson diagonalization with overlap
     ethr =  3.63E-06,  avg # of iterations =  2.9

     total cpu time spent up to now is    10127.0 secs

     total energy              =   -1926.25853375 Ry
     estimated scf accuracy    <       0.00609380 Ry

     iteration #  4     ecut=    60.00 Ry     beta= 0.30
     Davidson diagonalization with overlap
     ethr =  3.63E-06,  avg # of iterations =  2.0

     total cpu time spent up to now is    10154.3 secs

     total energy              =   -1926.25869001 Ry
     estimated scf accuracy    <       0.00392619 Ry

     iteration #  5     ecut=    60.00 Ry     beta= 0.30
     Davidson diagonalization with overlap
     ethr =  3.30E-06,  avg # of iterations =  1.0

     total cpu time spent up to now is    10177.7 secs

     total energy              =   -1926.25891812 Ry
     estimated scf accuracy    <       0.00020047 Ry

     iteration #  6     ecut=    60.00 Ry     beta= 0.30
     Davidson diagonalization with overlap
     ethr =  1.68E-07,  avg # of iterations =  2.0

     total cpu time spent up to now is    10206.8 secs

     total energy              =   -1926.25894255 Ry
     estimated scf accuracy    <       0.00015662 Ry

     iteration #  7     ecut=    60.00 Ry     beta= 0.30
     Davidson diagonalization with overlap
     ethr =  1.32E-07,  avg # of iterations =  1.2

     total cpu time spent up to now is    10232.3 secs

     total energy              =   -1926.25895196 Ry
     estimated scf accuracy    <       0.00001605 Ry

     iteration #  8     ecut=    60.00 Ry     beta= 0.30
     Davidson diagonalization with overlap
     ethr =  1.35E-08,  avg # of iterations =  2.4

     total cpu time spent up to now is    10265.2 secs

     total energy              =   -1926.25895356 Ry
     estimated scf accuracy    <       0.00002201 Ry

     iteration #  9     ecut=    60.00 Ry     beta= 0.30
     Davidson diagonalization with overlap
     ethr =  1.35E-08,  avg # of iterations =  1.3

     total cpu time spent up to now is    10291.3 secs

     total energy              =   -1926.25895516 Ry
     estimated scf accuracy    <       0.00000234 Ry

     iteration # 10     ecut=    60.00 Ry     beta= 0.30
     Davidson diagonalization with overlap
     ethr =  1.97E-09,  avg # of iterations =  4.1

     total cpu time spent up to now is    10333.8 secs

     total energy              =   -1926.25895609 Ry
     estimated scf accuracy    <       0.00000076 Ry

     iteration # 11     ecut=    60.00 Ry     beta= 0.30
     Davidson diagonalization with overlap
     ethr =  6.42E-10,  avg # of iterations =  1.3

     total cpu time spent up to now is    10359.7 secs

     total energy              =   -1926.25895614 Ry
     estimated scf accuracy    <       0.00000024 Ry

     iteration # 12     ecut=    60.00 Ry     beta= 0.30
     Davidson diagonalization with overlap
     ethr =  2.02E-10,  avg # of iterations =  2.0

     total cpu time spent up to now is    10387.8 secs

     total energy              =   -1926.25895616 Ry
     estimated scf accuracy    <       0.00000005 Ry

     iteration # 13     ecut=    60.00 Ry     beta= 0.30
     Davidson diagonalization with overlap
     ethr =  4.45E-11,  avg # of iterations =  1.2

     total cpu time spent up to now is    10412.5 secs

     total energy              =   -1926.25895617 Ry
     estimated scf accuracy    <          1.7E-09 Ry

     iteration # 14     ecut=    60.00 Ry     beta= 0.30
     Davidson diagonalization with overlap
     ethr =  1.43E-12,  avg # of iterations =  2.8

     total cpu time spent up to now is    10448.7 secs

     End of self-consistent calculation

     Number of k-points >= 100: set verbosity='high' to print the bands.

     the Fermi energy is     6.7166 ev

!    total energy              =   -1926.25895617 Ry
     estimated scf accuracy    <          4.7E-10 Ry
     smearing contrib. (-TS)   =      -0.00099333 Ry
     internal energy E=F+TS    =   -1926.25796284 Ry

     The total energy is F=E-TS. E is the sum of the following terms:
     one-electron contribution =   -1702.88342662 Ry
     hartree contribution      =     885.68251354 Ry
     xc contribution           =    -198.25724231 Ry
     ewald contribution        =    -691.39267555 Ry
     DFT-D3 Dispersion         =      -0.36223126 Ry
     one-center paw contrib.   =    -219.04490065 Ry

     convergence has been achieved in  14 iterations

     Forces acting on atoms (cartesian axes, Ry/au):

     atom    1 type  1   force =    -0.00262650    0.00040978    0.00741788
     atom    2 type  2   force =    -0.00197530   -0.00126257   -0.00133978
     atom    3 type  2   force =     0.00175933    0.00410526    0.00072292
     atom    4 type  2   force =    -0.00100599   -0.00174644    0.00297640
     atom    5 type  2   force =     0.00210698    0.00030822   -0.00196472
     atom    6 type  2   force =    -0.00101804   -0.00060921    0.00001522
     atom    7 type  2   force =    -0.00382454   -0.00338848   -0.00196783
     atom    8 type  2   force =     0.00282787    0.00101453   -0.00267126
     atom    9 type  3   force =    -0.00161958   -0.00257576    0.00454393
     atom   10 type  3   force =    -0.00547037    0.00351885   -0.00682101
     atom   11 type  3   force =     0.00605044    0.00015803    0.00008854
     atom   12 type  3   force =    -0.00019610   -0.00005315    0.00037779
     atom   13 type  4   force =     0.00221003    0.00057284    0.00082688
     atom   14 type  4   force =    -0.00906907    0.00155217   -0.00286504
     atom   15 type  4   force =     0.00232955   -0.00340715    0.00261761
     atom   16 type  4   force =     0.00159487   -0.00067965   -0.00131504
     atom   17 type  4   force =     0.00318684    0.00087143    0.00095092
     atom   18 type  4   force =     0.00247664    0.00127785   -0.00130987
     atom   19 type  4   force =    -0.00427106    0.00640815    0.00056686
     atom   20 type  4   force =    -0.00032563   -0.00084756    0.01073080
     atom   21 type  4   force =    -0.00181691   -0.00104668    0.00558946
     atom   22 type  4   force =     0.00404154    0.00545110   -0.00254525
     atom   23 type  4   force =     0.00484465   -0.00172172   -0.00809754
     atom   24 type  4   force =     0.00098760   -0.00433290   -0.00095444
     atom   25 type  4   force =    -0.00186248    0.00391349    0.00294740
     atom   26 type  4   force =    -0.00094306   -0.00107261   -0.00243195
     atom   27 type  4   force =     0.00121646   -0.00390599   -0.00241944
     atom   28 type  4   force =     0.00039181   -0.00291183   -0.00366945

     Total force =     0.030324     Total SCF correction =     0.000062


     Computing stress (Cartesian axis) and pressure

          total   stress  (Ry/bohr**3)                   (kbar)     P=       -7.46
  -0.00006001   0.00000165  -0.00000433           -8.83        0.24       -0.64
   0.00000165  -0.00003379  -0.00001106            0.24       -4.97       -1.63
  -0.00000433  -0.00001106  -0.00005837           -0.64       -1.63       -8.59

     Energy error            =      2.2E-03 Ry
     Gradient error          =      1.1E-02 Ry/Bohr
     Cell gradient error     =      8.8E+00 kbar

     number of scf cycles    =  20
     number of bfgs steps    =  19

     enthalpy           old  =   -1926.2567342046 Ry
     enthalpy           new  =   -1926.2589561686 Ry

     CASE: enthalpy          _new < enthalpy          _old

     new trust radius        =       0.1047599724 bohr
     new conv_thr            =       0.0000000010 Ry

     new unit-cell volume =   1677.23939 a.u.^3 (   248.54123 Ang^3 )
     density =      3.20674 g/cm^3

CELL_PARAMETERS (angstrom)
   7.512722283   0.003605058   0.016358078
  -5.021414765   5.790646875   0.125055140
  -2.230250601   1.176033826   5.733528465

ATOMIC_POSITIONS (angstrom)
Co              -4.1286915176        5.3462192206        5.5019718899
Mg              -2.9263576091        4.9143164819        2.6278933760
Mg               3.3281302179        2.0717480919        3.2403128192
Mg               4.3488109990        1.5699045618        0.2869027021
Mg               0.9061238805        6.5554200138        4.5195685017
Mg              -0.5679823628        0.3192306739        1.4375681983
Mg              -0.5083304564        3.7978281321        4.3814725864
Mg               0.6112932729        3.2175203369        1.4655573119
Ni              -1.6592664594        6.1669301127        5.2704523815
Ni              -1.7405622412        2.5012465307        2.3974648451
Ni               2.0349942936        4.3907075870        3.5130909772
Ni               1.9035171420        0.7921700829        0.5064622040
H               -0.4418174471        5.3626853196        5.7813215675
H               -0.3045841276        2.0620917577        2.8301887949
H                0.6454202073        4.8911909249        3.0181393969
H                0.5915570405        1.5228095973        0.1775671618
H                5.0028620633        1.1780070293        2.2259106200
H                3.7968784043        1.8571338234        5.2669860281
H               -3.2068268139        4.9433066513        0.4531581561
H               -4.7260623495        5.7481503755        3.8717610310
H               -2.8696342443        6.1080869878        4.3018793879
H               -2.3524678385        3.2879364555        1.0988608748
H                3.0515666154        3.9582572011        4.7390377416
H                2.7017267966        0.9998845807        1.8052513701
H                0.5621274546        2.2206353754        4.9679271206
H                2.5843190995        3.6357785612        2.2861505375
H               -2.3239262844        3.3106311996        3.5921657119
H               -0.6580209032        4.8541729653        0.6841602802



     Writing config-only to output data dir ./outdir/mg2nih4_co.save/ :
     XML data file
     NEW-OLD atomic charge density approx. for the potential
     New effective cutoffs (rho, wfc):  533.85   66.73

     Check: negative core charge=   -0.000002

     total cpu time spent up to now is    10465.5 secs

     Self-consistent Calculation

     iteration #  1     ecut=    60.00 Ry     beta= 0.30
     Davidson diagonalization with overlap
     c_bands:  1 eigenvalues not converged
     c_bands:  1 eigenvalues not converged
     ethr =  1.00E-06,  avg # of iterations =  5.9

     total cpu time spent up to now is    10541.9 secs

     total energy              =   -1926.26099134 Ry
     estimated scf accuracy    <       0.00300900 Ry

     iteration #  2     ecut=    60.00 Ry     beta= 0.30
     Davidson diagonalization with overlap
     ethr =  2.53E-06,  avg # of iterations =  2.5

     total cpu time spent up to now is    10575.2 secs

     total energy              =   -1926.26081305 Ry
     estimated scf accuracy    <       0.00272913 Ry

     iteration #  3     ecut=    60.00 Ry     beta= 0.30
     Davidson diagonalization with overlap
     ethr =  2.29E-06,  avg # of iterations =  2.0

     total cpu time spent up to now is    10603.1 secs

     total energy              =   -1926.26092534 Ry
     estimated scf accuracy    <       0.00293944 Ry

     iteration #  4     ecut=    60.00 Ry     beta= 0.30
     Davidson diagonalization with overlap
     ethr =  2.29E-06,  avg # of iterations =  2.0

     total cpu time spent up to now is    10630.1 secs

     total energy              =   -1926.26093426 Ry
     estimated scf accuracy    <       0.00410456 Ry

     iteration #  5     ecut=    60.00 Ry     beta= 0.30
     Davidson diagonalization with overlap
     ethr =  2.29E-06,  avg # of iterations =  1.0

     total cpu time spent up to now is    10653.0 secs

     total energy              =   -1926.26113565 Ry
     estimated scf accuracy    <       0.00023159 Ry

     iteration #  6     ecut=    60.00 Ry     beta= 0.30
     Davidson diagonalization with overlap
     ethr =  1.95E-07,  avg # of iterations =  2.0

     total cpu time spent up to now is    10681.1 secs

     total energy              =   -1926.26115490 Ry
     estimated scf accuracy    <       0.00012103 Ry

     iteration #  7     ecut=    60.00 Ry     beta= 0.30
     Davidson diagonalization with overlap
     ethr =  1.02E-07,  avg # of iterations =  1.3

     total cpu time spent up to now is    10706.9 secs

     total energy              =   -1926.26116326 Ry
     estimated scf accuracy    <       0.00001531 Ry

     iteration #  8     ecut=    60.00 Ry     beta= 0.30
     Davidson diagonalization with overlap
     ethr =  1.29E-08,  avg # of iterations =  2.0

     total cpu time spent up to now is    10735.0 secs

     total energy              =   -1926.26116538 Ry
     estimated scf accuracy    <       0.00000886 Ry

     iteration #  9     ecut=    60.00 Ry     beta= 0.30
     Davidson diagonalization with overlap
     ethr =  7.44E-09,  avg # of iterations =  1.6

     total cpu time spent up to now is    10763.2 secs

     total energy              =   -1926.26116624 Ry
     estimated scf accuracy    <       0.00000091 Ry

     iteration # 10     ecut=    60.00 Ry     beta= 0.30
     Davidson diagonalization with overlap
     ethr =  7.63E-10,  avg # of iterations =  4.1

     total cpu time spent up to now is    10813.0 secs

     total energy              =   -1926.26116687 Ry
     estimated scf accuracy    <       0.00000049 Ry

     iteration # 11     ecut=    60.00 Ry     beta= 0.30
     Davidson diagonalization with overlap
     ethr =  4.14E-10,  avg # of iterations =  1.2

     total cpu time spent up to now is    10838.2 secs

     total energy              =   -1926.26116691 Ry
     estimated scf accuracy    <       0.00000014 Ry

     iteration # 12     ecut=    60.00 Ry     beta= 0.30
     Davidson diagonalization with overlap
     ethr =  1.14E-10,  avg # of iterations =  2.0

     total cpu time spent up to now is    10866.4 secs

     total energy              =   -1926.26116692 Ry
     estimated scf accuracy    <       0.00000001 Ry

     iteration # 13     ecut=    60.00 Ry     beta= 0.30
     Davidson diagonalization with overlap
     ethr =  1.05E-11,  avg # of iterations =  2.0

     total cpu time spent up to now is    10895.0 secs

     total energy              =   -1926.26116692 Ry
     estimated scf accuracy    <          1.3E-09 Ry

     iteration # 14     ecut=    60.00 Ry     beta= 0.30
     Davidson diagonalization with overlap
     ethr =  1.11E-12,  avg # of iterations =  1.9

     total cpu time spent up to now is    10923.4 secs

     End of self-consistent calculation

     Number of k-points >= 100: set verbosity='high' to print the bands.

     the Fermi energy is     6.7318 ev

!    total energy              =   -1926.26116692 Ry
     estimated scf accuracy    <          1.5E-10 Ry
     smearing contrib. (-TS)   =      -0.00090009 Ry
     internal energy E=F+TS    =   -1926.26026683 Ry

     The total energy is F=E-TS. E is the sum of the following terms:
     one-electron contribution =   -1702.14168700 Ry
     hartree contribution      =     885.34246020 Ry
     xc contribution           =    -198.26389341 Ry
     ewald contribution        =    -691.78945702 Ry
     DFT-D3 Dispersion         =      -0.36268388 Ry
     one-center paw contrib.   =    -219.04500572 Ry

     convergence has been achieved in  14 iterations

     Forces acting on atoms (cartesian axes, Ry/au):

     atom    1 type  1   force =    -0.00078865    0.00377629    0.00816832
     atom    2 type  2   force =    -0.00091889    0.00051706   -0.00091815
     atom    3 type  2   force =     0.00110903    0.00268930    0.00085277
     atom    4 type  2   force =     0.00178805   -0.00142579    0.00410542
     atom    5 type  2   force =     0.00083629    0.00040327   -0.00277623
     atom    6 type  2   force =    -0.00015204    0.00177447   -0.00224701
     atom    7 type  2   force =    -0.00241626   -0.00150166   -0.00312028
     atom    8 type  2   force =     0.00110303    0.00012532   -0.00218901
     atom    9 type  3   force =    -0.00531128   -0.00402676    0.01003653
     atom   10 type  3   force =    -0.00331317    0.00482803   -0.00749457
     atom   11 type  3   force =     0.00601753   -0.00229249    0.00396542
     atom   12 type  3   force =    -0.00168465   -0.00177373    0.00190604
     atom   13 type  4   force =     0.00232699    0.00080681    0.00013737
     atom   14 type  4   force =    -0.00572153    0.00215905   -0.00406898
     atom   15 type  4   force =     0.00056119   -0.00350486    0.00311504
     atom   16 type  4   force =     0.00034512    0.00000676   -0.00118771
     atom   17 type  4   force =     0.00078500   -0.00170369   -0.00024832
     atom   18 type  4   force =     0.00307967    0.00087072   -0.00126488
     atom   19 type  4   force =    -0.00272262    0.00593397   -0.00035426
     atom   20 type  4   force =     0.00033937    0.00168272    0.00957087
     atom   21 type  4   force =    -0.00252782   -0.00141759    0.00358853
     atom   22 type  4   force =     0.00309074    0.00175636    0.00095408
     atom   23 type  4   force =     0.00351066   -0.00007525   -0.00837343
     atom   24 type  4   force =     0.00158655   -0.00452294    0.00040056
     atom   25 type  4   force =    -0.00191901    0.00306547    0.00225911
     atom   26 type  4   force =     0.00017326   -0.00190705   -0.00482375
     atom   27 type  4   force =    -0.00076727   -0.00227367   -0.00199843
     atom   28 type  4   force =     0.00159071   -0.00397012   -0.00799503

     Total force =     0.031177     Total SCF correction =     0.000043


     Computing stress (Cartesian axis) and pressure

          total   stress  (Ry/bohr**3)                   (kbar)     P=       -6.76
  -0.00004688  -0.00000378   0.00000594           -6.90       -0.56        0.87
  -0.00000378  -0.00002956  -0.00000735           -0.56       -4.35       -1.08
   0.00000594  -0.00000735  -0.00006141            0.87       -1.08       -9.03

     Energy error            =      2.2E-03 Ry
     Gradient error          =      1.0E-02 Ry/Bohr
     Cell gradient error     =      9.0E+00 kbar

     number of scf cycles    =  21
     number of bfgs steps    =  20

     enthalpy           old  =   -1926.2589561686 Ry
     enthalpy           new  =   -1926.2611669216 Ry

     CASE: enthalpy          _new < enthalpy          _old

     new trust radius        =       0.0874494231 bohr
     new conv_thr            =       0.0000000010 Ry

     new unit-cell volume =   1668.94638 a.u.^3 (   247.31234 Ang^3 )
     density =      3.22267 g/cm^3

CELL_PARAMETERS (angstrom)
   7.493823846   0.008892058   0.008852295
  -5.004879352   5.783328339   0.126100947
  -2.229628977   1.169425374   5.724668742

ATOMIC_POSITIONS (angstrom)
Co              -4.1195356251        5.3289695563        5.4967266832
Mg              -2.9211323627        4.9040670800        2.6249205379
Mg               3.3257859087        2.0767795688        3.2254072180
Mg               4.3340505872        1.5799362329        0.2754725549
Mg               0.9100548961        6.5495017876        4.5072749163
Mg              -0.5754052105        0.3079905042        1.4365866965
Mg              -0.5210356511        3.7914846906        4.3685324378
Mg               0.6143746520        3.2081681227        1.4547619756
Ni              -1.6505682545        6.1547361865        5.2511686885
Ni              -1.7429783568        2.5024209302        2.3773069691
Ni               2.0355704433        4.3853247295        3.5008485924
Ni               1.8994294685        0.7995859024        0.5055346608
H               -0.4347749139        5.3578513476        5.7792284825
H               -0.3228900634        2.0505667608        2.8302024437
H                0.6501756392        4.8877407772        3.0032235131
H                0.5860128861        1.5133234539        0.1649746811
H                4.9981888760        1.1805681748        2.2097167807
H                3.7794669071        1.8574260947        5.2460177841
H               -3.1991489095        4.9500298223        0.4561010027
H               -4.7186050187        5.7318932142        3.9113427359
H               -2.8832013622        6.1004956356        4.3137398790
H               -2.3465326843        3.3037384848        1.0842028488
H                3.0751548782        3.9396671897        4.7076633407
H                2.6994309697        0.9928556341        1.7996784495
H                0.5545802063        2.2389840866        4.9608263926
H                2.5740349713        3.6320131298        2.2741463616
H               -2.3154551492        3.2899972138        3.5835443644
H               -0.6546304918        4.8469244746        0.6855567763



     Writing config-only to output data dir ./outdir/mg2nih4_co.save/ :
     XML data file
     NEW-OLD atomic charge density approx. for the potential
     New effective cutoffs (rho, wfc):  534.50   66.83

     Check: negative core charge=   -0.000002

     total cpu time spent up to now is    10940.7 secs

     Self-consistent Calculation

     iteration #  1     ecut=    60.00 Ry     beta= 0.30
     Davidson diagonalization with overlap
     ethr =  1.00E-06,  avg # of iterations =  5.3

     total cpu time spent up to now is    11012.2 secs

     total energy              =   -1926.26222486 Ry
     estimated scf accuracy    <       0.00409902 Ry

     iteration #  2     ecut=    60.00 Ry     beta= 0.30
     Davidson diagonalization with overlap
     ethr =  3.44E-06,  avg # of iterations =  3.2

     total cpu time spent up to now is    11051.3 secs

     total energy              =   -1926.26102722 Ry
     estimated scf accuracy    <       0.03244907 Ry

     iteration #  3     ecut=    60.00 Ry     beta= 0.30
     Davidson diagonalization with overlap
     ethr =  3.44E-06,  avg # of iterations =  3.0

     total cpu time spent up to now is    11083.4 secs

     total energy              =   -1926.26280935 Ry
     estimated scf accuracy    <       0.00409318 Ry

     iteration #  4     ecut=    60.00 Ry     beta= 0.30
     Davidson diagonalization with overlap
     ethr =  3.44E-06,  avg # of iterations =  1.3

     total cpu time spent up to now is    11110.2 secs

     total energy              =   -1926.26303727 Ry
     estimated scf accuracy    <       0.00099374 Ry

     iteration #  5     ecut=    60.00 Ry     beta= 0.30
     Davidson diagonalization with overlap
     ethr =  8.35E-07,  avg # of iterations =  1.8

     total cpu time spent up to now is    11138.7 secs

     total energy              =   -1926.26309236 Ry
     estimated scf accuracy    <       0.00026896 Ry

     iteration #  6     ecut=    60.00 Ry     beta= 0.30
     Davidson diagonalization with overlap
     ethr =  2.26E-07,  avg # of iterations =  2.0

     total cpu time spent up to now is    11165.6 secs

     total energy              =   -1926.26311681 Ry
     estimated scf accuracy    <       0.00007797 Ry

     iteration #  7     ecut=    60.00 Ry     beta= 0.30
     Davidson diagonalization with overlap
     ethr =  6.55E-08,  avg # of iterations =  1.0

     total cpu time spent up to now is    11188.2 secs

     total energy              =   -1926.26312186 Ry
     estimated scf accuracy    <       0.00000499 Ry

     iteration #  8     ecut=    60.00 Ry     beta= 0.30
     Davidson diagonalization with overlap
     ethr =  4.19E-09,  avg # of iterations =  4.2

     total cpu time spent up to now is    11230.7 secs

     total energy              =   -1926.26312319 Ry
     estimated scf accuracy    <       0.00000269 Ry

     iteration #  9     ecut=    60.00 Ry     beta= 0.30
     Davidson diagonalization with overlap
     ethr =  2.26E-09,  avg # of iterations =  1.2

     total cpu time spent up to now is    11256.0 secs

     total energy              =   -1926.26312338 Ry
     estimated scf accuracy    <       0.00000086 Ry

     iteration # 10     ecut=    60.00 Ry     beta= 0.30
     Davidson diagonalization with overlap
     ethr =  7.26E-10,  avg # of iterations =  2.1

     total cpu time spent up to now is    11285.2 secs

     total energy              =   -1926.26312346 Ry
     estimated scf accuracy    <       0.00000014 Ry

     iteration # 11     ecut=    60.00 Ry     beta= 0.30
     Davidson diagonalization with overlap
     ethr =  1.19E-10,  avg # of iterations =  2.4

     total cpu time spent up to now is    11316.8 secs

     total energy              =   -1926.26312347 Ry
     estimated scf accuracy    <       0.00000020 Ry

     iteration # 12     ecut=    60.00 Ry     beta= 0.30
     Davidson diagonalization with overlap
     ethr =  1.19E-10,  avg # of iterations =  1.1

     total cpu time spent up to now is    11341.2 secs

     total energy              =   -1926.26312348 Ry
     estimated scf accuracy    <       0.00000001 Ry

     iteration # 13     ecut=    60.00 Ry     beta= 0.30
     Davidson diagonalization with overlap
     ethr =  8.62E-12,  avg # of iterations =  2.6

     total cpu time spent up to now is    11374.4 secs

     total energy              =   -1926.26312349 Ry
     estimated scf accuracy    <          2.5E-09 Ry

     iteration # 14     ecut=    60.00 Ry     beta= 0.30
     Davidson diagonalization with overlap
     ethr =  2.06E-12,  avg # of iterations =  1.7

     total cpu time spent up to now is    11402.5 secs

     End of self-consistent calculation

     Number of k-points >= 100: set verbosity='high' to print the bands.

     the Fermi energy is     6.7853 ev

!    total energy              =   -1926.26312349 Ry
     estimated scf accuracy    <          1.5E-10 Ry
     smearing contrib. (-TS)   =      -0.00081475 Ry
     internal energy E=F+TS    =   -1926.26230874 Ry

     The total energy is F=E-TS. E is the sum of the following terms:
     one-electron contribution =   -1700.36669245 Ry
     hartree contribution      =     884.63640441 Ry
     xc contribution           =    -198.30169610 Ry
     ewald contribution        =    -692.81746455 Ry
     DFT-D3 Dispersion         =      -0.36440871 Ry
     one-center paw contrib.   =    -219.04845133 Ry

     convergence has been achieved in  14 iterations

     Forces acting on atoms (cartesian axes, Ry/au):

     atom    1 type  1   force =     0.00139935    0.00564610    0.00502739
     atom    2 type  2   force =     0.00017908    0.00212044   -0.00034837
     atom    3 type  2   force =     0.00006251    0.00060472    0.00096917
     atom    4 type  2   force =     0.00413771   -0.00067100    0.00405113
     atom    5 type  2   force =    -0.00100242    0.00066964   -0.00345736
     atom    6 type  2   force =     0.00069712    0.00345038   -0.00385599
     atom    7 type  2   force =    -0.00069637    0.00068525   -0.00365434
     atom    8 type  2   force =    -0.00041021   -0.00101732   -0.00126680
     atom    9 type  3   force =    -0.00631815   -0.00360364    0.01175853
     atom   10 type  3   force =    -0.00047081    0.00447900   -0.00650274
     atom   11 type  3   force =     0.00457797   -0.00399897    0.00599623
     atom   12 type  3   force =    -0.00276997   -0.00220557    0.00304190
     atom   13 type  4   force =     0.00210638    0.00116074   -0.00056923
     atom   14 type  4   force =    -0.00188416    0.00222402   -0.00438166
     atom   15 type  4   force =    -0.00052373   -0.00311327    0.00324654
     atom   16 type  4   force =    -0.00112753    0.00064680   -0.00124325
     atom   17 type  4   force =    -0.00124228   -0.00346665   -0.00124240
     atom   18 type  4   force =     0.00299943   -0.00064294   -0.00124392
     atom   19 type  4   force =    -0.00127210    0.00420777   -0.00081672
     atom   20 type  4   force =     0.00024589    0.00339113    0.00719813
     atom   21 type  4   force =    -0.00284420   -0.00143956    0.00210750
     atom   22 type  4   force =     0.00031015   -0.00245196    0.00520831
     atom   23 type  4   force =     0.00275394    0.00194269   -0.00682532
     atom   24 type  4   force =     0.00228575   -0.00426405    0.00190063
     atom   25 type  4   force =    -0.00171014    0.00215802    0.00122565
     atom   26 type  4   force =     0.00092798   -0.00198602   -0.00616877
     atom   27 type  4   force =    -0.00289016   -0.00063316   -0.00129159
     atom   28 type  4   force =     0.00247897   -0.00389261   -0.00886263

     Total force =     0.031101     Total SCF correction =     0.000048


     Computing stress (Cartesian axis) and pressure

          total   stress  (Ry/bohr**3)                   (kbar)     P=       -2.54
  -0.00000809  -0.00000728   0.00001386           -1.19       -1.07        2.04
  -0.00000728  -0.00001009  -0.00000421           -1.07       -1.48       -0.62
   0.00001386  -0.00000421  -0.00003356            2.04       -0.62       -4.94

     Energy error            =      2.0E-03 Ry
     Gradient error          =      1.2E-02 Ry/Bohr
     Cell gradient error     =      4.9E+00 kbar

     number of scf cycles    =  22
     number of bfgs steps    =  21

     enthalpy           old  =   -1926.2611669216 Ry
     enthalpy           new  =   -1926.2631234866 Ry

     CASE: enthalpy          _new < enthalpy          _old

     new trust radius        =       0.0583090797 bohr
     new conv_thr            =       0.0000000010 Ry

     new unit-cell volume =   1659.94475 a.u.^3 (   245.97843 Ang^3 )
     density =      3.24015 g/cm^3

CELL_PARAMETERS (angstrom)
   7.478770205   0.009673678   0.008037514
  -4.994260637   5.776844602   0.121624536
  -2.225644349   1.162660757   5.710300260

ATOMIC_POSITIONS (angstrom)
Co              -4.1103949948        5.3190911106        5.4865674677
Mg              -2.9174288042        4.8952842101        2.6148309391
Mg               3.3232653838        2.0773083696        3.2149082991
Mg               4.3249155903        1.5815259528        0.2740466834
Mg               0.9113910426        6.5393572583        4.4886943944
Mg              -0.5780561857        0.3034602386        1.4314671243
Mg              -0.5281661610        3.7817818569        4.3505394303
Mg               0.6166574329        3.1999847424        1.4442433630
Ni              -1.6471595396        6.1397134229        5.2371893803
Ni              -1.7448895735        2.5044130576        2.3553434741
Ni               2.0394666888        4.3749892055        3.4911269589
Ni               1.8941355563        0.8014031014        0.5067973073
H               -0.4271370857        5.3490243473        5.7661554725
H               -0.3357116839        2.0440631457        2.8207500200
H                0.6522614810        4.8770260155        2.9927202031
H                0.5823149950        1.5082083194        0.1569093683
H                4.9929116964        1.1756700390        2.2001380916
H                3.7728267098        1.8526446606        5.2271273639
H               -3.1992950067        4.9557183439        0.4536888554
H               -4.7109973274        5.7217438281        3.9285667769
H               -2.8893783051        6.0893554520        4.3120445967
H               -2.3412171864        3.3111602594        1.0737467904
H                3.0885469876        3.9228421055        4.6776332134
H                2.6992704068        0.9821325674        1.7963253841
H                0.5506732354        2.2467736663        4.9505189530
H                2.5671358846        3.6234038228        2.2584645696
H               -2.3105828973        3.2742828758        3.5706924256
H               -0.6512452670        4.8361445458        0.6782354390



     Writing config-only to output data dir ./outdir/mg2nih4_co.save/ :
     XML data file
     NEW-OLD atomic charge density approx. for the potential
     New effective cutoffs (rho, wfc):  535.91   67.02

     Check: negative core charge=   -0.000002

     total cpu time spent up to now is    11419.2 secs

     Self-consistent Calculation

     iteration #  1     ecut=    60.00 Ry     beta= 0.30
     Davidson diagonalization with overlap
     ethr =  1.00E-06,  avg # of iterations =  4.4

     total cpu time spent up to now is    11479.3 secs

     total energy              =   -1926.26271046 Ry
     estimated scf accuracy    <       0.00596728 Ry

     iteration #  2     ecut=    60.00 Ry     beta= 0.30
     Davidson diagonalization with overlap
     ethr =  5.01E-06,  avg # of iterations =  3.1

     total cpu time spent up to now is    11516.8 secs

     total energy              =   -1926.25966663 Ry
     estimated scf accuracy    <       0.09760217 Ry

     iteration #  3     ecut=    60.00 Ry     beta= 0.30
     Davidson diagonalization with overlap
     ethr =  5.01E-06,  avg # of iterations =  3.0

     total cpu time spent up to now is    11549.6 secs

     total energy              =   -1926.26441528 Ry
     estimated scf accuracy    <       0.00187244 Ry

     iteration #  4     ecut=    60.00 Ry     beta= 0.30
     Davidson diagonalization with overlap
     ethr =  1.57E-06,  avg # of iterations =  2.0

     total cpu time spent up to now is    11577.7 secs

     total energy              =   -1926.26456229 Ry
     estimated scf accuracy    <       0.00083923 Ry

     iteration #  5     ecut=    60.00 Ry     beta= 0.30
     Davidson diagonalization with overlap
     ethr =  7.05E-07,  avg # of iterations =  1.1

     total cpu time spent up to now is    11601.3 secs

     total energy              =   -1926.26461383 Ry
     estimated scf accuracy    <       0.00015293 Ry

     iteration #  6     ecut=    60.00 Ry     beta= 0.30
     Davidson diagonalization with overlap
     ethr =  1.29E-07,  avg # of iterations =  2.0

     total cpu time spent up to now is    11629.1 secs

     total energy              =   -1926.26462746 Ry
     estimated scf accuracy    <       0.00005418 Ry

     iteration #  7     ecut=    60.00 Ry     beta= 0.30
     Davidson diagonalization with overlap
     ethr =  4.55E-08,  avg # of iterations =  1.0

     total cpu time spent up to now is    11651.9 secs

     total energy              =   -1926.26463028 Ry
     estimated scf accuracy    <       0.00000915 Ry

     iteration #  8     ecut=    60.00 Ry     beta= 0.30
     Davidson diagonalization with overlap
     ethr =  7.69E-09,  avg # of iterations =  2.0

     total cpu time spent up to now is    11680.4 secs

     total energy              =   -1926.26463120 Ry
     estimated scf accuracy    <       0.00000580 Ry

     iteration #  9     ecut=    60.00 Ry     beta= 0.30
     Davidson diagonalization with overlap
     ethr =  4.87E-09,  avg # of iterations =  1.3

     total cpu time spent up to now is    11707.4 secs

     total energy              =   -1926.26463171 Ry
     estimated scf accuracy    <       0.00000039 Ry

     iteration # 10     ecut=    60.00 Ry     beta= 0.30
     Davidson diagonalization with overlap
     ethr =  3.25E-10,  avg # of iterations =  4.2

     total cpu time spent up to now is    11761.1 secs

     total energy              =   -1926.26463209 Ry
     estimated scf accuracy    <       0.00000008 Ry

     iteration # 11     ecut=    60.00 Ry     beta= 0.30
     Davidson diagonalization with overlap
     ethr =  7.10E-11,  avg # of iterations =  2.0

     total cpu time spent up to now is    11788.8 secs

     total energy              =   -1926.26463210 Ry
     estimated scf accuracy    <       0.00000006 Ry

     iteration # 12     ecut=    60.00 Ry     beta= 0.30
     Davidson diagonalization with overlap
     ethr =  5.25E-11,  avg # of iterations =  1.1

     total cpu time spent up to now is    11812.7 secs

     total energy              =   -1926.26463210 Ry
     estimated scf accuracy    <       0.00000001 Ry

     iteration # 13     ecut=    60.00 Ry     beta= 0.30
     Davidson diagonalization with overlap
     ethr =  1.01E-11,  avg # of iterations =  2.0

     total cpu time spent up to now is    11840.4 secs

     End of self-consistent calculation

     Number of k-points >= 100: set verbosity='high' to print the bands.

     the Fermi energy is     6.8474 ev

!    total energy              =   -1926.26463211 Ry
     estimated scf accuracy    <          8.6E-10 Ry
     smearing contrib. (-TS)   =      -0.00076162 Ry
     internal energy E=F+TS    =   -1926.26387049 Ry

     The total energy is F=E-TS. E is the sum of the following terms:
     one-electron contribution =   -1698.98317313 Ry
     hartree contribution      =     884.15300167 Ry
     xc contribution           =    -198.34381244 Ry
     ewald contribution        =    -693.67110115 Ry
     DFT-D3 Dispersion         =      -0.36628688 Ry
     one-center paw contrib.   =    -219.05249856 Ry

     convergence has been achieved in  13 iterations

     Forces acting on atoms (cartesian axes, Ry/au):

     atom    1 type  1   force =     0.00183623    0.00494832    0.00084513
     atom    2 type  2   force =     0.00077551    0.00275953    0.00015170
     atom    3 type  2   force =    -0.00093321   -0.00115580    0.00108960
     atom    4 type  2   force =     0.00460854   -0.00017102    0.00277945
     atom    5 type  2   force =    -0.00236567    0.00086855   -0.00363357
     atom    6 type  2   force =     0.00128882    0.00361164   -0.00400854
     atom    7 type  2   force =     0.00053947    0.00205339   -0.00338222
     atom    8 type  2   force =    -0.00094246   -0.00173691   -0.00034790
     atom    9 type  3   force =    -0.00432994   -0.00187007    0.00914016
     atom   10 type  3   force =     0.00141732    0.00214083   -0.00407724
     atom   11 type  3   force =     0.00215558   -0.00410721    0.00489302
     atom   12 type  3   force =    -0.00304675   -0.00075174    0.00330624
     atom   13 type  4   force =     0.00170686    0.00137412   -0.00097855
     atom   14 type  4   force =     0.00073103    0.00197393   -0.00405233
     atom   15 type  4   force =    -0.00022003   -0.00279749    0.00336791
     atom   16 type  4   force =    -0.00186747    0.00097760   -0.00133284
     atom   17 type  4   force =    -0.00187048   -0.00347065   -0.00136131
     atom   18 type  4   force =     0.00262782   -0.00212196   -0.00120587
     atom   19 type  4   force =    -0.00037522    0.00176631   -0.00094223
     atom   20 type  4   force =    -0.00026179    0.00391838    0.00490140
     atom   21 type  4   force =    -0.00274180   -0.00127358    0.00165333
     atom   22 type  4   force =    -0.00249327   -0.00439023    0.00704906
     atom   23 type  4   force =     0.00286436    0.00346921   -0.00431648
     atom   24 type  4   force =     0.00272095   -0.00379268    0.00282375
     atom   25 type  4   force =    -0.00116326    0.00160577    0.00040049
     atom   26 type  4   force =     0.00097586   -0.00129761   -0.00577480
     atom   27 type  4   force =    -0.00423304    0.00041339   -0.00058083
     atom   28 type  4   force =     0.00259604   -0.00294402   -0.00640655

     Total force =     0.027042     Total SCF correction =     0.000078


     Computing stress (Cartesian axis) and pressure

          total   stress  (Ry/bohr**3)                   (kbar)     P=        2.09
   0.00002926  -0.00000818   0.00001614            4.30       -1.20        2.37
  -0.00000818   0.00000969  -0.00000246           -1.20        1.43       -0.36
   0.00001614  -0.00000246   0.00000364            2.37       -0.36        0.54

     Energy error            =      1.5E-03 Ry
     Gradient error          =      9.1E-03 Ry/Bohr
     Cell gradient error     =      4.3E+00 kbar

     number of scf cycles    =  23
     number of bfgs steps    =  22

     enthalpy           old  =   -1926.2631234866 Ry
     enthalpy           new  =   -1926.2646321056 Ry

     CASE: enthalpy          _new < enthalpy          _old

     new trust radius        =       0.0544966126 bohr
     new conv_thr            =       0.0000000009 Ry

     new unit-cell volume =   1653.51891 a.u.^3 (   245.02622 Ang^3 )
     density =      3.25274 g/cm^3

CELL_PARAMETERS (angstrom)
   7.472373481   0.008695721   0.011366972
  -4.990750254   5.772861998   0.115946593
  -2.221338274   1.158295527   5.695919219

ATOMIC_POSITIONS (angstrom)
Co              -4.1024814590        5.3173805397        5.4740014381
Mg              -2.9158677512        4.8918345733        2.6055207081
Mg               3.3249433486        2.0760175507        3.2078196816
Mg               4.3246142001        1.5823666824        0.2770561874
Mg               0.9115936895        6.5325087893        4.4711035071
Mg              -0.5790606867        0.3029294546        1.4233338597
Mg              -0.5323213263        3.7772055876        4.3322843729
Mg               0.6179443479        3.1915345727        1.4359971133
Ni              -1.6485185925        6.1273175683        5.2320403581
Ni              -1.7457073318        2.5077580806        2.3341954049
Ni               2.0464654201        4.3629478459        3.4879340934
Ni               1.8890723665        0.8013526113        0.5108886742
H               -0.4191821244        5.3444322117        5.7535367219
H               -0.3445278573        2.0404453466        2.8097146605
H                0.6556077488        4.8669275540        2.9863334136
H                0.5782136886        1.5038477463        0.1498861261
H                4.9922181964        1.1690776980        2.1926613501
H                3.7736485858        1.8462169643        5.2115163207
H               -3.2011346458        4.9632578650        0.4497329729
H               -4.7085730281        5.7175069749        3.9431170392
H               -2.8975608857        6.0809793683        4.3099622041
H               -2.3414340402        3.3127400224        1.0713654958
H                3.1052941380        3.9121960436        4.6498099722
H                2.7034872763        0.9703662892        1.7956485856
H                0.5486652132        2.2554917972        4.9426438362
H                2.5645430782        3.6154307040        2.2436059674
H               -2.3100949060        3.2624306390        3.5571916822
H               -0.6458573185        4.8254443667        0.6663572210



     Writing config-only to output data dir ./outdir/mg2nih4_co.save/ :
     XML data file
     NEW-OLD atomic charge density approx. for the potential
     New effective cutoffs (rho, wfc):  537.62   67.23

     Check: negative core charge=   -0.000002

     total cpu time spent up to now is    11857.3 secs

     Self-consistent Calculation

     iteration #  1     ecut=    60.00 Ry     beta= 0.30
     Davidson diagonalization with overlap
     ethr =  1.00E-06,  avg # of iterations =  4.4

     total cpu time spent up to now is    11917.7 secs

     total energy              =   -1926.26335179 Ry
     estimated scf accuracy    <       0.00801637 Ry

     iteration #  2     ecut=    60.00 Ry     beta= 0.30
     Davidson diagonalization with overlap
     ethr =  6.74E-06,  avg # of iterations =  3.1

     total cpu time spent up to now is    11954.7 secs

     total energy              =   -1926.25870997 Ry
     estimated scf accuracy    <       0.15036147 Ry

     iteration #  3     ecut=    60.00 Ry     beta= 0.30
     Davidson diagonalization with overlap
     ethr =  6.74E-06,  avg # of iterations =  3.0

     total cpu time spent up to now is    11987.4 secs

     total energy              =   -1926.26587959 Ry
     estimated scf accuracy    <       0.00103531 Ry

     iteration #  4     ecut=    60.00 Ry     beta= 0.30
     Davidson diagonalization with overlap
     ethr =  8.70E-07,  avg # of iterations =  2.1

     total cpu time spent up to now is    12016.5 secs

     total energy              =   -1926.26590347 Ry
     estimated scf accuracy    <       0.00109297 Ry

     iteration #  5     ecut=    60.00 Ry     beta= 0.30
     Davidson diagonalization with overlap
     ethr =  8.70E-07,  avg # of iterations =  1.3

     total cpu time spent up to now is    12042.4 secs

     total energy              =   -1926.26597455 Ry
     estimated scf accuracy    <       0.00009854 Ry

     iteration #  6     ecut=    60.00 Ry     beta= 0.30
     Davidson diagonalization with overlap
     ethr =  8.28E-08,  avg # of iterations =  2.0

     total cpu time spent up to now is    12071.1 secs

     total energy              =   -1926.26598253 Ry
     estimated scf accuracy    <       0.00009748 Ry

     iteration #  7     ecut=    60.00 Ry     beta= 0.30
     Davidson diagonalization with overlap
     ethr =  8.19E-08,  avg # of iterations =  1.0

     total cpu time spent up to now is    12093.9 secs

     total energy              =   -1926.26598835 Ry
     estimated scf accuracy    <       0.00001262 Ry

     iteration #  8     ecut=    60.00 Ry     beta= 0.30
     Davidson diagonalization with overlap
     ethr =  1.06E-08,  avg # of iterations =  2.0

     total cpu time spent up to now is    12122.4 secs

     total energy              =   -1926.26598951 Ry
     estimated scf accuracy    <       0.00000716 Ry

     iteration #  9     ecut=    60.00 Ry     beta= 0.30
     Davidson diagonalization with overlap
     ethr =  6.01E-09,  avg # of iterations =  1.0

     total cpu time spent up to now is    12145.2 secs

     total energy              =   -1926.26599012 Ry
     estimated scf accuracy    <       0.00000069 Ry

     iteration # 10     ecut=    60.00 Ry     beta= 0.30
     Davidson diagonalization with overlap
     ethr =  5.81E-10,  avg # of iterations =  4.0

     total cpu time spent up to now is    12192.5 secs

     total energy              =   -1926.26599057 Ry
     estimated scf accuracy    <       0.00000050 Ry

     iteration # 11     ecut=    60.00 Ry     beta= 0.30
     Davidson diagonalization with overlap
     ethr =  4.24E-10,  avg # of iterations =  1.1

     total cpu time spent up to now is    12215.9 secs

     total energy              =   -1926.26599060 Ry
     estimated scf accuracy    <       0.00000006 Ry

     iteration # 12     ecut=    60.00 Ry     beta= 0.30
     Davidson diagonalization with overlap
     ethr =  5.33E-11,  avg # of iterations =  2.0

     total cpu time spent up to now is    12244.3 secs

     total energy              =   -1926.26599061 Ry
     estimated scf accuracy    <       0.00000002 Ry

     iteration # 13     ecut=    60.00 Ry     beta= 0.30
     Davidson diagonalization with overlap
     ethr =  1.33E-11,  avg # of iterations =  1.1

     total cpu time spent up to now is    12267.7 secs

     End of self-consistent calculation

     Number of k-points >= 100: set verbosity='high' to print the bands.

     the Fermi energy is     6.8994 ev

!    total energy              =   -1926.26599061 Ry
     estimated scf accuracy    <          8.8E-10 Ry
     smearing contrib. (-TS)   =      -0.00071613 Ry
     internal energy E=F+TS    =   -1926.26527448 Ry

     The total energy is F=E-TS. E is the sum of the following terms:
     one-electron contribution =   -1698.68362549 Ry
     hartree contribution      =     884.15765375 Ry
     xc contribution           =    -198.37440398 Ry
     ewald contribution        =    -693.94201726 Ry
     DFT-D3 Dispersion         =      -0.36763396 Ry
     one-center paw contrib.   =    -219.05524754 Ry

     convergence has been achieved in  13 iterations

     Forces acting on atoms (cartesian axes, Ry/au):

     atom    1 type  1   force =     0.00029710    0.00196102   -0.00160372
     atom    2 type  2   force =     0.00083659    0.00243275    0.00061106
     atom    3 type  2   force =    -0.00178104   -0.00238023    0.00115387
     atom    4 type  2   force =     0.00343998   -0.00008319    0.00063114
     atom    5 type  2   force =    -0.00299325    0.00089280   -0.00317589
     atom    6 type  2   force =     0.00166123    0.00256664   -0.00304969
     atom    7 type  2   force =     0.00119432    0.00248911   -0.00251104
     atom    8 type  2   force =    -0.00055075   -0.00185945    0.00043768
     atom    9 type  3   force =    -0.00020507    0.00036400    0.00317758
     atom   10 type  3   force =     0.00235635   -0.00147933   -0.00012667
     atom   11 type  3   force =    -0.00060726   -0.00269814    0.00139753
     atom   12 type  3   force =    -0.00261832    0.00211933    0.00275339
     atom   13 type  4   force =     0.00104070    0.00145243   -0.00126953
     atom   14 type  4   force =     0.00216641    0.00167610   -0.00351160
     atom   15 type  4   force =     0.00108875   -0.00272457    0.00368164
     atom   16 type  4   force =    -0.00162545    0.00099284   -0.00129864
     atom   17 type  4   force =    -0.00154344   -0.00234362   -0.00076296
     atom   18 type  4   force =     0.00223655   -0.00300206   -0.00114094
     atom   19 type  4   force =     0.00005882   -0.00094334   -0.00101839
     atom   20 type  4   force =    -0.00117811    0.00368246    0.00242787
     atom   21 type  4   force =    -0.00210556   -0.00110410    0.00200201
     atom   22 type  4   force =    -0.00456065   -0.00339305    0.00519559
     atom   23 type  4   force =     0.00343501    0.00427062   -0.00132177
     atom   24 type  4   force =     0.00278667   -0.00324770    0.00299512
     atom   25 type  4   force =    -0.00035323    0.00134593    0.00002592
     atom   26 type  4   force =     0.00051260   -0.00020567   -0.00398057
     atom   27 type  4   force =    -0.00473944    0.00096901   -0.00001430
     atom   28 type  4   force =     0.00175049   -0.00175059   -0.00170469

     Total force =     0.020397     Total SCF correction =     0.000113


     Computing stress (Cartesian axis) and pressure

          total   stress  (Ry/bohr**3)                   (kbar)     P=        5.45
   0.00005326  -0.00000807   0.00001335            7.83       -1.19        1.96
  -0.00000807   0.00002196  -0.00000137           -1.19        3.23       -0.20
   0.00001335  -0.00000137   0.00003589            1.96       -0.20        5.28

     Energy error            =      1.4E-03 Ry
     Gradient error          =      5.2E-03 Ry/Bohr
     Cell gradient error     =      7.8E+00 kbar

     number of scf cycles    =  24
     number of bfgs steps    =  23

     enthalpy           old  =   -1926.2646321056 Ry
     enthalpy           new  =   -1926.2659906118 Ry

     CASE: enthalpy          _new < enthalpy          _old

     new trust radius        =       0.0357294449 bohr
     new conv_thr            =       0.0000000005 Ry

     new unit-cell volume =   1654.71865 a.u.^3 (   245.20401 Ang^3 )
     density =      3.25038 g/cm^3

CELL_PARAMETERS (angstrom)
   7.480158285   0.006142663   0.017019403
  -4.997888029   5.775297502   0.110364938
  -2.219696206   1.157197843   5.691332555

ATOMIC_POSITIONS (angstrom)
Co              -4.1036544924        5.3223303184        5.4693423182
Mg              -2.9189176478        4.8957400348        2.6014933585
Mg               3.3309266967        2.0742836130        3.2089675806
Mg               4.3339793067        1.5820787651        0.2824856231
Mg               0.9112153358        6.5333617711        4.4622693996
Mg              -0.5785416038        0.3053468797        1.4171097463
Mg              -0.5335077029        3.7787543011        4.3230787510
Mg               0.6190918927        3.1872950692        1.4328594739
Ni              -1.6525102584        6.1242852896        5.2374744267
Ni              -1.7471034069        2.5108931988        2.3228776741
Ni               2.0548216101        4.3559032140        3.4913900077
Ni               1.8870942564        0.8021522560        0.5164856544
H               -0.4136863610        5.3469274804        5.7499767090
H               -0.3487833905        2.0414824422        2.8024449300
H                0.6602389933        4.8614479195        2.9885203925
H                0.5757932562        1.5024464591        0.1454015078
H                4.9994502332        1.1637249126        2.1918482604
H                3.7837821947        1.8396029647        5.2078348892
H               -3.2066768352        4.9716573548        0.4452051486
H               -4.7152206350        5.7221903043        3.9543719526
H               -2.9071758297        6.0798064358        4.3131639234
H               -2.3479745822        3.3122511198        1.0755498219
H                3.1233036917        3.9128462415        4.6374291393
H                2.7122112764        0.9605574800        1.7992700529
H                0.5491035931        2.2626686505        4.9436617801
H                2.5675115343        3.6122686322        2.2355478216
H               -2.3157224872        3.2584031015        3.5499058443
H               -0.6430119528        4.8202259041        0.6560703492



     Writing config-only to output data dir ./outdir/mg2nih4_co.save/ :
     XML data file
     NEW-OLD atomic charge density approx. for the potential
     New effective cutoffs (rho, wfc):  537.93   67.26

     Check: negative core charge=   -0.000002

     total cpu time spent up to now is    12284.6 secs

     Self-consistent Calculation

     iteration #  1     ecut=    60.00 Ry     beta= 0.30
     Davidson diagonalization with overlap
     ethr =  1.00E-06,  avg # of iterations =  4.1

     total cpu time spent up to now is    12341.0 secs

     total energy              =   -1926.26590425 Ry
     estimated scf accuracy    <       0.00351458 Ry

     iteration #  2     ecut=    60.00 Ry     beta= 0.30
     Davidson diagonalization with overlap
     ethr =  2.95E-06,  avg # of iterations =  3.2

     total cpu time spent up to now is    12377.8 secs

     total energy              =   -1926.26416840 Ry
     estimated scf accuracy    <       0.05343041 Ry

     iteration #  3     ecut=    60.00 Ry     beta= 0.30
     Davidson diagonalization with overlap
     ethr =  2.95E-06,  avg # of iterations =  3.0

     total cpu time spent up to now is    12410.1 secs

     total energy              =   -1926.26685424 Ry
     estimated scf accuracy    <       0.00089689 Ry

     iteration #  4     ecut=    60.00 Ry     beta= 0.30
     Davidson diagonalization with overlap
     ethr =  7.54E-07,  avg # of iterations =  2.0

     total cpu time spent up to now is    12437.4 secs

     total energy              =   -1926.26689109 Ry
     estimated scf accuracy    <       0.00046103 Ry

     iteration #  5     ecut=    60.00 Ry     beta= 0.30
     Davidson diagonalization with overlap
     ethr =  3.87E-07,  avg # of iterations =  1.7

     total cpu time spent up to now is    12466.2 secs

     total energy              =   -1926.26692358 Ry
     estimated scf accuracy    <       0.00006034 Ry

     iteration #  6     ecut=    60.00 Ry     beta= 0.30
     Davidson diagonalization with overlap
     ethr =  5.07E-08,  avg # of iterations =  2.0

     total cpu time spent up to now is    12494.4 secs

     total energy              =   -1926.26692747 Ry
     estimated scf accuracy    <       0.00006411 Ry

     iteration #  7     ecut=    60.00 Ry     beta= 0.30
     Davidson diagonalization with overlap
     ethr =  5.07E-08,  avg # of iterations =  1.0

     total cpu time spent up to now is    12517.2 secs

     total energy              =   -1926.26693179 Ry
     estimated scf accuracy    <       0.00000343 Ry

     iteration #  8     ecut=    60.00 Ry     beta= 0.30
     Davidson diagonalization with overlap
     ethr =  2.88E-09,  avg # of iterations =  4.2

     total cpu time spent up to now is    12558.1 secs

     total energy              =   -1926.26693236 Ry
     estimated scf accuracy    <       0.00000465 Ry

     iteration #  9     ecut=    60.00 Ry     beta= 0.30
     Davidson diagonalization with overlap
     ethr =  2.88E-09,  avg # of iterations =  1.9

     total cpu time spent up to now is    12586.9 secs

     total energy              =   -1926.26693271 Ry
     estimated scf accuracy    <       0.00000047 Ry

     iteration # 10     ecut=    60.00 Ry     beta= 0.30
     Davidson diagonalization with overlap
     ethr =  3.94E-10,  avg # of iterations =  4.1

     total cpu time spent up to now is    12628.3 secs

     total energy              =   -1926.26693283 Ry
     estimated scf accuracy    <       0.00000008 Ry

     iteration # 11     ecut=    60.00 Ry     beta= 0.30
     Davidson diagonalization with overlap
     ethr =  6.38E-11,  avg # of iterations =  2.5

     total cpu time spent up to now is    12658.8 secs

     total energy              =   -1926.26693284 Ry
     estimated scf accuracy    <       0.00000009 Ry

     iteration # 12     ecut=    60.00 Ry     beta= 0.30
     Davidson diagonalization with overlap
     ethr =  6.38E-11,  avg # of iterations =  1.1

     total cpu time spent up to now is    12682.4 secs

     total energy              =   -1926.26693285 Ry
     estimated scf accuracy    <          6.3E-09 Ry

     iteration # 13     ecut=    60.00 Ry     beta= 0.30
     Davidson diagonalization with overlap
     ethr =  5.27E-12,  avg # of iterations =  2.3

     total cpu time spent up to now is    12712.7 secs

     total energy              =   -1926.26693285 Ry
     estimated scf accuracy    <          8.1E-10 Ry

     iteration # 14     ecut=    60.00 Ry     beta= 0.30
     Davidson diagonalization with overlap
     ethr =  6.81E-13,  avg # of iterations =  2.0

     total cpu time spent up to now is    12741.6 secs

     End of self-consistent calculation

     Number of k-points >= 100: set verbosity='high' to print the bands.

     the Fermi energy is     6.9023 ev

!    total energy              =   -1926.26693285 Ry
     estimated scf accuracy    <          8.9E-11 Ry
     smearing contrib. (-TS)   =      -0.00068750 Ry
     internal energy E=F+TS    =   -1926.26624535 Ry

     The total energy is F=E-TS. E is the sum of the following terms:
     one-electron contribution =   -1699.82965557 Ry
     hartree contribution      =     884.70592784 Ry
     xc contribution           =    -198.37011522 Ry
     ewald contribution        =    -693.35082457 Ry
     DFT-D3 Dispersion         =      -0.36737135 Ry
     one-center paw contrib.   =    -219.05420647 Ry

     convergence has been achieved in  14 iterations

     Forces acting on atoms (cartesian axes, Ry/au):

     atom    1 type  1   force =    -0.00140830   -0.00049842   -0.00255226
     atom    2 type  2   force =     0.00045412    0.00150450    0.00085101
     atom    3 type  2   force =    -0.00203339   -0.00270202    0.00094674
     atom    4 type  2   force =     0.00176974   -0.00023152   -0.00134738
     atom    5 type  2   force =    -0.00265925    0.00076714   -0.00209874
     atom    6 type  2   force =     0.00166922    0.00110859   -0.00182114
     atom    7 type  2   force =     0.00116950    0.00211923   -0.00152913
     atom    8 type  2   force =     0.00017980   -0.00140294    0.00076270
     atom    9 type  3   force =     0.00297094    0.00137463   -0.00241053
     atom   10 type  3   force =     0.00206506   -0.00387183    0.00339087
     atom   11 type  3   force =    -0.00172017   -0.00069330   -0.00165303
     atom   12 type  3   force =    -0.00166110    0.00406109    0.00177979
     atom   13 type  4   force =     0.00012233    0.00148300   -0.00152788
     atom   14 type  4   force =     0.00249755    0.00145904   -0.00295576
     atom   15 type  4   force =     0.00218187   -0.00265865    0.00380675
     atom   16 type  4   force =    -0.00067784    0.00070770   -0.00107830
     atom   17 type  4   force =    -0.00090851   -0.00114827   -0.00006521
     atom   18 type  4   force =     0.00192250   -0.00269191   -0.00103853
     atom   19 type  4   force =     0.00009283   -0.00227854   -0.00103054
     atom   20 type  4   force =    -0.00201387    0.00268092    0.00100478
     atom   21 type  4   force =    -0.00109037   -0.00112600    0.00279079
     atom   22 type  4   force =    -0.00535052   -0.00112638    0.00184032
     atom   23 type  4   force =     0.00363087    0.00387538    0.00066462
     atom   24 type  4   force =     0.00229450   -0.00278938    0.00212339
     atom   25 type  4   force =     0.00024894    0.00147573    0.00042673
     atom   26 type  4   force =    -0.00005828    0.00068151   -0.00166143
     atom   27 type  4   force =    -0.00423126    0.00097728   -0.00000781
     atom   28 type  4   force =     0.00054309   -0.00105659    0.00238920

     Total force =     0.018424     Total SCF correction =     0.000018


     Computing stress (Cartesian axis) and pressure

          total   stress  (Ry/bohr**3)                   (kbar)     P=        4.80
   0.00004604  -0.00000729   0.00000607            6.77       -1.07        0.89
  -0.00000729   0.00001467  -0.00000062           -1.07        2.16       -0.09
   0.00000607  -0.00000062   0.00003708            0.89       -0.09        5.45

     Energy error            =      9.4E-04 Ry
     Gradient error          =      5.4E-03 Ry/Bohr
     Cell gradient error     =      6.8E+00 kbar

     number of scf cycles    =  25
     number of bfgs steps    =  24

     enthalpy           old  =   -1926.2659906118 Ry
     enthalpy           new  =   -1926.2669328486 Ry

     CASE: enthalpy          _new < enthalpy          _old

     new trust radius        =       0.0413501308 bohr
     new conv_thr            =       0.0000000005 Ry

     new unit-cell volume =   1660.57926 a.u.^3 (   246.07246 Ang^3 )
     density =      3.23891 g/cm^3

CELL_PARAMETERS (angstrom)
   7.496288568   0.003620400   0.021684345
  -5.010560607   5.780890578   0.107538681
  -2.221285674   1.158930733   5.694023052

ATOMIC_POSITIONS (angstrom)
Co              -4.1111189297        5.3289551369        5.4702062693
Mg              -2.9247578466        4.9042298395        2.6044596353
Mg               3.3400307026        2.0726419068        3.2127556091
Mg               4.3485535563        1.5846543195        0.2845285690
Mg               0.9105294877        6.5403529762        4.4610949463
Mg              -0.5789314695        0.3071315934        1.4124240017
Mg              -0.5354074697        3.7870355427        4.3203618673
Mg               0.6198584440        3.1834672175        1.4329385830
Ni              -1.6567460884        6.1273893411        5.2468830760
Ni              -1.7485021692        2.5128840131        2.3188099036
Ni               2.0625491878        4.3525058514        3.4985873998
Ni               1.8870950295        0.8065135048        0.5230749658
H               -0.4103928938        5.3562765770        5.7562490267
H               -0.3516188389        2.0431260757        2.8007328884
H                0.6672347167        4.8608925428        2.9947073472
H                0.5728411082        1.5000839954        0.1397998584
H                5.0122646245        1.1610399496        2.1910868867
H                3.7958874651        1.8341154822        5.2092942008
H               -3.2108156413        4.9804462420        0.4423691604
H               -4.7297927868        5.7304393217        3.9756022917
H               -2.9235846691        6.0840088276        4.3268805980
H               -2.3610990966        3.3133621878        1.0829030549
H                3.1495527275        3.9202599435        4.6327191053
H                2.7240366861        0.9521416496        1.8049405432
H                0.5494010869        2.2754276220        4.9514721498
H                2.5725988510        3.6135184238        2.2328142070
H               -2.3254991583        3.2570591427        3.5473898926
H               -0.6419746014        4.8182247368        0.6503590647



     Writing config-only to output data dir ./outdir/mg2nih4_co.save/ :
     XML data file
     NEW-OLD atomic charge density approx. for the potential
     New effective cutoffs (rho, wfc):  537.38   67.20

     Check: negative core charge=   -0.000002

     total cpu time spent up to now is    12758.4 secs

     Self-consistent Calculation

     iteration #  1     ecut=    60.00 Ry     beta= 0.30
     Davidson diagonalization with overlap
     ethr =  1.00E-06,  avg # of iterations =  4.1

     total cpu time spent up to now is    12813.4 secs

     total energy              =   -1926.26735927 Ry
     estimated scf accuracy    <       0.00156702 Ry

     iteration #  2     ecut=    60.00 Ry     beta= 0.30
     Davidson diagonalization with overlap
     ethr =  1.32E-06,  avg # of iterations =  3.0

     total cpu time spent up to now is    12847.6 secs

     total energy              =   -1926.26710876 Ry
     estimated scf accuracy    <       0.00691460 Ry

     iteration #  3     ecut=    60.00 Ry     beta= 0.30
     Davidson diagonalization with overlap
     ethr =  1.32E-06,  avg # of iterations =  3.0

     total cpu time spent up to now is    12879.5 secs

     total energy              =   -1926.26752147 Ry
     estimated scf accuracy    <       0.00282693 Ry

     iteration #  4     ecut=    60.00 Ry     beta= 0.30
     Davidson diagonalization with overlap
     ethr =  1.32E-06,  avg # of iterations =  1.3

     total cpu time spent up to now is    12905.6 secs

     total energy              =   -1926.26767893 Ry
     estimated scf accuracy    <       0.00026291 Ry

     iteration #  5     ecut=    60.00 Ry     beta= 0.30
     Davidson diagonalization with overlap
     ethr =  2.21E-07,  avg # of iterations =  2.0

     total cpu time spent up to now is    12933.0 secs

     total energy              =   -1926.26769345 Ry
     estimated scf accuracy    <       0.00006562 Ry

     iteration #  6     ecut=    60.00 Ry     beta= 0.30
     Davidson diagonalization with overlap
     ethr =  5.51E-08,  avg # of iterations =  2.0

     total cpu time spent up to now is    12960.0 secs

     total energy              =   -1926.26769804 Ry
     estimated scf accuracy    <       0.00003836 Ry

     iteration #  7     ecut=    60.00 Ry     beta= 0.30
     Davidson diagonalization with overlap
     ethr =  3.22E-08,  avg # of iterations =  1.0

     total cpu time spent up to now is    12982.6 secs

     total energy              =   -1926.26770069 Ry
     estimated scf accuracy    <       0.00000275 Ry

     iteration #  8     ecut=    60.00 Ry     beta= 0.30
     Davidson diagonalization with overlap
     ethr =  2.31E-09,  avg # of iterations =  2.1

     total cpu time spent up to now is    13012.2 secs

     total energy              =   -1926.26770088 Ry
     estimated scf accuracy    <       0.00000286 Ry

     iteration #  9     ecut=    60.00 Ry     beta= 0.30
     Davidson diagonalization with overlap
     ethr =  2.31E-09,  avg # of iterations =  1.4

     total cpu time spent up to now is    13039.3 secs

     total energy              =   -1926.26770116 Ry
     estimated scf accuracy    <       0.00000028 Ry

     iteration # 10     ecut=    60.00 Ry     beta= 0.30
     Davidson diagonalization with overlap
     ethr =  2.34E-10,  avg # of iterations =  4.1

     total cpu time spent up to now is    13088.9 secs

     total energy              =   -1926.26770134 Ry
     estimated scf accuracy    <       0.00000019 Ry

     iteration # 11     ecut=    60.00 Ry     beta= 0.30
     Davidson diagonalization with overlap
     ethr =  1.59E-10,  avg # of iterations =  1.0

     total cpu time spent up to now is    13111.8 secs

     total energy              =   -1926.26770135 Ry
     estimated scf accuracy    <       0.00000003 Ry

     iteration # 12     ecut=    60.00 Ry     beta= 0.30
     Davidson diagonalization with overlap
     ethr =  2.75E-11,  avg # of iterations =  2.0

     total cpu time spent up to now is    13140.0 secs

     total energy              =   -1926.26770136 Ry
     estimated scf accuracy    <          7.1E-09 Ry

     iteration # 13     ecut=    60.00 Ry     beta= 0.30
     Davidson diagonalization with overlap
     ethr =  5.97E-12,  avg # of iterations =  1.0

     total cpu time spent up to now is    13162.6 secs

     End of self-consistent calculation

     Number of k-points >= 100: set verbosity='high' to print the bands.

     the Fermi energy is     6.8747 ev

!    total energy              =   -1926.26770136 Ry
     estimated scf accuracy    <          3.4E-10 Ry
     smearing contrib. (-TS)   =      -0.00064353 Ry
     internal energy E=F+TS    =   -1926.26705782 Ry

     The total energy is F=E-TS. E is the sum of the following terms:
     one-electron contribution =   -1701.49755868 Ry
     hartree contribution      =     885.40333075 Ry
     xc contribution           =    -198.34366412 Ry
     ewald contribution        =    -692.41213205 Ry
     DFT-D3 Dispersion         =      -0.36613333 Ry
     one-center paw contrib.   =    -219.05090040 Ry

     convergence has been achieved in  13 iterations

     Forces acting on atoms (cartesian axes, Ry/au):

     atom    1 type  1   force =    -0.00211690   -0.00188830   -0.00143964
     atom    2 type  2   force =    -0.00009248    0.00039956    0.00095042
     atom    3 type  2   force =    -0.00189970   -0.00235879    0.00045254
     atom    4 type  2   force =     0.00050825   -0.00051931   -0.00262871
     atom    5 type  2   force =    -0.00185879    0.00055819   -0.00077056
     atom    6 type  2   force =     0.00144947   -0.00017447   -0.00082457
     atom    7 type  2   force =     0.00081154    0.00136962   -0.00071595
     atom    8 type  2   force =     0.00092475   -0.00048209    0.00063740
     atom    9 type  3   force =     0.00384911    0.00105381   -0.00583054
     atom   10 type  3   force =     0.00077606   -0.00435589    0.00542584
     atom   11 type  3   force =    -0.00087980    0.00112025   -0.00325430
     atom   12 type  3   force =    -0.00049902    0.00435992    0.00064083
     atom   13 type  4   force =    -0.00074112    0.00138935   -0.00183015
     atom   14 type  4   force =     0.00243383    0.00134308   -0.00249984
     atom   15 type  4   force =     0.00256552   -0.00252240    0.00376699
     atom   16 type  4   force =     0.00053572    0.00035020   -0.00072480
     atom   17 type  4   force =    -0.00049568   -0.00050783    0.00046199
     atom   18 type  4   force =     0.00179805   -0.00142080   -0.00091309
     atom   19 type  4   force =     0.00002742   -0.00212594   -0.00100921
     atom   20 type  4   force =    -0.00295529    0.00166889   -0.00053887
     atom   21 type  4   force =     0.00006609   -0.00126086    0.00337182
     atom   22 type  4   force =    -0.00509404    0.00076795   -0.00092688
     atom   23 type  4   force =     0.00293906    0.00316621    0.00150705
     atom   24 type  4   force =     0.00150490   -0.00247780    0.00066866
     atom   25 type  4   force =     0.00055986    0.00166940    0.00125426
     atom   26 type  4   force =    -0.00048439    0.00115208    0.00045626
     atom   27 type  4   force =    -0.00322004    0.00072550   -0.00034380
     atom   28 type  4   force =    -0.00041236   -0.00099951    0.00465683

     Total force =     0.018800     Total SCF correction =     0.000060


     Computing stress (Cartesian axis) and pressure

          total   stress  (Ry/bohr**3)                   (kbar)     P=        1.50
   0.00001856  -0.00000667  -0.00000239            2.73       -0.98       -0.35
  -0.00000667  -0.00000448  -0.00000024           -0.98       -0.66       -0.04
  -0.00000239  -0.00000024   0.00001652           -0.35       -0.04        2.43

     Energy error            =      7.7E-04 Ry
     Gradient error          =      5.8E-03 Ry/Bohr
     Cell gradient error     =      2.7E+00 kbar

     number of scf cycles    =  26
     number of bfgs steps    =  25

     enthalpy           old  =   -1926.2669328486 Ry
     enthalpy           new  =   -1926.2677013570 Ry

     CASE: enthalpy          _new < enthalpy          _old

     new trust radius        =       0.0280478601 bohr
     new conv_thr            =       0.0000000006 Ry

     new unit-cell volume =   1667.53521 a.u.^3 (   247.10322 Ang^3 )
     density =      3.22540 g/cm^3

CELL_PARAMETERS (angstrom)
   7.514105885  -0.001015442   0.025454163
  -5.025877186   5.786607569   0.103532428
  -2.224277987   1.159307781   5.700274138

ATOMIC_POSITIONS (angstrom)
Co              -4.1249925691        5.3325067128        5.4749767702
Mg              -2.9334222983        4.9104371169        2.6064071885
Mg               3.3461122679        2.0685155708        3.2196720391
Mg               4.3627373044        1.5814830549        0.2868485471
Mg               0.9071458935        6.5439960205        4.4597402826
Mg              -0.5775325290        0.3095151509        1.4097076540
Mg              -0.5370868038        3.7902965442        4.3201449507
Mg               0.6217180892        3.1818014947        1.4335074807
Ni              -1.6604847505        6.1295832384        5.2538952754
Ni              -1.7524930580        2.5116459858        2.3206688505
Ni               2.0695780841        4.3500433561        3.5020316098
Ni               1.8879664534        0.8115676149        0.5284624752
H               -0.4104145801        5.3617717186        5.7605335159
H               -0.3540486505        2.0471006145        2.7965836327
H                0.6729736124        4.8551538174        3.0055273051
H                0.5727985113        1.5004291672        0.1363824259
H                5.0246526019        1.1559469643        2.1950576702
H                3.8112831990        1.8256447332        5.2143113578
H               -3.2210553169        4.9863370332        0.4380632002
H               -4.7474353365        5.7393083466        3.9869842578
H               -2.9357057176        6.0849987956        4.3395250500
H               -2.3752200899        3.3143172895        1.0883553569
H                3.1680411150        3.9276028537        4.6344436805
H                2.7354833854        0.9415205080        1.8106813700
H                0.5498850612        2.2810294092        4.9617027743
H                2.5772478177        3.6133357337        2.2309444831
H               -2.3382495343        3.2572915921        3.5467144153
H               -0.6441721875        4.8154182644        0.6477765985



     Writing config-only to output data dir ./outdir/mg2nih4_co.save/ :
     XML data file
     NEW-OLD atomic charge density approx. for the potential
     New effective cutoffs (rho, wfc):  536.08   67.05

     Check: negative core charge=   -0.000002

     total cpu time spent up to now is    13179.4 secs

     Self-consistent Calculation

     iteration #  1     ecut=    60.00 Ry     beta= 0.30
     Davidson diagonalization with overlap
     ethr =  1.00E-06,  avg # of iterations =  4.0

     total cpu time spent up to now is    13232.8 secs

     total energy              =   -1926.26797624 Ry
     estimated scf accuracy    <       0.00112766 Ry

     iteration #  2     ecut=    60.00 Ry     beta= 0.30
     Davidson diagonalization with overlap
     ethr =  9.48E-07,  avg # of iterations =  3.0

     total cpu time spent up to now is    13267.4 secs

     total energy              =   -1926.26761391 Ry
     estimated scf accuracy    <       0.01102581 Ry

     iteration #  3     ecut=    60.00 Ry     beta= 0.30
     Davidson diagonalization with overlap
     ethr =  9.48E-07,  avg # of iterations =  3.0

     total cpu time spent up to now is    13300.2 secs

     total energy              =   -1926.26821918 Ry
     estimated scf accuracy    <       0.00121982 Ry

     iteration #  4     ecut=    60.00 Ry     beta= 0.30
     Davidson diagonalization with overlap
     ethr =  9.48E-07,  avg # of iterations =  1.3

     total cpu time spent up to now is    13326.2 secs

     total energy              =   -1926.26829693 Ry
     estimated scf accuracy    <       0.00008042 Ry

     iteration #  5     ecut=    60.00 Ry     beta= 0.30
     Davidson diagonalization with overlap
     ethr =  6.76E-08,  avg # of iterations =  2.1

     total cpu time spent up to now is    13355.2 secs

     total energy              =   -1926.26830124 Ry
     estimated scf accuracy    <       0.00002419 Ry

     iteration #  6     ecut=    60.00 Ry     beta= 0.30
     Davidson diagonalization with overlap
     ethr =  2.03E-08,  avg # of iterations =  2.0

     total cpu time spent up to now is    13382.6 secs

     total energy              =   -1926.26830222 Ry
     estimated scf accuracy    <       0.00002611 Ry

     iteration #  7     ecut=    60.00 Ry     beta= 0.30
     Davidson diagonalization with overlap
     ethr =  2.03E-08,  avg # of iterations =  1.1

     total cpu time spent up to now is    13405.8 secs

     total energy              =   -1926.26830402 Ry
     estimated scf accuracy    <       0.00000223 Ry

     iteration #  8     ecut=    60.00 Ry     beta= 0.30
     Davidson diagonalization with overlap
     ethr =  1.87E-09,  avg # of iterations =  2.2

     total cpu time spent up to now is    13437.0 secs

     total energy              =   -1926.26830422 Ry
     estimated scf accuracy    <       0.00000167 Ry

     iteration #  9     ecut=    60.00 Ry     beta= 0.30
     Davidson diagonalization with overlap
     ethr =  1.41E-09,  avg # of iterations =  2.0

     total cpu time spent up to now is    13467.0 secs

     total energy              =   -1926.26830437 Ry
     estimated scf accuracy    <       0.00000016 Ry

     iteration # 10     ecut=    60.00 Ry     beta= 0.30
     Davidson diagonalization with overlap
     ethr =  1.31E-10,  avg # of iterations =  4.8

     total cpu time spent up to now is    13523.3 secs

     total energy              =   -1926.26830448 Ry
     estimated scf accuracy    <       0.00000007 Ry

     iteration # 11     ecut=    60.00 Ry     beta= 0.30
     Davidson diagonalization with overlap
     ethr =  5.97E-11,  avg # of iterations =  1.1

     total cpu time spent up to now is    13547.1 secs

     total energy              =   -1926.26830448 Ry
     estimated scf accuracy    <       0.00000003 Ry

     iteration # 12     ecut=    60.00 Ry     beta= 0.30
     Davidson diagonalization with overlap
     ethr =  2.89E-11,  avg # of iterations =  1.1

     total cpu time spent up to now is    13570.7 secs

     total energy              =   -1926.26830448 Ry
     estimated scf accuracy    <          2.5E-09 Ry

     iteration # 13     ecut=    60.00 Ry     beta= 0.30
     Davidson diagonalization with overlap
     ethr =  2.10E-12,  avg # of iterations =  2.0

     total cpu time spent up to now is    13599.1 secs

     End of self-consistent calculation

     Number of k-points >= 100: set verbosity='high' to print the bands.

     the Fermi energy is     6.8350 ev

!    total energy              =   -1926.26830448 Ry
     estimated scf accuracy    <          2.6E-10 Ry
     smearing contrib. (-TS)   =      -0.00061717 Ry
     internal energy E=F+TS    =   -1926.26768731 Ry

     The total energy is F=E-TS. E is the sum of the following terms:
     one-electron contribution =   -1702.80588559 Ry
     hartree contribution      =     885.89081224 Ry
     xc contribution           =    -198.31385550 Ry
     ewald contribution        =    -691.62679482 Ry
     DFT-D3 Dispersion         =      -0.36466794 Ry
     one-center paw contrib.   =    -219.04729570 Ry

     convergence has been achieved in  13 iterations

     Forces acting on atoms (cartesian axes, Ry/au):

     atom    1 type  1   force =    -0.00174736   -0.00136656   -0.00085607
     atom    2 type  2   force =    -0.00050569   -0.00046868    0.00093952
     atom    3 type  2   force =    -0.00149901   -0.00186077   -0.00042882
     atom    4 type  2   force =    -0.00016944   -0.00060774   -0.00333157
     atom    5 type  2   force =    -0.00093737    0.00034020    0.00053425
     atom    6 type  2   force =     0.00105684   -0.00111591   -0.00008275
     atom    7 type  2   force =     0.00042565    0.00076926   -0.00007481
     atom    8 type  2   force =     0.00115551    0.00037633    0.00036603
     atom    9 type  3   force =     0.00243651   -0.00025293   -0.00642451
     atom   10 type  3   force =    -0.00076975   -0.00290804    0.00507812
     atom   11 type  3   force =     0.00074804    0.00209714   -0.00302986
     atom   12 type  3   force =     0.00081812    0.00305135    0.00000370
     atom   13 type  4   force =    -0.00110360    0.00106086   -0.00187939
     atom   14 type  4   force =     0.00277195    0.00103737   -0.00169335
     atom   15 type  4   force =     0.00169897   -0.00184840    0.00298529
     atom   16 type  4   force =     0.00105018    0.00019183   -0.00051422
     atom   17 type  4   force =    -0.00046384   -0.00067167    0.00059784
     atom   18 type  4   force =     0.00169953    0.00042147   -0.00073597
     atom   19 type  4   force =     0.00007287   -0.00126533   -0.00094457
     atom   20 type  4   force =    -0.00314212    0.00067252   -0.00073910
     atom   21 type  4   force =     0.00041378   -0.00144506    0.00324483
     atom   22 type  4   force =    -0.00435527    0.00144939   -0.00205531
     atom   23 type  4   force =     0.00206697    0.00177554    0.00158779
     atom   24 type  4   force =     0.00075492   -0.00204073   -0.00072412
     atom   25 type  4   force =     0.00072773    0.00198532    0.00188085
     atom   26 type  4   force =    -0.00053829    0.00123079    0.00182715
     atom   27 type  4   force =    -0.00214757    0.00050536   -0.00047690
     atom   28 type  4   force =    -0.00051825   -0.00111291    0.00494595

     Total force =     0.016920     Total SCF correction =     0.000032


     Computing stress (Cartesian axis) and pressure

          total   stress  (Ry/bohr**3)                   (kbar)     P=       -2.05
  -0.00000951  -0.00000561  -0.00000872           -1.40       -0.82       -1.28
  -0.00000561  -0.00002147   0.00000121           -0.82       -3.16        0.18
  -0.00000872   0.00000121  -0.00001091           -1.28        0.18       -1.61

     Energy error            =      6.0E-04 Ry
     Gradient error          =      6.4E-03 Ry/Bohr
     Cell gradient error     =      3.2E+00 kbar

     number of scf cycles    =  27
     number of bfgs steps    =  26

     enthalpy           old  =   -1926.2677013570 Ry
     enthalpy           new  =   -1926.2683044828 Ry

     CASE: enthalpy          _new < enthalpy          _old

     new trust radius        =       0.0432953127 bohr
     new conv_thr            =       0.0000000006 Ry

     new unit-cell volume =   1670.84711 a.u.^3 (   247.59400 Ang^3 )
     density =      3.21901 g/cm^3

CELL_PARAMETERS (angstrom)
   7.526902142  -0.004903655   0.024902791
  -5.037214057   5.787687516   0.104783246
  -2.228959533   1.161209990   5.703738065

ATOMIC_POSITIONS (angstrom)
Co              -4.1364442311        5.3322780170        5.4760923203
Mg              -2.9409587039        4.9140558667        2.6128473728
Mg               3.3501476948        2.0625320985        3.2195633378
Mg               4.3734037460        1.5820875100        0.2806765800
Mg               0.9017857090        6.5454368771        4.4599637721
Mg              -0.5783072726        0.3085338403        1.4060981775
Mg              -0.5421804352        3.7968900836        4.3184480812
Mg               0.6219738255        3.1751645837        1.4338711177
Ni              -1.6638965988        6.1280586668        5.2535079769
Ni              -1.7554548197        2.5080919799        2.3239047409
Ni               2.0727900191        4.3457357107        3.5034645310
Ni               1.8882188118        0.8192581262        0.5333001882
H               -0.4128218178        5.3677359412        5.7657936985
H               -0.3556127453        2.0469106582        2.7952134255
H                0.6787007596        4.8498987272        3.0126558985
H                0.5699970431        1.4960722340        0.1297213799
H                5.0335508476        1.1513946647        2.1908723680
H                3.8182812974        1.8197168480        5.2118037565
H               -3.2244817137        4.9886294249        0.4372906486
H               -4.7669057816        5.7431617931        4.0109833920
H               -2.9550009262        6.0837856889        4.3585262775
H               -2.3935969399        3.3163974440        1.0926691713
H                3.1923889033        3.9314225591        4.6303218068
H                2.7453242978        0.9310163318        1.8133900798
H                0.5476074838        2.2952135692        4.9699614821
H                2.5782390351        3.6129055059        2.2299045064
H               -2.3511671294        3.2541879173        3.5459225446
H               -0.6453806323        4.8093412514        0.6511687876



     Writing config-only to output data dir ./outdir/mg2nih4_co.save/ :
     XML data file
     NEW-OLD atomic charge density approx. for the potential
     New effective cutoffs (rho, wfc):  535.81   67.01

     Check: negative core charge=   -0.000002

     total cpu time spent up to now is    13615.9 secs

     Self-consistent Calculation

     iteration #  1     ecut=    60.00 Ry     beta= 0.30
     Davidson diagonalization with overlap
     ethr =  1.00E-06,  avg # of iterations =  4.1

     total cpu time spent up to now is    13670.6 secs

     total energy              =   -1926.26845698 Ry
     estimated scf accuracy    <       0.00152840 Ry

     iteration #  2     ecut=    60.00 Ry     beta= 0.30
     Davidson diagonalization with overlap
     ethr =  1.28E-06,  avg # of iterations =  3.1

     total cpu time spent up to now is    13705.3 secs

     total energy              =   -1926.26781979 Ry
     estimated scf accuracy    <       0.01932859 Ry

     iteration #  3     ecut=    60.00 Ry     beta= 0.30
     Davidson diagonalization with overlap
     ethr =  1.28E-06,  avg # of iterations =  3.0

     total cpu time spent up to now is    13737.1 secs

     total energy              =   -1926.26878801 Ry
     estimated scf accuracy    <       0.00042894 Ry

     iteration #  4     ecut=    60.00 Ry     beta= 0.30
     Davidson diagonalization with overlap
     ethr =  3.60E-07,  avg # of iterations =  2.0

     total cpu time spent up to now is    13765.1 secs

     total energy              =   -1926.26878828 Ry
     estimated scf accuracy    <       0.00054230 Ry

     iteration #  5     ecut=    60.00 Ry     beta= 0.30
     Davidson diagonalization with overlap
     ethr =  3.60E-07,  avg # of iterations =  1.2

     total cpu time spent up to now is    13789.5 secs

     total energy              =   -1926.26882185 Ry
     estimated scf accuracy    <       0.00004244 Ry

     iteration #  6     ecut=    60.00 Ry     beta= 0.30
     Davidson diagonalization with overlap
     ethr =  3.57E-08,  avg # of iterations =  2.0

     total cpu time spent up to now is    13818.1 secs

     total energy              =   -1926.26882663 Ry
     estimated scf accuracy    <       0.00003466 Ry

     iteration #  7     ecut=    60.00 Ry     beta= 0.30
     Davidson diagonalization with overlap
     ethr =  2.91E-08,  avg # of iterations =  1.0

     total cpu time spent up to now is    13841.0 secs

     total energy              =   -1926.26882863 Ry
     estimated scf accuracy    <       0.00000394 Ry

     iteration #  8     ecut=    60.00 Ry     beta= 0.30
     Davidson diagonalization with overlap
     ethr =  3.31E-09,  avg # of iterations =  2.0

     total cpu time spent up to now is    13869.5 secs

     total energy              =   -1926.26882900 Ry
     estimated scf accuracy    <       0.00000330 Ry

     iteration #  9     ecut=    60.00 Ry     beta= 0.30
     Davidson diagonalization with overlap
     ethr =  2.77E-09,  avg # of iterations =  1.1

     total cpu time spent up to now is    13893.6 secs

     total energy              =   -1926.26882927 Ry
     estimated scf accuracy    <       0.00000024 Ry

     iteration # 10     ecut=    60.00 Ry     beta= 0.30
     Davidson diagonalization with overlap
     ethr =  1.98E-10,  avg # of iterations =  4.0

     total cpu time spent up to now is    13942.8 secs

     total energy              =   -1926.26882945 Ry
     estimated scf accuracy    <       0.00000009 Ry

     iteration # 11     ecut=    60.00 Ry     beta= 0.30
     Davidson diagonalization with overlap
     ethr =  7.88E-11,  avg # of iterations =  1.7

     total cpu time spent up to now is    13970.7 secs

     total energy              =   -1926.26882945 Ry
     estimated scf accuracy    <       0.00000005 Ry

     iteration # 12     ecut=    60.00 Ry     beta= 0.30
     Davidson diagonalization with overlap
     ethr =  4.04E-11,  avg # of iterations =  1.9

     total cpu time spent up to now is    13999.2 secs

     total energy              =   -1926.26882945 Ry
     estimated scf accuracy    <          5.0E-09 Ry

     iteration # 13     ecut=    60.00 Ry     beta= 0.30
     Davidson diagonalization with overlap
     ethr =  4.19E-12,  avg # of iterations =  2.0

     total cpu time spent up to now is    14026.6 secs

     End of self-consistent calculation

     Number of k-points >= 100: set verbosity='high' to print the bands.

     the Fermi energy is     6.8175 ev

!    total energy              =   -1926.26882946 Ry
     estimated scf accuracy    <          4.6E-10 Ry
     smearing contrib. (-TS)   =      -0.00056183 Ry
     internal energy E=F+TS    =   -1926.26826762 Ry

     The total energy is F=E-TS. E is the sum of the following terms:
     one-electron contribution =   -1702.86739347 Ry
     hartree contribution      =     885.84147949 Ry
     xc contribution           =    -198.29884273 Ry
     ewald contribution        =    -691.53378959 Ry
     DFT-D3 Dispersion         =      -0.36397978 Ry
     one-center paw contrib.   =    -219.04574155 Ry

     convergence has been achieved in  13 iterations

     Forces acting on atoms (cartesian axes, Ry/au):

     atom    1 type  1   force =    -0.00083289   -0.00097844    0.00265575
     atom    2 type  2   force =    -0.00078236   -0.00113646    0.00094935
     atom    3 type  2   force =    -0.00111538   -0.00099749   -0.00145622
     atom    4 type  2   force =    -0.00002925   -0.00082776   -0.00305969
     atom    5 type  2   force =    -0.00021300    0.00019075    0.00132354
     atom    6 type  2   force =     0.00060255   -0.00147887    0.00042005
     atom    7 type  2   force =     0.00005336    0.00011660    0.00018556
     atom    8 type  2   force =     0.00129045    0.00133468   -0.00006331
     atom    9 type  3   force =    -0.00002611   -0.00144424   -0.00433052
     atom   10 type  3   force =    -0.00223750   -0.00052027    0.00292261
     atom   11 type  3   force =     0.00289941    0.00222652   -0.00171947
     atom   12 type  3   force =     0.00156941    0.00097677   -0.00051568
     atom   13 type  4   force =    -0.00087702    0.00052334   -0.00186426
     atom   14 type  4   force =     0.00266411    0.00092425   -0.00113281
     atom   15 type  4   force =     0.00028238   -0.00113132    0.00216011
     atom   16 type  4   force =     0.00144386    0.00016272   -0.00033302
     atom   17 type  4   force =    -0.00068590   -0.00131021    0.00054376
     atom   18 type  4   force =     0.00169735    0.00197455   -0.00058472
     atom   19 type  4   force =     0.00023640    0.00011920   -0.00087790
     atom   20 type  4   force =    -0.00357585    0.00057938   -0.00241509
     atom   21 type  4   force =     0.00035897   -0.00133988    0.00213204
     atom   22 type  4   force =    -0.00295825    0.00111534   -0.00178419
     atom   23 type  4   force =     0.00077592    0.00108190    0.00106560
     atom   24 type  4   force =     0.00029433   -0.00178620   -0.00175847
     atom   25 type  4   force =     0.00069737    0.00199995    0.00213773
     atom   26 type  4   force =    -0.00029403    0.00089358    0.00216270
     atom   27 type  4   force =    -0.00118395    0.00021130   -0.00046791
     atom   28 type  4   force =    -0.00005437   -0.00147969    0.00370445

     Total force =     0.014183     Total SCF correction =     0.000051


     Computing stress (Cartesian axis) and pressure

          total   stress  (Ry/bohr**3)                   (kbar)     P=       -3.76
  -0.00002568  -0.00000431  -0.00001143           -3.78       -0.63       -1.68
  -0.00000431  -0.00002606   0.00000173           -0.63       -3.83        0.25
  -0.00001143   0.00000173  -0.00002501           -1.68        0.25       -3.68

     Energy error            =      5.2E-04 Ry
     Gradient error          =      4.3E-03 Ry/Bohr
     Cell gradient error     =      3.8E+00 kbar

     number of scf cycles    =  28
     number of bfgs steps    =  27

     enthalpy           old  =   -1926.2683044828 Ry
     enthalpy           new  =   -1926.2688294551 Ry

     CASE: enthalpy          _new < enthalpy          _old

     new trust radius        =       0.0366616755 bohr
     new conv_thr            =       0.0000000004 Ry

     new unit-cell volume =   1671.77023 a.u.^3 (   247.73079 Ang^3 )
     density =      3.21723 g/cm^3

CELL_PARAMETERS (angstrom)
   7.536785212  -0.013821090   0.025122252
  -5.050257482   5.786945591   0.100348072
  -2.232751474   1.158363800   5.705022036

ATOMIC_POSITIONS (angstrom)
Co              -4.1534815840        5.3281070377        5.4789176393
Mg              -2.9519605376        4.9103143179        2.6097533342
Mg               3.3463662805        2.0510472703        3.2223184387
Mg               4.3808420178        1.5683739044        0.2796595158
Mg               0.8911961696        6.5351427240        4.4511981909
Mg              -0.5743429922        0.3103696953        1.4032830816
Mg              -0.5457152282        3.7886057021        4.3132221162
Mg               0.6244170111        3.1721995643        1.4318396705
Ni              -1.6688887258        6.1184329424        5.2470175055
Ni              -1.7639770639        2.5016120979        2.3283068135
Ni               2.0774223128        4.3383798000        3.4960792711
Ni               1.8882417148        0.8234909020        0.5361656898
H               -0.4183030961        5.3603947779        5.7558222738
H               -0.3563791548        2.0514695271        2.7820767078
H                0.6788703834        4.8297520673        3.0251332083
H                0.5726392792        1.4983009720        0.1280765648
H                5.0368934557        1.1372368298        2.1956547925
H                3.8324897723        1.8072100369        5.2102748897
H               -3.2423850620        4.9867125508        0.4311734236
H               -4.7860975827        5.7475446171        4.0056599142
H               -2.9614923082        6.0715578113        4.3634875407
H               -2.4091462439        3.3155758120        1.0918748266
H                3.1955307378        3.9289248989        4.6290759288
H                2.7532962796        0.9134563380        1.8147808297
H                0.5465892126        2.2916064696        4.9754696871
H                2.5775148308        3.6048350964        2.2238417965
H               -2.3673240838        3.2524399781        3.5429914445
H               -0.6499482139        4.7977424708        0.6537379513



     Writing config-only to output data dir ./outdir/mg2nih4_co.save/ :
     XML data file
     NEW-OLD atomic charge density approx. for the potential
     New effective cutoffs (rho, wfc):  535.29   66.95

     Check: negative core charge=   -0.000002

     total cpu time spent up to now is    14043.3 secs

     Self-consistent Calculation

     iteration #  1     ecut=    60.00 Ry     beta= 0.30
     Davidson diagonalization with overlap
     ethr =  1.00E-06,  avg # of iterations =  4.1

     total cpu time spent up to now is    14099.4 secs

     total energy              =   -1926.26860337 Ry
     estimated scf accuracy    <       0.00231496 Ry

     iteration #  2     ecut=    60.00 Ry     beta= 0.30
     Davidson diagonalization with overlap
     ethr =  1.95E-06,  avg # of iterations =  3.3

     total cpu time spent up to now is    14137.9 secs

     total energy              =   -1926.26746556 Ry
     estimated scf accuracy    <       0.03756051 Ry

     iteration #  3     ecut=    60.00 Ry     beta= 0.30
     Davidson diagonalization with overlap
     ethr =  1.95E-06,  avg # of iterations =  3.0

     total cpu time spent up to now is    14170.1 secs

     total energy              =   -1926.26927423 Ry
     estimated scf accuracy    <       0.00030642 Ry

     iteration #  4     ecut=    60.00 Ry     beta= 0.30
     Davidson diagonalization with overlap
     ethr =  2.57E-07,  avg # of iterations =  2.0

     total cpu time spent up to now is    14198.1 secs

     total energy              =   -1926.26927408 Ry
     estimated scf accuracy    <       0.00032914 Ry

     iteration #  5     ecut=    60.00 Ry     beta= 0.30
     Davidson diagonalization with overlap
     ethr =  2.57E-07,  avg # of iterations =  2.0

     total cpu time spent up to now is    14226.8 secs

     total energy              =   -1926.26929683 Ry
     estimated scf accuracy    <       0.00004761 Ry

     iteration #  6     ecut=    60.00 Ry     beta= 0.30
     Davidson diagonalization with overlap
     ethr =  4.00E-08,  avg # of iterations =  2.0

     total cpu time spent up to now is    14255.1 secs

     total energy              =   -1926.26929978 Ry
     estimated scf accuracy    <       0.00004374 Ry

     iteration #  7     ecut=    60.00 Ry     beta= 0.30
     Davidson diagonalization with overlap
     ethr =  3.68E-08,  avg # of iterations =  1.0

     total cpu time spent up to now is    14277.7 secs

     total energy              =   -1926.26930296 Ry
     estimated scf accuracy    <       0.00000170 Ry

     iteration #  8     ecut=    60.00 Ry     beta= 0.30
     Davidson diagonalization with overlap
     ethr =  1.43E-09,  avg # of iterations =  4.0

     total cpu time spent up to now is    14320.1 secs

     total energy              =   -1926.26930349 Ry
     estimated scf accuracy    <       0.00000339 Ry

     iteration #  9     ecut=    60.00 Ry     beta= 0.30
     Davidson diagonalization with overlap
     ethr =  1.43E-09,  avg # of iterations =  1.8

     total cpu time spent up to now is    14348.1 secs

     total energy              =   -1926.26930371 Ry
     estimated scf accuracy    <       0.00000022 Ry

     iteration # 10     ecut=    60.00 Ry     beta= 0.30
     Davidson diagonalization with overlap
     ethr =  1.84E-10,  avg # of iterations =  2.0

     total cpu time spent up to now is    14376.7 secs

     total energy              =   -1926.26930374 Ry
     estimated scf accuracy    <       0.00000005 Ry

     iteration # 11     ecut=    60.00 Ry     beta= 0.30
     Davidson diagonalization with overlap
     ethr =  4.56E-11,  avg # of iterations =  2.0

     total cpu time spent up to now is    14404.2 secs

     total energy              =   -1926.26930374 Ry
     estimated scf accuracy    <       0.00000006 Ry

     iteration # 12     ecut=    60.00 Ry     beta= 0.30
     Davidson diagonalization with overlap
     ethr =  4.56E-11,  avg # of iterations =  1.1

     total cpu time spent up to now is    14427.7 secs

     total energy              =   -1926.26930375 Ry
     estimated scf accuracy    <          4.6E-09 Ry

     iteration # 13     ecut=    60.00 Ry     beta= 0.30
     Davidson diagonalization with overlap
     ethr =  3.90E-12,  avg # of iterations =  2.0

     total cpu time spent up to now is    14456.4 secs

     total energy              =   -1926.26930375 Ry
     estimated scf accuracy    <          5.6E-10 Ry

     iteration # 14     ecut=    60.00 Ry     beta= 0.30
     Davidson diagonalization with overlap
     ethr =  4.71E-13,  avg # of iterations =  2.0

     total cpu time spent up to now is    14484.1 secs

     End of self-consistent calculation

     Number of k-points >= 100: set verbosity='high' to print the bands.

     the Fermi energy is     6.8092 ev

!    total energy              =   -1926.26930375 Ry
     estimated scf accuracy    <          8.3E-11 Ry
     smearing contrib. (-TS)   =      -0.00055880 Ry
     internal energy E=F+TS    =   -1926.26874494 Ry

     The total energy is F=E-TS. E is the sum of the following terms:
     one-electron contribution =   -1702.11774855 Ry
     hartree contribution      =     885.43857123 Ry
     xc contribution           =    -198.29634427 Ry
     ewald contribution        =    -691.88376984 Ry
     DFT-D3 Dispersion         =      -0.36377170 Ry
     one-center paw contrib.   =    -219.04568181 Ry

     convergence has been achieved in  14 iterations

     Forces acting on atoms (cartesian axes, Ry/au):

     atom    1 type  1   force =    -0.00026499    0.00106177    0.00203353
     atom    2 type  2   force =    -0.00082436   -0.00151154    0.00088353
     atom    3 type  2   force =    -0.00057480   -0.00043704   -0.00281490
     atom    4 type  2   force =     0.00018796   -0.00065368   -0.00280146
     atom    5 type  2   force =     0.00046607    0.00010677    0.00197547
     atom    6 type  2   force =     0.00001640   -0.00169018    0.00108066
     atom    7 type  2   force =    -0.00028482   -0.00022854    0.00059801
     atom    8 type  2   force =     0.00081695    0.00176575   -0.00024405
     atom    9 type  3   force =    -0.00223344   -0.00193194   -0.00138478
     atom   10 type  3   force =    -0.00263798    0.00187649   -0.00008281
     atom   11 type  3   force =     0.00371235    0.00192304    0.00024249
     atom   12 type  3   force =     0.00247357   -0.00145156   -0.00046588
     atom   13 type  4   force =    -0.00019149   -0.00020096   -0.00141805
     atom   14 type  4   force =     0.00259920    0.00057376    0.00000749
     atom   15 type  4   force =    -0.00179241    0.00022278    0.00041779
     atom   16 type  4   force =     0.00085802    0.00032160   -0.00043632
     atom   17 type  4   force =    -0.00080457   -0.00190868    0.00023438
     atom   18 type  4   force =     0.00125505    0.00285044   -0.00039648
     atom   19 type  4   force =     0.00064700    0.00095314   -0.00072361
     atom   20 type  4   force =    -0.00242546   -0.00013796   -0.00104610
     atom   21 type  4   force =    -0.00101758   -0.00124623    0.00056317
     atom   22 type  4   force =    -0.00208820    0.00011711   -0.00061413
     atom   23 type  4   force =     0.00042307   -0.00066757    0.00074246
     atom   24 type  4   force =     0.00006922   -0.00109879   -0.00235236
     atom   25 type  4   force =     0.00068953    0.00221511    0.00180713
     atom   26 type  4   force =     0.00025473    0.00058080    0.00199624
     atom   27 type  4   force =    -0.00022967   -0.00006673   -0.00005786
     atom   28 type  4   force =     0.00090066   -0.00133715    0.00225642

     Total force =     0.012589     Total SCF correction =     0.000018


     Computing stress (Cartesian axis) and pressure

          total   stress  (Ry/bohr**3)                   (kbar)     P=       -4.10
  -0.00002920  -0.00000071  -0.00001259           -4.30       -0.10       -1.85
  -0.00000071  -0.00002147   0.00000425           -0.10       -3.16        0.63
  -0.00001259   0.00000425  -0.00003286           -1.85        0.63       -4.83

     Energy error            =      4.7E-04 Ry
     Gradient error          =      3.7E-03 Ry/Bohr
     Cell gradient error     =      4.8E+00 kbar

     number of scf cycles    =  29
     number of bfgs steps    =  28

     enthalpy           old  =   -1926.2688294551 Ry
     enthalpy           new  =   -1926.2693037463 Ry

     CASE: enthalpy          _new < enthalpy          _old

     new trust radius        =       0.0335660307 bohr
     new conv_thr            =       0.0000000004 Ry

     new unit-cell volume =   1666.49389 a.u.^3 (   246.94892 Ang^3 )
     density =      3.22742 g/cm^3

CELL_PARAMETERS (angstrom)
   7.534845537  -0.017834278   0.019694546
  -5.051752686   5.780426529   0.104911592
  -2.236753807   1.158955958   5.699395925

ATOMIC_POSITIONS (angstrom)
Co              -4.1583820257        5.3229394550        5.4755222140
Mg              -2.9564324187        4.9049369670        2.6132529557
Mg               3.3414760000        2.0424196888        3.2119978662
Mg               4.3810367744        1.5658326790        0.2679649052
Mg               0.8826654666        6.5267585169        4.4465784461
Mg              -0.5751707816        0.3071376521        1.3994936297
Mg              -0.5526705794        3.7887899404        4.3057827808
Mg               0.6235702016        3.1639794898        1.4294721082
Ni              -1.6733392485        6.1072952428        5.2348074932
Ni              -1.7679111846        2.4972283454        2.3284082528
Ni               2.0768086120        4.3309500626        3.4901597637
Ni               1.8872758787        0.8278985768        0.5375185881
H               -0.4232541498        5.3570233866        5.7491268783
H               -0.3556131688        2.0488085316        2.7768941043
H                0.6776852715        4.8192121743        3.0260269448
H                0.5698382561        1.4933338332        0.1220923967
H                5.0332942006        1.1284284452        2.1859537649
H                3.8295307690        1.8043953104        5.1966740417
H               -3.2429512588        4.9826247700        0.4322494018
H               -4.7992200043        5.7444056544        4.0201237252
H               -2.9766806600        6.0615732759        4.3729855831
H               -2.4237515079        3.3160596273        1.0908972954
H                3.2064277821        3.9223420032        4.6167069541
H                2.7562345869        0.9025806013        1.8107098556
H                0.5421725890        2.3030567603        4.9742466874
H                2.5724360589        3.5994545705        2.2194512996
H               -2.3766981337        3.2465404795        3.5397365644
H               -0.6496307057        4.7856688746        0.6611943713



     Writing config-only to output data dir ./outdir/mg2nih4_co.save/ :
     XML data file
     NEW-OLD atomic charge density approx. for the potential
     New effective cutoffs (rho, wfc):  536.78   67.12

     Check: negative core charge=   -0.000002

     total cpu time spent up to now is    14500.8 secs

     Self-consistent Calculation

     iteration #  1     ecut=    60.00 Ry     beta= 0.30
     Davidson diagonalization with overlap
     ethr =  1.00E-06,  avg # of iterations =  4.0

     total cpu time spent up to now is    14554.4 secs

     total energy              =   -1926.26945443 Ry
     estimated scf accuracy    <       0.00120556 Ry

     iteration #  2     ecut=    60.00 Ry     beta= 0.30
     Davidson diagonalization with overlap
     ethr =  1.01E-06,  avg # of iterations =  2.2

     total cpu time spent up to now is    14585.5 secs

     total energy              =   -1926.26941886 Ry
     estimated scf accuracy    <       0.00254581 Ry

     iteration #  3     ecut=    60.00 Ry     beta= 0.30
     Davidson diagonalization with overlap
     ethr =  1.01E-06,  avg # of iterations =  2.5

     total cpu time spent up to now is    14617.9 secs

     total energy              =   -1926.26957186 Ry
     estimated scf accuracy    <       0.00156145 Ry

     iteration #  4     ecut=    60.00 Ry     beta= 0.30
     Davidson diagonalization with overlap
     ethr =  1.01E-06,  avg # of iterations =  2.0

     total cpu time spent up to now is    14644.8 secs

     total energy              =   -1926.26966699 Ry
     estimated scf accuracy    <       0.00054233 Ry

     iteration #  5     ecut=    60.00 Ry     beta= 0.30
     Davidson diagonalization with overlap
     ethr =  4.56E-07,  avg # of iterations =  1.0

     total cpu time spent up to now is    14667.3 secs

     total energy              =   -1926.26969013 Ry
     estimated scf accuracy    <       0.00005381 Ry

     iteration #  6     ecut=    60.00 Ry     beta= 0.30
     Davidson diagonalization with overlap
     ethr =  4.52E-08,  avg # of iterations =  2.0

     total cpu time spent up to now is    14694.8 secs

     total energy              =   -1926.26969480 Ry
     estimated scf accuracy    <       0.00002693 Ry

     iteration #  7     ecut=    60.00 Ry     beta= 0.30
     Davidson diagonalization with overlap
     ethr =  2.26E-08,  avg # of iterations =  1.0

     total cpu time spent up to now is    14717.4 secs

     total energy              =   -1926.26969652 Ry
     estimated scf accuracy    <       0.00000217 Ry

     iteration #  8     ecut=    60.00 Ry     beta= 0.30
     Davidson diagonalization with overlap
     ethr =  1.82E-09,  avg # of iterations =  4.4

     total cpu time spent up to now is    14759.8 secs

     total energy              =   -1926.26969683 Ry
     estimated scf accuracy    <       0.00000218 Ry

     iteration #  9     ecut=    60.00 Ry     beta= 0.30
     Davidson diagonalization with overlap
     ethr =  1.82E-09,  avg # of iterations =  1.1

     total cpu time spent up to now is    14783.1 secs

     total energy              =   -1926.26969701 Ry
     estimated scf accuracy    <       0.00000023 Ry

     iteration # 10     ecut=    60.00 Ry     beta= 0.30
     Davidson diagonalization with overlap
     ethr =  1.91E-10,  avg # of iterations =  4.0

     total cpu time spent up to now is    14824.4 secs

     total energy              =   -1926.26969709 Ry
     estimated scf accuracy    <       0.00000009 Ry

     iteration # 11     ecut=    60.00 Ry     beta= 0.30
     Davidson diagonalization with overlap
     ethr =  7.38E-11,  avg # of iterations =  1.4

     total cpu time spent up to now is    14850.1 secs

     total energy              =   -1926.26969709 Ry
     estimated scf accuracy    <       0.00000004 Ry

     iteration # 12     ecut=    60.00 Ry     beta= 0.30
     Davidson diagonalization with overlap
     ethr =  3.31E-11,  avg # of iterations =  1.6

     total cpu time spent up to now is    14878.2 secs

     total energy              =   -1926.26969710 Ry
     estimated scf accuracy    <          3.7E-09 Ry

     iteration # 13     ecut=    60.00 Ry     beta= 0.30
     Davidson diagonalization with overlap
     ethr =  3.08E-12,  avg # of iterations =  2.2

     total cpu time spent up to now is    14907.4 secs

     total energy              =   -1926.26969710 Ry
     estimated scf accuracy    <          6.1E-10 Ry

     iteration # 14     ecut=    60.00 Ry     beta= 0.30
     Davidson diagonalization with overlap
     ethr =  5.15E-13,  avg # of iterations =  1.6

     total cpu time spent up to now is    14934.1 secs

     End of self-consistent calculation

     Number of k-points >= 100: set verbosity='high' to print the bands.

     the Fermi energy is     6.8421 ev

!    total energy              =   -1926.26969710 Ry
     estimated scf accuracy    <          4.8E-11 Ry
     smearing contrib. (-TS)   =      -0.00051900 Ry
     internal energy E=F+TS    =   -1926.26917810 Ry

     The total energy is F=E-TS. E is the sum of the following terms:
     one-electron contribution =   -1700.26913578 Ry
     hartree contribution      =     884.63856661 Ry
     xc contribution           =    -198.31756463 Ry
     ewald contribution        =    -692.90743627 Ry
     DFT-D3 Dispersion         =      -0.36487680 Ry
     one-center paw contrib.   =    -219.04873123 Ry

     convergence has been achieved in  14 iterations

     Forces acting on atoms (cartesian axes, Ry/au):

     atom    1 type  1   force =     0.00012970    0.00082444    0.00458298
     atom    2 type  2   force =    -0.00070708   -0.00149138    0.00087601
     atom    3 type  2   force =    -0.00040129    0.00019222   -0.00354050
     atom    4 type  2   force =     0.00105798   -0.00080482   -0.00178469
     atom    5 type  2   force =     0.00050157    0.00021329    0.00164146
     atom    6 type  2   force =    -0.00030324   -0.00113578    0.00138938
     atom    7 type  2   force =    -0.00042488   -0.00058094    0.00045652
     atom    8 type  2   force =     0.00054240    0.00196186   -0.00034340
     atom    9 type  3   force =    -0.00298280   -0.00096777    0.00172860
     atom   10 type  3   force =    -0.00205666    0.00259561   -0.00234170
     atom   11 type  3   force =     0.00345423    0.00113447    0.00147540
     atom   12 type  3   force =     0.00179969   -0.00260218   -0.00068415
     atom   13 type  4   force =     0.00057661   -0.00071692   -0.00118922
     atom   14 type  4   force =     0.00137124    0.00077234    0.00020275
     atom   15 type  4   force =    -0.00255514    0.00072319   -0.00024801
     atom   16 type  4   force =     0.00086438    0.00034454   -0.00037077
     atom   17 type  4   force =    -0.00068202   -0.00190554    0.00007445
     atom   18 type  4   force =     0.00082727    0.00213279   -0.00036728
     atom   19 type  4   force =     0.00092269    0.00154950   -0.00053537
     atom   20 type  4   force =    -0.00219518    0.00043042   -0.00239462
     atom   21 type  4   force =    -0.00177330   -0.00065460   -0.00116027
     atom   22 type  4   force =    -0.00133652   -0.00095309    0.00076632
     atom   23 type  4   force =    -0.00006659   -0.00037313    0.00050316
     atom   24 type  4   force =     0.00043209   -0.00098447   -0.00209140
     atom   25 type  4   force =     0.00046862    0.00187970    0.00111838
     atom   26 type  4   force =     0.00072984    0.00019597    0.00105035
     atom   27 type  4   force =     0.00028576   -0.00043530    0.00024769
     atom   28 type  4   force =     0.00152063   -0.00134442    0.00093792

     Total force =     0.013118     Total SCF correction =     0.000016


     Computing stress (Cartesian axis) and pressure

          total   stress  (Ry/bohr**3)                   (kbar)     P=       -1.75
  -0.00001569   0.00000187  -0.00000990           -2.31        0.28       -1.46
   0.00000187  -0.00000452   0.00000358            0.28       -0.67        0.53
  -0.00000990   0.00000358  -0.00001542           -1.46        0.53       -2.27

     Energy error            =      3.9E-04 Ry
     Gradient error          =      4.6E-03 Ry/Bohr
     Cell gradient error     =      2.3E+00 kbar

     number of scf cycles    =  30
     number of bfgs steps    =  29

     enthalpy           old  =   -1926.2693037463 Ry
     enthalpy           new  =   -1926.2696970987 Ry

     CASE: enthalpy          _new < enthalpy          _old

     new trust radius        =       0.0138935322 bohr
     new conv_thr            =       0.0000000004 Ry

     new unit-cell volume =   1660.88936 a.u.^3 (   246.11841 Ang^3 )
     density =      3.23831 g/cm^3

CELL_PARAMETERS (angstrom)
   7.529246287  -0.021231877   0.014719426
  -5.050378120   5.775027648   0.107721576
  -2.239250740   1.158090246   5.693414767

ATOMIC_POSITIONS (angstrom)
Co              -4.1618263536        5.3194003855        5.4758118035
Mg              -2.9594577913        4.8979898399        2.6127070828
Mg               3.3335775558        2.0360065509        3.2025018515
Mg               4.3786563601        1.5593529594        0.2606925369
Mg               0.8753222060        6.5178762459        4.4405878908
Mg              -0.5744296018        0.3056799614        1.3980115027
Mg              -0.5570059805        3.7836696414        4.2992428044
Mg               0.6234764182        3.1615019406        1.4267646163
Ni              -1.6783842900        6.0976189403        5.2256043154
Ni              -1.7726074669        2.4951942226        2.3269436340
Ni               2.0769315682        4.3263143030        3.4833719031
Ni               1.8867362237        0.8274788055        0.5364706517
H               -0.4275859585        5.3498999763        5.7375323135
H               -0.3542860314        2.0492897359        2.7694165179
H                0.6723694825        4.8088204533        3.0267687643
H                0.5702164377        1.4928434295        0.1201882536
H                5.0259951048        1.1193161452        2.1810241494
H                3.8274010297        1.8027834143        5.1857440736
H               -3.2458953927        4.9788460197        0.4322051107
H               -4.8059468770        5.7425848935        4.0172839749
H               -2.9818327115        6.0513942859        4.3717633694
H               -2.4308743151        3.3144572620        1.0892833673
H                3.2027603747        3.9159542651        4.6083580640
H                2.7558795286        0.8939765602        1.8053186620
H                0.5390471373        2.3051624954        4.9706396184
H                2.5679842372        3.5938741988        2.2144356067
H               -2.3824690618        3.2433867915        3.5370583778
H               -0.6491078441        4.7757305201        0.6662499492



     Writing config-only to output data dir ./outdir/mg2nih4_co.save/ :
     XML data file
     NEW-OLD atomic charge density approx. for the potential
     New effective cutoffs (rho, wfc):  537.99   67.26

     Check: negative core charge=   -0.000002

     total cpu time spent up to now is    14950.8 secs

     Self-consistent Calculation

     iteration #  1     ecut=    60.00 Ry     beta= 0.30
     Davidson diagonalization with overlap
     ethr =  1.00E-06,  avg # of iterations =  4.0

     total cpu time spent up to now is    15003.6 secs

     total energy              =   -1926.26973226 Ry
     estimated scf accuracy    <       0.00089314 Ry

     iteration #  2     ecut=    60.00 Ry     beta= 0.30
     Davidson diagonalization with overlap
     ethr =  7.51E-07,  avg # of iterations =  3.0

     total cpu time spent up to now is    15037.6 secs

     total energy              =   -1926.26954405 Ry
     estimated scf accuracy    <       0.00586142 Ry

     iteration #  3     ecut=    60.00 Ry     beta= 0.30
     Davidson diagonalization with overlap
     ethr =  7.51E-07,  avg # of iterations =  3.0

     total cpu time spent up to now is    15070.4 secs

     total energy              =   -1926.26989604 Ry
     estimated scf accuracy    <       0.00137670 Ry

     iteration #  4     ecut=    60.00 Ry     beta= 0.30
     Davidson diagonalization with overlap
     ethr =  7.51E-07,  avg # of iterations =  2.0

     total cpu time spent up to now is    15097.2 secs

     total energy              =   -1926.26998125 Ry
     estimated scf accuracy    <       0.00008064 Ry

     iteration #  5     ecut=    60.00 Ry     beta= 0.30
     Davidson diagonalization with overlap
     ethr =  6.78E-08,  avg # of iterations =  2.0

     total cpu time spent up to now is    15124.9 secs

     total energy              =   -1926.26998436 Ry
     estimated scf accuracy    <       0.00002871 Ry

     iteration #  6     ecut=    60.00 Ry     beta= 0.30
     Davidson diagonalization with overlap
     ethr =  2.41E-08,  avg # of iterations =  1.8

     total cpu time spent up to now is    15152.7 secs

     total energy              =   -1926.26998657 Ry
     estimated scf accuracy    <       0.00001136 Ry

     iteration #  7     ecut=    60.00 Ry     beta= 0.30
     Davidson diagonalization with overlap
     ethr =  9.54E-09,  avg # of iterations =  1.0

     total cpu time spent up to now is    15175.2 secs

     total energy              =   -1926.26998733 Ry
     estimated scf accuracy    <       0.00000088 Ry

     iteration #  8     ecut=    60.00 Ry     beta= 0.30
     Davidson diagonalization with overlap
     ethr =  7.37E-10,  avg # of iterations =  4.6

     total cpu time spent up to now is    15219.5 secs

     total energy              =   -1926.26998752 Ry
     estimated scf accuracy    <       0.00000070 Ry

     iteration #  9     ecut=    60.00 Ry     beta= 0.30
     Davidson diagonalization with overlap
     ethr =  5.91E-10,  avg # of iterations =  1.5

     total cpu time spent up to now is    15247.2 secs

     total energy              =   -1926.26998759 Ry
     estimated scf accuracy    <       0.00000013 Ry

     iteration # 10     ecut=    60.00 Ry     beta= 0.30
     Davidson diagonalization with overlap
     ethr =  1.06E-10,  avg # of iterations =  2.2

     total cpu time spent up to now is    15275.4 secs

     total energy              =   -1926.26998760 Ry
     estimated scf accuracy    <       0.00000001 Ry

     iteration # 11     ecut=    60.00 Ry     beta= 0.30
     Davidson diagonalization with overlap
     ethr =  1.02E-11,  avg # of iterations =  2.5

     total cpu time spent up to now is    15307.4 secs

     total energy              =   -1926.26998760 Ry
     estimated scf accuracy    <       0.00000002 Ry

     iteration # 12     ecut=    60.00 Ry     beta= 0.30
     Davidson diagonalization with overlap
     ethr =  1.02E-11,  avg # of iterations =  1.9

     total cpu time spent up to now is    15336.1 secs

     total energy              =   -1926.26998760 Ry
     estimated scf accuracy    <          8.2E-10 Ry

     iteration # 13     ecut=    60.00 Ry     beta= 0.30
     Davidson diagonalization with overlap
     ethr =  6.93E-13,  avg # of iterations =  2.8

     total cpu time spent up to now is    15371.3 secs

     End of self-consistent calculation

     Number of k-points >= 100: set verbosity='high' to print the bands.

     the Fermi energy is     6.8753 ev

!    total energy              =   -1926.26998760 Ry
     estimated scf accuracy    <          2.7E-10 Ry
     smearing contrib. (-TS)   =      -0.00051873 Ry
     internal energy E=F+TS    =   -1926.26946887 Ry

     The total energy is F=E-TS. E is the sum of the following terms:
     one-electron contribution =   -1698.83557845 Ry
     hartree contribution      =     884.05521593 Ry
     xc contribution           =    -198.34099980 Ry
     ewald contribution        =    -693.73014423 Ry
     DFT-D3 Dispersion         =      -0.36605217 Ry
     one-center paw contrib.   =    -219.05191016 Ry

     convergence has been achieved in  13 iterations

     Forces acting on atoms (cartesian axes, Ry/au):

     atom    1 type  1   force =     0.00008031    0.00071788    0.00350062
     atom    2 type  2   force =    -0.00046266   -0.00110814    0.00075514
     atom    3 type  2   force =    -0.00029988    0.00022947   -0.00365454
     atom    4 type  2   force =     0.00160881   -0.00076151   -0.00113947
     atom    5 type  2   force =     0.00022301    0.00033465    0.00104668
     atom    6 type  2   force =    -0.00038474   -0.00042220    0.00157070
     atom    7 type  2   force =    -0.00044516   -0.00058682    0.00036876
     atom    8 type  2   force =     0.00010490    0.00148223   -0.00017343
     atom    9 type  3   force =    -0.00216535    0.00066705    0.00302056
     atom   10 type  3   force =    -0.00061578    0.00161076   -0.00304293
     atom   11 type  3   force =     0.00132489    0.00043903    0.00168883
     atom   12 type  3   force =     0.00076402   -0.00238840   -0.00067344
     atom   13 type  4   force =     0.00103965   -0.00095201   -0.00092210
     atom   14 type  4   force =     0.00011881    0.00095342    0.00030900
     atom   15 type  4   force =    -0.00226739    0.00086426   -0.00059955
     atom   16 type  4   force =     0.00061412    0.00031604   -0.00034189
     atom   17 type  4   force =    -0.00016420   -0.00114420    0.00002680
     atom   18 type  4   force =     0.00023044    0.00061890   -0.00043748
     atom   19 type  4   force =     0.00098806    0.00126499   -0.00025645
     atom   20 type  4   force =    -0.00122274    0.00066861   -0.00180814
     atom   21 type  4   force =    -0.00253810   -0.00019821   -0.00203956
     atom   22 type  4   force =    -0.00157144   -0.00148231    0.00157246
     atom   23 type  4   force =     0.00027586   -0.00025945    0.00073186
     atom   24 type  4   force =     0.00106858   -0.00089482   -0.00122511
     atom   25 type  4   force =     0.00031740    0.00160328    0.00026660
     atom   26 type  4   force =     0.00099139    0.00018986    0.00029803
     atom   27 type  4   force =     0.00055604   -0.00077839    0.00052384
     atom   28 type  4   force =     0.00183117   -0.00098395    0.00063421

     Total force =     0.011399     Total SCF correction =     0.000032


     Computing stress (Cartesian axis) and pressure

          total   stress  (Ry/bohr**3)                   (kbar)     P=        0.88
   0.00000222   0.00000412  -0.00000635            0.33        0.61       -0.93
   0.00000412   0.00001133   0.00000307            0.61        1.67        0.45
  -0.00000635   0.00000307   0.00000438           -0.93        0.45        0.64

     Energy error            =      2.9E-04 Ry
     Gradient error          =      3.7E-03 Ry/Bohr
     Cell gradient error     =      1.7E+00 kbar

     number of scf cycles    =  31
     number of bfgs steps    =  30

     enthalpy           old  =   -1926.2696970987 Ry
     enthalpy           new  =   -1926.2699876028 Ry

     CASE: enthalpy          _new < enthalpy          _old

     new trust radius        =       0.0162573944 bohr
     new conv_thr            =       0.0000000003 Ry

     new unit-cell volume =   1657.48581 a.u.^3 (   245.61406 Ang^3 )
     density =      3.24496 g/cm^3

CELL_PARAMETERS (angstrom)
   7.525447866  -0.022000686   0.008806396
  -5.048295482   5.771998245   0.112902490
  -2.242694888   1.158956463   5.690158661

ATOMIC_POSITIONS (angstrom)
Co              -4.1643274456        5.3194231641        5.4798645433
Mg              -2.9616257109        4.8943919565        2.6160709906
Mg               3.3280623497        2.0332392181        3.1916740771
Mg               4.3788479813        1.5572445985        0.2522421203
Mg               0.8701515201        6.5158223721        4.4389429916
Mg              -0.5751951083        0.3039592764        1.3978549879
Mg              -0.5615971412        3.7835481090        4.2957052961
Mg               0.6232134922        3.1609706487        1.4253262272
Ni              -1.6841390950        6.0939920411        5.2229442049
Ni              -1.7760456714        2.4956356310        2.3248787420
Ni               2.0775209885        4.3254311930        3.4808564188
Ni               1.8868034523        0.8267400581        0.5351464716
H               -0.4307259996        5.3483194346        5.7314973153
H               -0.3537827356        2.0504574936        2.7661921526
H                0.6679738629        4.8054641384        3.0268927613
H                0.5702539624        1.4918108901        0.1175325861
H                5.0208802480        1.1144777789        2.1744479274
H                3.8235721759        1.8045211641        5.1761713122
H               -3.2440859062        4.9786633954        0.4343461354
H               -4.8128672561        5.7427905840        4.0214321020
H               -2.9902050526        6.0468834560        4.3742249795
H               -2.4382949937        3.3131365286        1.0914504920
H                3.2035908722        3.9143441151        4.6014701368
H                2.7563913510        0.8883130826        1.7998026162
H                0.5354507300        2.3127782429        4.9693981509
H                2.5653374298        3.5927384124        2.2117305670
H               -2.3866813194        3.2409290382        3.5365462943
H               -0.6460720294        4.7693302853        0.6715030674



     Writing config-only to output data dir ./outdir/mg2nih4_co.save/ :
     XML data file
     NEW-OLD atomic charge density approx. for the potential
     New effective cutoffs (rho, wfc):  538.90   67.38

     Check: negative core charge=   -0.000002

     total cpu time spent up to now is    15388.1 secs

     Self-consistent Calculation

     iteration #  1     ecut=    60.00 Ry     beta= 0.30
     Davidson diagonalization with overlap
     ethr =  1.00E-06,  avg # of iterations =  4.0

     total cpu time spent up to now is    15439.7 secs

     total energy              =   -1926.26984199 Ry
     estimated scf accuracy    <       0.00104434 Ry

     iteration #  2     ecut=    60.00 Ry     beta= 0.30
     Davidson diagonalization with overlap
     ethr =  8.78E-07,  avg # of iterations =  3.0

     total cpu time spent up to now is    15474.2 secs

     total energy              =   -1926.26926700 Ry
     estimated scf accuracy    <       0.01913509 Ry

     iteration #  3     ecut=    60.00 Ry     beta= 0.30
     Davidson diagonalization with overlap
     ethr =  8.78E-07,  avg # of iterations =  3.0

     total cpu time spent up to now is    15506.7 secs

     total energy              =   -1926.27018537 Ry
     estimated scf accuracy    <       0.00022214 Ry

     iteration #  4     ecut=    60.00 Ry     beta= 0.30
     Davidson diagonalization with overlap
     ethr =  1.87E-07,  avg # of iterations =  2.0

     total cpu time spent up to now is    15534.6 secs

     total energy              =   -1926.27020663 Ry
     estimated scf accuracy    <       0.00009825 Ry

     iteration #  5     ecut=    60.00 Ry     beta= 0.30
     Davidson diagonalization with overlap
     ethr =  8.26E-08,  avg # of iterations =  1.4

     total cpu time spent up to now is    15561.4 secs

     total energy              =   -1926.27021223 Ry
     estimated scf accuracy    <       0.00001873 Ry

     iteration #  6     ecut=    60.00 Ry     beta= 0.30
     Davidson diagonalization with overlap
     ethr =  1.57E-08,  avg # of iterations =  2.0

     total cpu time spent up to now is    15588.9 secs

     total energy              =   -1926.27021399 Ry
     estimated scf accuracy    <       0.00001020 Ry

     iteration #  7     ecut=    60.00 Ry     beta= 0.30
     Davidson diagonalization with overlap
     ethr =  8.57E-09,  avg # of iterations =  1.0

     total cpu time spent up to now is    15611.5 secs

     total energy              =   -1926.27021456 Ry
     estimated scf accuracy    <       0.00000089 Ry

     iteration #  8     ecut=    60.00 Ry     beta= 0.30
     Davidson diagonalization with overlap
     ethr =  7.49E-10,  avg # of iterations =  3.1

     total cpu time spent up to now is    15650.5 secs

     total energy              =   -1926.27021465 Ry
     estimated scf accuracy    <       0.00000114 Ry

     iteration #  9     ecut=    60.00 Ry     beta= 0.30
     Davidson diagonalization with overlap
     ethr =  7.49E-10,  avg # of iterations =  1.4

     total cpu time spent up to now is    15677.3 secs

     total energy              =   -1926.27021474 Ry
     estimated scf accuracy    <       0.00000008 Ry

     iteration # 10     ecut=    60.00 Ry     beta= 0.30
     Davidson diagonalization with overlap
     ethr =  7.13E-11,  avg # of iterations =  4.1

     total cpu time spent up to now is    15725.6 secs

     total energy              =   -1926.27021479 Ry
     estimated scf accuracy    <       0.00000007 Ry

     iteration # 11     ecut=    60.00 Ry     beta= 0.30
     Davidson diagonalization with overlap
     ethr =  6.04E-11,  avg # of iterations =  1.0

     total cpu time spent up to now is    15748.4 secs

     total energy              =   -1926.27021480 Ry
     estimated scf accuracy    <       0.00000001 Ry

     iteration # 12     ecut=    60.00 Ry     beta= 0.30
     Davidson diagonalization with overlap
     ethr =  8.54E-12,  avg # of iterations =  2.0

     total cpu time spent up to now is    15776.6 secs

     total energy              =   -1926.27021480 Ry
     estimated scf accuracy    <          2.1E-09 Ry

     iteration # 13     ecut=    60.00 Ry     beta= 0.30
     Davidson diagonalization with overlap
     ethr =  1.77E-12,  avg # of iterations =  1.0

     total cpu time spent up to now is    15799.2 secs

     End of self-consistent calculation

     Number of k-points >= 100: set verbosity='high' to print the bands.

     the Fermi energy is     6.8963 ev

!    total energy              =   -1926.27021480 Ry
     estimated scf accuracy    <          1.8E-10 Ry
     smearing contrib. (-TS)   =      -0.00051438 Ry
     internal energy E=F+TS    =   -1926.26970042 Ry

     The total energy is F=E-TS. E is the sum of the following terms:
     one-electron contribution =   -1698.31555065 Ry
     hartree contribution      =     883.87770698 Ry
     xc contribution           =    -198.35440370 Ry
     ewald contribution        =    -694.05681384 Ry
     DFT-D3 Dispersion         =      -0.36677443 Ry
     one-center paw contrib.   =    -219.05386478 Ry

     convergence has been achieved in  13 iterations

     Forces acting on atoms (cartesian axes, Ry/au):

     atom    1 type  1   force =     0.00001735   -0.00013037    0.00257669
     atom    2 type  2   force =    -0.00030177   -0.00067727    0.00057873
     atom    3 type  2   force =    -0.00026221    0.00008458   -0.00321844
     atom    4 type  2   force =     0.00186130   -0.00080883   -0.00069132
     atom    5 type  2   force =    -0.00017984    0.00035226    0.00044715
     atom    6 type  2   force =    -0.00026443    0.00032390    0.00160826
     atom    7 type  2   force =    -0.00040449   -0.00054511    0.00024908
     atom    8 type  2   force =    -0.00021462    0.00088969    0.00002954
     atom    9 type  3   force =    -0.00100745    0.00198241    0.00275993
     atom   10 type  3   force =     0.00055410    0.00007499   -0.00250859
     atom   11 type  3   force =    -0.00086860   -0.00004621    0.00119250
     atom   12 type  3   force =    -0.00025866   -0.00131984   -0.00062454
     atom   13 type  4   force =     0.00104848   -0.00096772   -0.00084233
     atom   14 type  4   force =    -0.00095219    0.00117083    0.00019603
     atom   15 type  4   force =    -0.00138256    0.00061438   -0.00047140
     atom   16 type  4   force =     0.00060239    0.00020170   -0.00015055
     atom   17 type  4   force =     0.00048596   -0.00006924    0.00015269
     atom   18 type  4   force =    -0.00020379   -0.00071903   -0.00058338
     atom   19 type  4   force =     0.00080999    0.00073021    0.00003221
     atom   20 type  4   force =    -0.00052859    0.00085510   -0.00151148
     atom   21 type  4   force =    -0.00239630    0.00025326   -0.00216408
     atom   22 type  4   force =    -0.00190740   -0.00124612    0.00134101
     atom   23 type  4   force =     0.00046038    0.00019112    0.00108162
     atom   24 type  4   force =     0.00162709   -0.00097811   -0.00041703
     atom   25 type  4   force =     0.00020732    0.00124633   -0.00033393
     atom   26 type  4   force =     0.00096445    0.00041833   -0.00002848
     atom   27 type  4   force =     0.00082226   -0.00117954    0.00051946
     atom   28 type  4   force =     0.00167183   -0.00070172    0.00078063

     Total force =     0.009796     Total SCF correction =     0.000025


     Computing stress (Cartesian axis) and pressure

          total   stress  (Ry/bohr**3)                   (kbar)     P=        2.39
   0.00001237   0.00000463  -0.00000290            1.82        0.68       -0.43
   0.00000463   0.00001934   0.00000166            0.68        2.85        0.24
  -0.00000290   0.00000166   0.00001696           -0.43        0.24        2.50

     Energy error            =      2.3E-04 Ry
     Gradient error          =      3.2E-03 Ry/Bohr
     Cell gradient error     =      2.8E+00 kbar

     number of scf cycles    =  32
     number of bfgs steps    =  31

     enthalpy           old  =   -1926.2699876028 Ry
     enthalpy           new  =   -1926.2702147990 Ry

     CASE: enthalpy          _new < enthalpy          _old

     new trust radius        =       0.0238635692 bohr
     new conv_thr            =       0.0000000002 Ry

     new unit-cell volume =   1656.48737 a.u.^3 (   245.46610 Ang^3 )
     density =      3.24691 g/cm^3

CELL_PARAMETERS (angstrom)
   7.524935320  -0.021681228   0.000532583
  -5.047587812   5.771440491   0.120779321
  -2.248780708   1.161225028   5.690448427

ATOMIC_POSITIONS (angstrom)
Co              -4.1702494164        5.3224450292        5.4909056941
Mg              -2.9656592498        4.8931469743        2.6238935619
Mg               3.3229004444        2.0318610923        3.1778902394
Mg               4.3836720745        1.5561476394        0.2406424019
Mg               0.8640977199        6.5194389083        4.4404679787
Mg              -0.5767327130        0.3023558470        1.3994485082
Mg              -0.5679026555        3.7868442975        4.2946084809
Mg               0.6233242727        3.1629753944        1.4248470152
Ni              -1.6928264920        6.0956320683        5.2262154424
Ni              -1.7805910131        2.4973346963        2.3233822676
Ni               2.0791945396        4.3279971426        3.4809299100
Ni               1.8876439499        0.8263667709        0.5334433677
H               -0.4345161794        5.3510193635        5.7283237232
H               -0.3544185648        2.0544654950        2.7644436120
H                0.6635014855        4.8054540387        3.0295240810
H                0.5712019304        1.4911121437        0.1137439247
H                5.0179574453        1.1110952942        2.1666768627
H                3.8202090850        1.8077165864        5.1666746844
H               -3.2405812413        4.9822286468        0.4380941250
H               -4.8251382637        5.7468185101        4.0312055158
H               -3.0040875134        6.0458156707        4.3818115300
H               -2.4506702976        3.3117920529        1.0980177804
H                3.2086439607        3.9181330697        4.5963176676
H                2.7596818202        0.8812378337        1.7932420151
H                0.5305223140        2.3264846648        4.9721622926
H                2.5642470585        3.5954193805        2.2103783550
H               -2.3929224814        3.2386344862        3.5382800064
H               -0.6405668178        4.7638069761        0.6790735927



     Writing config-only to output data dir ./outdir/mg2nih4_co.save/ :
     XML data file
     NEW-OLD atomic charge density approx. for the potential
     New effective cutoffs (rho, wfc):  539.34   67.45

     Check: negative core charge=   -0.000002

     total cpu time spent up to now is    15816.0 secs

     Self-consistent Calculation

     iteration #  1     ecut=    60.00 Ry     beta= 0.30
     Davidson diagonalization with overlap
     ethr =  1.00E-06,  avg # of iterations =  4.0

     total cpu time spent up to now is    15869.1 secs

     total energy              =   -1926.26989303 Ry
     estimated scf accuracy    <       0.00165802 Ry

     iteration #  2     ecut=    60.00 Ry     beta= 0.30
     Davidson diagonalization with overlap
     ethr =  1.39E-06,  avg # of iterations =  3.1

     total cpu time spent up to now is    15905.7 secs

     total energy              =   -1926.26889525 Ry
     estimated scf accuracy    <       0.03334104 Ry

     iteration #  3     ecut=    60.00 Ry     beta= 0.30
     Davidson diagonalization with overlap
     ethr =  1.39E-06,  avg # of iterations =  3.0

     total cpu time spent up to now is    15938.2 secs

     total energy              =   -1926.27046549 Ry
     estimated scf accuracy    <       0.00014202 Ry

     iteration #  4     ecut=    60.00 Ry     beta= 0.30
     Davidson diagonalization with overlap
     ethr =  1.19E-07,  avg # of iterations =  2.0

     total cpu time spent up to now is    15966.7 secs

     total energy              =   -1926.27046392 Ry
     estimated scf accuracy    <       0.00024750 Ry

     iteration #  5     ecut=    60.00 Ry     beta= 0.30
     Davidson diagonalization with overlap
     ethr =  1.19E-07,  avg # of iterations =  1.6

     total cpu time spent up to now is    15994.3 secs

     total energy              =   -1926.27048090 Ry
     estimated scf accuracy    <       0.00001368 Ry

     iteration #  6     ecut=    60.00 Ry     beta= 0.30
     Davidson diagonalization with overlap
     ethr =  1.15E-08,  avg # of iterations =  2.0

     total cpu time spent up to now is    16023.1 secs

     total energy              =   -1926.27048174 Ry
     estimated scf accuracy    <       0.00001112 Ry

     iteration #  7     ecut=    60.00 Ry     beta= 0.30
     Davidson diagonalization with overlap
     ethr =  9.34E-09,  avg # of iterations =  1.2

     total cpu time spent up to now is    16048.1 secs

     total energy              =   -1926.27048232 Ry
     estimated scf accuracy    <       0.00000218 Ry

     iteration #  8     ecut=    60.00 Ry     beta= 0.30
     Davidson diagonalization with overlap
     ethr =  1.83E-09,  avg # of iterations =  2.0

     total cpu time spent up to now is    16076.1 secs

     total energy              =   -1926.27048250 Ry
     estimated scf accuracy    <       0.00000121 Ry

     iteration #  9     ecut=    60.00 Ry     beta= 0.30
     Davidson diagonalization with overlap
     ethr =  1.02E-09,  avg # of iterations =  1.6

     total cpu time spent up to now is    16104.2 secs

     total energy              =   -1926.27048261 Ry
     estimated scf accuracy    <       0.00000020 Ry

     iteration # 10     ecut=    60.00 Ry     beta= 0.30
     Davidson diagonalization with overlap
     ethr =  1.65E-10,  avg # of iterations =  4.0

     total cpu time spent up to now is    16152.0 secs

     total energy              =   -1926.27048273 Ry
     estimated scf accuracy    <       0.00000008 Ry

     iteration # 11     ecut=    60.00 Ry     beta= 0.30
     Davidson diagonalization with overlap
     ethr =  6.73E-11,  avg # of iterations =  1.0

     total cpu time spent up to now is    16174.7 secs

     total energy              =   -1926.27048273 Ry
     estimated scf accuracy    <       0.00000002 Ry

     iteration # 12     ecut=    60.00 Ry     beta= 0.30
     Davidson diagonalization with overlap
     ethr =  1.99E-11,  avg # of iterations =  2.0

     total cpu time spent up to now is    16202.2 secs

     total energy              =   -1926.27048273 Ry
     estimated scf accuracy    <          2.0E-09 Ry

     iteration # 13     ecut=    60.00 Ry     beta= 0.30
     Davidson diagonalization with overlap
     ethr =  1.65E-12,  avg # of iterations =  2.0

     total cpu time spent up to now is    16229.4 secs

     total energy              =   -1926.27048273 Ry
     estimated scf accuracy    <          2.6E-10 Ry

     iteration # 14     ecut=    60.00 Ry     beta= 0.30
     Davidson diagonalization with overlap
     ethr =  2.16E-13,  avg # of iterations =  2.0

     total cpu time spent up to now is    16256.6 secs

     End of self-consistent calculation

     Number of k-points >= 100: set verbosity='high' to print the bands.

     the Fermi energy is     6.9025 ev

!    total energy              =   -1926.27048273 Ry
     estimated scf accuracy    <          2.6E-11 Ry
     smearing contrib. (-TS)   =      -0.00050832 Ry
     internal energy E=F+TS    =   -1926.26997441 Ry

     The total energy is F=E-TS. E is the sum of the following terms:
     one-electron contribution =   -1698.61992694 Ry
     hartree contribution      =     884.05394715 Ry
     xc contribution           =    -198.35695237 Ry
     ewald contribution        =    -693.92542547 Ry
     DFT-D3 Dispersion         =      -0.36699379 Ry
     one-center paw contrib.   =    -219.05462300 Ry

     convergence has been achieved in  14 iterations

     Forces acting on atoms (cartesian axes, Ry/au):

     atom    1 type  1   force =     0.00014919   -0.00118257    0.00110329
     atom    2 type  2   force =    -0.00019026   -0.00016356    0.00027226
     atom    3 type  2   force =    -0.00016744   -0.00015746   -0.00230221
     atom    4 type  2   force =     0.00184022   -0.00087245   -0.00028857
     atom    5 type  2   force =    -0.00064871    0.00021277   -0.00010390
     atom    6 type  2   force =     0.00000171    0.00121064    0.00152657
     atom    7 type  2   force =    -0.00035324   -0.00044062    0.00013908
     atom    8 type  2   force =    -0.00059019    0.00012438    0.00023911
     atom    9 type  3   force =     0.00016743    0.00278098    0.00149818
     atom   10 type  3   force =     0.00148426   -0.00150310   -0.00130326
     atom   11 type  3   force =    -0.00305737   -0.00047301    0.00051728
     atom   12 type  3   force =    -0.00103175    0.00025974   -0.00027740
     atom   13 type  4   force =     0.00063617   -0.00085077   -0.00085426
     atom   14 type  4   force =    -0.00184088    0.00132755    0.00009224
     atom   15 type  4   force =    -0.00031712    0.00020462   -0.00020518
     atom   16 type  4   force =     0.00051134    0.00008028    0.00018328
     atom   17 type  4   force =     0.00125942    0.00121766    0.00036372
     atom   18 type  4   force =    -0.00056551   -0.00180615   -0.00080096
     atom   19 type  4   force =     0.00039031    0.00002741    0.00041051
     atom   20 type  4   force =     0.00035635    0.00071899   -0.00083681
     atom   21 type  4   force =    -0.00155466    0.00075425   -0.00170237
     atom   22 type  4   force =    -0.00222548   -0.00039970    0.00025601
     atom   23 type  4   force =     0.00039175    0.00059653    0.00141694
     atom   24 type  4   force =     0.00209776   -0.00115277    0.00026863
     atom   25 type  4   force =     0.00011822    0.00078468   -0.00079158
     atom   26 type  4   force =     0.00075129    0.00084557   -0.00008827
     atom   27 type  4   force =     0.00125417   -0.00170986    0.00030661
     atom   28 type  4   force =     0.00113301   -0.00043408    0.00096107

     Total force =     0.009493     Total SCF correction =     0.000022


     Computing stress (Cartesian axis) and pressure

          total   stress  (Ry/bohr**3)                   (kbar)     P=        2.70
   0.00001485   0.00000374   0.00000089            2.18        0.55        0.13
   0.00000374   0.00002040  -0.00000016            0.55        3.00       -0.02
   0.00000089  -0.00000016   0.00001987            0.13       -0.02        2.92

     Energy error            =      2.7E-04 Ry
     Gradient error          =      3.1E-03 Ry/Bohr
     Cell gradient error     =      3.0E+00 kbar

     number of scf cycles    =  33
     number of bfgs steps    =  32

     enthalpy           old  =   -1926.2702147990 Ry
     enthalpy           new  =   -1926.2704827333 Ry

     CASE: enthalpy          _new < enthalpy          _old

     new trust radius        =       0.0274351089 bohr
     new conv_thr            =       0.0000000003 Ry

     new unit-cell volume =   1658.58599 a.u.^3 (   245.77709 Ang^3 )
     density =      3.24280 g/cm^3

CELL_PARAMETERS (angstrom)
   7.528331315  -0.020177374  -0.007911757
  -5.048638154   5.774042296   0.129322168
  -2.256020095   1.164410875   5.694680225

ATOMIC_POSITIONS (angstrom)
Co              -4.1779318333        5.3273108774        5.5059615527
Mg              -2.9706418140        4.8951989171        2.6346126915
Mg               3.3199222462        2.0322835693        3.1645400945
Mg               4.3925271306        1.5568158077        0.2283921031
Mg               0.8586865876        6.5286534634        4.4452097195
Mg              -0.5787559557        0.3015049578        1.4027594931
Mg              -0.5745102681        3.7934632148        4.2965712005
Mg               0.6236478454        3.1668461064        1.4256319946
Ni              -1.7017583425        6.1032795294        5.2342764122
Ni              -1.7846480085        2.4993535948        2.3231725484
Ni               2.0806943784        4.3336687232        3.4837894887
Ni               1.8889690258        0.8274961248        0.5321079956
H               -0.4379298925        5.3580507927        5.7294424511
H               -0.3565508037        2.0604876690        2.7652276420
H                0.6607414366        4.8094799224        3.0340561569
H                0.5727063559        1.4907044259        0.1095723407
H                5.0190108416        1.1110128586        2.1596931014
H                3.8180533100        1.8112670661        5.1596567815
H               -3.2359852817        4.9890722484        0.4427104941
H               -4.8398618352        5.7539092378        4.0457223273
H               -3.0205954844        6.0494887225        4.3936536398
H               -2.4659580844        3.3116251059        1.1068708627
H                3.2181103230        3.9269849426        4.5947027116
H                2.7657813311        0.8742573564        1.7875425387
H                0.5255870850        2.3439339862        4.9786674539
H                2.5651849441        3.6022143248        2.2112211706
H               -2.3992106709        3.2364668432        3.5418938979
H               -0.6338616463        4.7610307756        0.6876100437



     Writing config-only to output data dir ./outdir/mg2nih4_co.save/ :
     XML data file
     NEW-OLD atomic charge density approx. for the potential
     New effective cutoffs (rho, wfc):  539.16   67.44

     Check: negative core charge=   -0.000002

     total cpu time spent up to now is    16273.4 secs

     Self-consistent Calculation

     iteration #  1     ecut=    60.00 Ry     beta= 0.30
     Davidson diagonalization with overlap
     ethr =  1.00E-06,  avg # of iterations =  4.0

     total cpu time spent up to now is    16326.2 secs

     total energy              =   -1926.27030353 Ry
     estimated scf accuracy    <       0.00126921 Ry

     iteration #  2     ecut=    60.00 Ry     beta= 0.30
     Davidson diagonalization with overlap
     ethr =  1.07E-06,  avg # of iterations =  3.0

     total cpu time spent up to now is    16360.0 secs

     total energy              =   -1926.26963037 Ry
     estimated scf accuracy    <       0.02177040 Ry

     iteration #  3     ecut=    60.00 Ry     beta= 0.30
     Davidson diagonalization with overlap
     ethr =  1.07E-06,  avg # of iterations =  3.0

     total cpu time spent up to now is    16392.1 secs

     total energy              =   -1926.27068874 Ry
     estimated scf accuracy    <       0.00030041 Ry

     iteration #  4     ecut=    60.00 Ry     beta= 0.30
     Davidson diagonalization with overlap
     ethr =  2.52E-07,  avg # of iterations =  2.0

     total cpu time spent up to now is    16419.5 secs

     total energy              =   -1926.27070704 Ry
     estimated scf accuracy    <       0.00017043 Ry

     iteration #  5     ecut=    60.00 Ry     beta= 0.30
     Davidson diagonalization with overlap
     ethr =  1.43E-07,  avg # of iterations =  1.6

     total cpu time spent up to now is    16447.6 secs

     total energy              =   -1926.27071688 Ry
     estimated scf accuracy    <       0.00003912 Ry

     iteration #  6     ecut=    60.00 Ry     beta= 0.30
     Davidson diagonalization with overlap
     ethr =  3.29E-08,  avg # of iterations =  2.0

     total cpu time spent up to now is    16475.0 secs

     total energy              =   -1926.27072063 Ry
     estimated scf accuracy    <       0.00001750 Ry

     iteration #  7     ecut=    60.00 Ry     beta= 0.30
     Davidson diagonalization with overlap
     ethr =  1.47E-08,  avg # of iterations =  1.0

     total cpu time spent up to now is    16497.6 secs

     total energy              =   -1926.27072172 Ry
     estimated scf accuracy    <       0.00000087 Ry

     iteration #  8     ecut=    60.00 Ry     beta= 0.30
     Davidson diagonalization with overlap
     ethr =  7.28E-10,  avg # of iterations =  4.0

     total cpu time spent up to now is    16540.9 secs

     total energy              =   -1926.27072197 Ry
     estimated scf accuracy    <       0.00000173 Ry

     iteration #  9     ecut=    60.00 Ry     beta= 0.30
     Davidson diagonalization with overlap
     ethr =  7.28E-10,  avg # of iterations =  1.8

     total cpu time spent up to now is    16569.4 secs

     total energy              =   -1926.27072208 Ry
     estimated scf accuracy    <       0.00000010 Ry

     iteration # 10     ecut=    60.00 Ry     beta= 0.30
     Davidson diagonalization with overlap
     ethr =  8.46E-11,  avg # of iterations =  2.0

     total cpu time spent up to now is    16598.3 secs

     total energy              =   -1926.27072210 Ry
     estimated scf accuracy    <       0.00000006 Ry

     iteration # 11     ecut=    60.00 Ry     beta= 0.30
     Davidson diagonalization with overlap
     ethr =  4.78E-11,  avg # of iterations =  1.5

     total cpu time spent up to now is    16625.6 secs

     total energy              =   -1926.27072210 Ry
     estimated scf accuracy    <       0.00000002 Ry

     iteration # 12     ecut=    60.00 Ry     beta= 0.30
     Davidson diagonalization with overlap
     ethr =  1.83E-11,  avg # of iterations =  1.8

     total cpu time spent up to now is    16654.7 secs

     total energy              =   -1926.27072210 Ry
     estimated scf accuracy    <          1.5E-09 Ry

     iteration # 13     ecut=    60.00 Ry     beta= 0.30
     Davidson diagonalization with overlap
     ethr =  1.22E-12,  avg # of iterations =  2.0

     total cpu time spent up to now is    16683.0 secs

     End of self-consistent calculation

     Number of k-points >= 100: set verbosity='high' to print the bands.

     the Fermi energy is     6.8894 ev

!    total energy              =   -1926.27072210 Ry
     estimated scf accuracy    <          1.5E-10 Ry
     smearing contrib. (-TS)   =      -0.00049746 Ry
     internal energy E=F+TS    =   -1926.27022464 Ry

     The total energy is F=E-TS. E is the sum of the following terms:
     one-electron contribution =   -1699.64035424 Ry
     hartree contribution      =     884.51209031 Ry
     xc contribution           =    -198.34598021 Ry
     ewald contribution        =    -693.37564836 Ry
     DFT-D3 Dispersion         =      -0.36655992 Ry
     one-center paw contrib.   =    -219.05377223 Ry

     convergence has been achieved in  13 iterations

     Forces acting on atoms (cartesian axes, Ry/au):

     atom    1 type  1   force =     0.00047608   -0.00189856   -0.00016734
     atom    2 type  2   force =    -0.00017060    0.00020161   -0.00004707
     atom    3 type  2   force =    -0.00006617   -0.00029584   -0.00120964
     atom    4 type  2   force =     0.00154256   -0.00092100    0.00001336
     atom    5 type  2   force =    -0.00097612   -0.00004177   -0.00035941
     atom    6 type  2   force =     0.00032149    0.00189230    0.00126874
     atom    7 type  2   force =    -0.00028834   -0.00028738    0.00004261
     atom    8 type  2   force =    -0.00087579   -0.00045930    0.00031716
     atom    9 type  3   force =     0.00070977    0.00238873   -0.00006489
     atom   10 type  3   force =     0.00159824   -0.00201440   -0.00015744
     atom   11 type  3   force =    -0.00394359   -0.00068348    0.00019537
     atom   12 type  3   force =    -0.00107700    0.00150607    0.00034887
     atom   13 type  4   force =    -0.00012772   -0.00061778   -0.00096495
     atom   14 type  4   force =    -0.00199422    0.00129539    0.00008774
     atom   15 type  4   force =     0.00028852   -0.00016590    0.00004639
     atom   16 type  4   force =     0.00026651    0.00005088    0.00052422
     atom   17 type  4   force =     0.00173627    0.00199475    0.00052065
     atom   18 type  4   force =    -0.00061734   -0.00204337   -0.00101126
     atom   19 type  4   force =    -0.00006315   -0.00043269    0.00071961
     atom   20 type  4   force =     0.00107782    0.00018066   -0.00011725
     atom   21 type  4   force =    -0.00023385    0.00116200   -0.00083068
     atom   22 type  4   force =    -0.00222950    0.00057316   -0.00108165
     atom   23 type  4   force =    -0.00012040    0.00084322    0.00146138
     atom   24 type  4   force =     0.00224809   -0.00140130    0.00045001
     atom   25 type  4   force =     0.00005637    0.00032362   -0.00085847
     atom   26 type  4   force =     0.00045077    0.00125987    0.00006324
     atom   27 type  4   force =     0.00163884   -0.00208571   -0.00001771
     atom   28 type  4   force =     0.00037246   -0.00032378    0.00082844

     Total force =     0.010013     Total SCF correction =     0.000040


     Computing stress (Cartesian axis) and pressure

          total   stress  (Ry/bohr**3)                   (kbar)     P=        1.50
   0.00000776   0.00000151   0.00000357            1.14        0.22        0.53
   0.00000151   0.00001310  -0.00000146            0.22        1.93       -0.22
   0.00000357  -0.00000146   0.00000969            0.53       -0.22        1.43

     Energy error            =      2.4E-04 Ry
     Gradient error          =      3.9E-03 Ry/Bohr
     Cell gradient error     =      1.9E+00 kbar

     number of scf cycles    =  34
     number of bfgs steps    =  33

     enthalpy           old  =   -1926.2704827333 Ry
     enthalpy           new  =   -1926.2707221029 Ry

     CASE: enthalpy          _new < enthalpy          _old

     new trust radius        =       0.0228080240 bohr
     new conv_thr            =       0.0000000002 Ry

     new unit-cell volume =   1661.88117 a.u.^3 (   246.26538 Ang^3 )
     density =      3.23637 g/cm^3

CELL_PARAMETERS (angstrom)
   7.532697890  -0.018416081  -0.013639432
  -5.050198798   5.778228272   0.135308870
  -2.261455123   1.167044224   5.699563027

ATOMIC_POSITIONS (angstrom)
Co              -4.1837303179        5.3313082585        5.5181856090
Mg              -2.9746334639        4.8988194765        2.6433179663
Mg               3.3190187072        2.0336139207        3.1549822887
Mg               4.4013520888        1.5579193902        0.2195028464
Mg               0.8550522499        6.5386935544        4.4500330286
Mg              -0.5801852099        0.3020827519        1.4065775482
Mg              -0.5792078055        3.7999540211        4.2994922843
Mg               0.6237870415        3.1709017533        1.4268810425
Ni              -1.7077168728        6.1130802446        5.2418256792
Ni              -1.7868069958        2.5006079151        2.3235719124
Ni               2.0805784689        4.3396934423        3.4872359114
Ni               1.8900644729        0.8298018439        0.5316329547
H               -0.4401070561        5.3654323865        5.7316840526
H               -0.3593116152        2.0665503102        2.7671015070
H                0.6597963848        4.8148693748        3.0381701901
H                0.5742287102        1.4909144168        0.1067409698
H                5.0225578544        1.1135998381        2.1557292463
H                3.8172499639        1.8134502053        5.1556592008
H               -3.2322824016        4.9960805241        0.4464507911
H               -4.8508498096        5.7609023095        4.0576305017
H               -3.0329873083        6.0556467478        4.4036364478
H               -2.4789916842        3.3128152989        1.1134550320
H                3.2267937555        3.9365721216        4.5961284045
H                2.7724313808        0.8687972955        1.7839386712
H                0.5224088347        2.3583152270        4.9849257433
H                2.5671566610        3.6102237476        2.2132068909
H               -2.4026871268        3.2343648148        3.5451224411
H               -0.6283633459        4.7609786237        0.6944353536



     Writing config-only to output data dir ./outdir/mg2nih4_co.save/ :
     XML data file
     NEW-OLD atomic charge density approx. for the potential
     New effective cutoffs (rho, wfc):  538.93   67.41

     Check: negative core charge=   -0.000002

     total cpu time spent up to now is    16699.8 secs

     Self-consistent Calculation

     iteration #  1     ecut=    60.00 Ry     beta= 0.30
     Davidson diagonalization with overlap
     ethr =  1.00E-06,  avg # of iterations =  4.0

     total cpu time spent up to now is    16751.8 secs

     total energy              =   -1926.27077635 Ry
     estimated scf accuracy    <       0.00047077 Ry

     iteration #  2     ecut=    60.00 Ry     beta= 0.30
     Davidson diagonalization with overlap
     ethr =  3.96E-07,  avg # of iterations =  3.0

     total cpu time spent up to now is    16785.5 secs

     total energy              =   -1926.27064907 Ry
     estimated scf accuracy    <       0.00361766 Ry

     iteration #  3     ecut=    60.00 Ry     beta= 0.30
     Davidson diagonalization with overlap
     ethr =  3.96E-07,  avg # of iterations =  3.0

     total cpu time spent up to now is    16817.3 secs

     total energy              =   -1926.27085565 Ry
     estimated scf accuracy    <       0.00056251 Ry

     iteration #  4     ecut=    60.00 Ry     beta= 0.30
     Davidson diagonalization with overlap
     ethr =  3.96E-07,  avg # of iterations =  1.0

     total cpu time spent up to now is    16840.3 secs

     total energy              =   -1926.27089002 Ry
     estimated scf accuracy    <       0.00006102 Ry

     iteration #  5     ecut=    60.00 Ry     beta= 0.30
     Davidson diagonalization with overlap
     ethr =  5.13E-08,  avg # of iterations =  2.0

     total cpu time spent up to now is    16868.2 secs

     total energy              =   -1926.27089286 Ry
     estimated scf accuracy    <       0.00002766 Ry

     iteration #  6     ecut=    60.00 Ry     beta= 0.30
     Davidson diagonalization with overlap
     ethr =  2.32E-08,  avg # of iterations =  1.2

     total cpu time spent up to now is    16892.8 secs

     total energy              =   -1926.27089520 Ry
     estimated scf accuracy    <       0.00000850 Ry

     iteration #  7     ecut=    60.00 Ry     beta= 0.30
     Davidson diagonalization with overlap
     ethr =  7.14E-09,  avg # of iterations =  1.3

     total cpu time spent up to now is    16919.0 secs

     total energy              =   -1926.27089579 Ry
     estimated scf accuracy    <       0.00000108 Ry

     iteration #  8     ecut=    60.00 Ry     beta= 0.30
     Davidson diagonalization with overlap
     ethr =  9.08E-10,  avg # of iterations =  2.4

     total cpu time spent up to now is    16950.4 secs

     total energy              =   -1926.27089585 Ry
     estimated scf accuracy    <       0.00000094 Ry

     iteration #  9     ecut=    60.00 Ry     beta= 0.30
     Davidson diagonalization with overlap
     ethr =  7.91E-10,  avg # of iterations =  1.2

     total cpu time spent up to now is    16975.2 secs

     total energy              =   -1926.27089594 Ry
     estimated scf accuracy    <       0.00000006 Ry

     iteration # 10     ecut=    60.00 Ry     beta= 0.30
     Davidson diagonalization with overlap
     ethr =  4.83E-11,  avg # of iterations =  4.1

     total cpu time spent up to now is    17026.8 secs

     total energy              =   -1926.27089600 Ry
     estimated scf accuracy    <       0.00000003 Ry

     iteration # 11     ecut=    60.00 Ry     beta= 0.30
     Davidson diagonalization with overlap
     ethr =  2.78E-11,  avg # of iterations =  1.5

     total cpu time spent up to now is    17054.4 secs

     total energy              =   -1926.27089601 Ry
     estimated scf accuracy    <          8.5E-09 Ry

     iteration # 12     ecut=    60.00 Ry     beta= 0.30
     Davidson diagonalization with overlap
     ethr =  7.17E-12,  avg # of iterations =  2.0

     total cpu time spent up to now is    17081.7 secs

     total energy              =   -1926.27089601 Ry
     estimated scf accuracy    <          1.2E-09 Ry

     iteration # 13     ecut=    60.00 Ry     beta= 0.30
     Davidson diagonalization with overlap
     ethr =  9.97E-13,  avg # of iterations =  1.5

     total cpu time spent up to now is    17108.5 secs

     End of self-consistent calculation

     Number of k-points >= 100: set verbosity='high' to print the bands.

     the Fermi energy is     6.8689 ev

!    total energy              =   -1926.27089601 Ry
     estimated scf accuracy    <          1.3E-10 Ry
     smearing contrib. (-TS)   =      -0.00048604 Ry
     internal energy E=F+TS    =   -1926.27040997 Ry

     The total energy is F=E-TS. E is the sum of the following terms:
     one-electron contribution =   -1700.67192234 Ry
     hartree contribution      =     884.94531191 Ry
     xc contribution           =    -198.33041877 Ry
     ewald contribution        =    -692.79527510 Ry
     DFT-D3 Dispersion         =      -0.36587225 Ry
     one-center paw contrib.   =    -219.05223341 Ry

     convergence has been achieved in  13 iterations

     Forces acting on atoms (cartesian axes, Ry/au):

     atom    1 type  1   force =     0.00077552   -0.00182473   -0.00088492
     atom    2 type  2   force =    -0.00021592    0.00026747   -0.00021596
     atom    3 type  2   force =    -0.00005348   -0.00023475   -0.00037770
     atom    4 type  2   force =     0.00108345   -0.00091031    0.00016764
     atom    5 type  2   force =    -0.00103104   -0.00027128   -0.00028127
     atom    6 type  2   force =     0.00055966    0.00208734    0.00091378
     atom    7 type  2   force =    -0.00021278   -0.00011198   -0.00001292
     atom    8 type  2   force =    -0.00095170   -0.00063233    0.00022616
     atom    9 type  3   force =     0.00057388    0.00100855   -0.00107896
     atom   10 type  3   force =     0.00093586   -0.00116190    0.00019444
     atom   11 type  3   force =    -0.00328239   -0.00065940    0.00032198
     atom   12 type  3   force =    -0.00049701    0.00181476    0.00097235
     atom   13 type  4   force =    -0.00087129   -0.00037355   -0.00106155
     atom   14 type  4   force =    -0.00134250    0.00104737    0.00023683
     atom   15 type  4   force =     0.00017338   -0.00031594    0.00013194
     atom   16 type  4   force =    -0.00010649    0.00014131    0.00070426
     atom   17 type  4   force =     0.00169426    0.00187190    0.00052255
     atom   18 type  4   force =    -0.00032179   -0.00142658   -0.00113485
     atom   19 type  4   force =    -0.00028452   -0.00044931    0.00083041
     atom   20 type  4   force =     0.00142627   -0.00052339    0.00044655
     atom   21 type  4   force =     0.00085234    0.00135567    0.00000041
     atom   22 type  4   force =    -0.00191534    0.00106810   -0.00181786
     atom   23 type  4   force =    -0.00077050    0.00079471    0.00117353
     atom   24 type  4   force =     0.00212224   -0.00161645    0.00019165
     atom   25 type  4   force =     0.00003010   -0.00000393   -0.00060592
     atom   26 type  4   force =     0.00021425    0.00146402    0.00022872
     atom   27 type  4   force =     0.00169294   -0.00205192   -0.00018773
     atom   28 type  4   force =    -0.00027740   -0.00035344    0.00039647

     Total force =     0.009249     Total SCF correction =     0.000026


     Computing stress (Cartesian axis) and pressure

          total   stress  (Ry/bohr**3)                   (kbar)     P=       -0.33
  -0.00000281  -0.00000074   0.00000439           -0.41       -0.11        0.65
  -0.00000074   0.00000239  -0.00000144           -0.11        0.35       -0.21
   0.00000439  -0.00000144  -0.00000624            0.65       -0.21       -0.92

     Energy error            =      1.7E-04 Ry
     Gradient error          =      3.3E-03 Ry/Bohr
     Cell gradient error     =      9.2E-01 kbar

     number of scf cycles    =  35
     number of bfgs steps    =  34

     enthalpy           old  =   -1926.2707221029 Ry
     enthalpy           new  =   -1926.2708960067 Ry

     CASE: enthalpy          _new < enthalpy          _old

     new trust radius        =       0.0180625011 bohr
     new conv_thr            =       0.0000000002 Ry

     new unit-cell volume =   1664.06448 a.u.^3 (   246.58891 Ang^3 )
     density =      3.23213 g/cm^3

CELL_PARAMETERS (angstrom)
   7.535189006  -0.017105412  -0.016812680
  -5.050874259   5.782040646   0.138686248
  -2.264443465   1.168717981   5.701753562

ATOMIC_POSITIONS (angstrom)
Co              -4.1861357069        5.3333152759        5.5246907817
Mg              -2.9771442865        4.9019210350        2.6483111996
Mg               3.3184918881        2.0346350846        3.1474329618
Mg               4.4080148126        1.5582098686        0.2136611671
Mg               0.8523101763        6.5462970027        4.4525296850
Mg              -0.5806916806        0.3039575623        1.4099349141
Mg              -0.5821961418        3.8045953026        4.3007374107
Mg               0.6233962689        3.1739230422        1.4276071649
Ni              -1.7108116918        6.1214605894        5.2452026046
Ni              -1.7873806484        2.5011286174        2.3228856666
Ni               2.0784990315        4.3440965736        3.4894608056
Ni               1.8905607567        0.8326451823        0.5320085115
H               -0.4414145905        5.3705768230        5.7311876428
H               -0.3618966844        2.0718196286        2.7682126017
H                0.6592250729        4.8192007837        3.0403529873
H                0.5752535796        1.4915168309        0.1052951228
H                5.0261348398        1.1168186279        2.1536430284
H                3.8167362312        1.8141124207        5.1515303454
H               -3.2297741714        5.0015980163        0.4491108816
H               -4.8566961546        5.7660268280        4.0644780378
H               -3.0404260036        6.0617150290        4.4089753914
H               -2.4892094666        3.3148576229        1.1161619311
H                3.2323889015        3.9439019568        4.5975658058
H                2.7787033402        0.8638150809        1.7813247246
H                0.5208476538        2.3685567410        4.9879761341
H                2.5688492875        3.6174327539        2.2146653424
H               -2.4031031568        3.2315424539        3.5464020060
H               -0.6243335118        4.7614682706        0.6994349698



     Writing config-only to output data dir ./outdir/mg2nih4_co.save/ :
     XML data file
     NEW-OLD atomic charge density approx. for the potential
     New effective cutoffs (rho, wfc):  538.82   67.40

     Check: negative core charge=   -0.000002

     total cpu time spent up to now is    17125.3 secs

     Self-consistent Calculation

     iteration #  1     ecut=    60.00 Ry     beta= 0.30
     Davidson diagonalization with overlap
     ethr =  1.00E-06,  avg # of iterations =  3.5

     total cpu time spent up to now is    17176.4 secs

     total energy              =   -1926.27100885 Ry
     estimated scf accuracy    <       0.00021231 Ry

     iteration #  2     ecut=    60.00 Ry     beta= 0.30
     Davidson diagonalization with overlap
     ethr =  1.78E-07,  avg # of iterations =  2.0

     total cpu time spent up to now is    17205.6 secs

     total energy              =   -1926.27100990 Ry
     estimated scf accuracy    <       0.00023651 Ry

     iteration #  3     ecut=    60.00 Ry     beta= 0.30
     Davidson diagonalization with overlap
     ethr =  1.78E-07,  avg # of iterations =  2.0

     total cpu time spent up to now is    17233.5 secs

     total energy              =   -1926.27103103 Ry
     estimated scf accuracy    <       0.00007991 Ry

     iteration #  4     ecut=    60.00 Ry     beta= 0.30
     Davidson diagonalization with overlap
     ethr =  6.71E-08,  avg # of iterations =  2.0

     total cpu time spent up to now is    17260.7 secs

     total energy              =   -1926.27102849 Ry
     estimated scf accuracy    <       0.00019643 Ry

     iteration #  5     ecut=    60.00 Ry     beta= 0.30
     Davidson diagonalization with overlap
     ethr =  6.71E-08,  avg # of iterations =  2.0

     total cpu time spent up to now is    17287.5 secs

     total energy              =   -1926.27103792 Ry
     estimated scf accuracy    <       0.00002588 Ry

     iteration #  6     ecut=    60.00 Ry     beta= 0.30
     Davidson diagonalization with overlap
     ethr =  2.17E-08,  avg # of iterations =  1.0

     total cpu time spent up to now is    17310.4 secs

     total energy              =   -1926.27103983 Ry
     estimated scf accuracy    <       0.00000570 Ry

     iteration #  7     ecut=    60.00 Ry     beta= 0.30
     Davidson diagonalization with overlap
     ethr =  4.79E-09,  avg # of iterations =  1.7

     total cpu time spent up to now is    17338.3 secs

     total energy              =   -1926.27104017 Ry
     estimated scf accuracy    <       0.00000057 Ry

     iteration #  8     ecut=    60.00 Ry     beta= 0.30
     Davidson diagonalization with overlap
     ethr =  4.80E-10,  avg # of iterations =  3.2

     total cpu time spent up to now is    17376.4 secs

     total energy              =   -1926.27104025 Ry
     estimated scf accuracy    <       0.00000051 Ry

     iteration #  9     ecut=    60.00 Ry     beta= 0.30
     Davidson diagonalization with overlap
     ethr =  4.25E-10,  avg # of iterations =  1.5

     total cpu time spent up to now is    17403.1 secs

     total energy              =   -1926.27104030 Ry
     estimated scf accuracy    <       0.00000004 Ry

     iteration # 10     ecut=    60.00 Ry     beta= 0.30
     Davidson diagonalization with overlap
     ethr =  3.56E-11,  avg # of iterations =  4.2

     total cpu time spent up to now is    17454.8 secs

     total energy              =   -1926.27104033 Ry
     estimated scf accuracy    <          6.2E-09 Ry

     iteration # 11     ecut=    60.00 Ry     beta= 0.30
     Davidson diagonalization with overlap
     ethr =  5.18E-12,  avg # of iterations =  2.0

     total cpu time spent up to now is    17482.3 secs

     total energy              =   -1926.27104033 Ry
     estimated scf accuracy    <          7.6E-09 Ry

     iteration # 12     ecut=    60.00 Ry     beta= 0.30
     Davidson diagonalization with overlap
     ethr =  5.18E-12,  avg # of iterations =  1.0

     total cpu time spent up to now is    17505.0 secs

     total energy              =   -1926.27104033 Ry
     estimated scf accuracy    <          6.6E-10 Ry

     iteration # 13     ecut=    60.00 Ry     beta= 0.30
     Davidson diagonalization with overlap
     ethr =  5.57E-13,  avg # of iterations =  2.0

     total cpu time spent up to now is    17533.6 secs

     End of self-consistent calculation

     Number of k-points >= 100: set verbosity='high' to print the bands.

     the Fermi energy is     6.8555 ev

!    total energy              =   -1926.27104034 Ry
     estimated scf accuracy    <          6.5E-11 Ry
     smearing contrib. (-TS)   =      -0.00047463 Ry
     internal energy E=F+TS    =   -1926.27056571 Ry

     The total energy is F=E-TS. E is the sum of the following terms:
     one-electron contribution =   -1701.18608919 Ry
     hartree contribution      =     885.14717155 Ry
     xc contribution           =    -198.32031221 Ry
     ewald contribution        =    -692.49471441 Ry
     DFT-D3 Dispersion         =      -0.36541643 Ry
     one-center paw contrib.   =    -219.05120502 Ry

     convergence has been achieved in  13 iterations

     Forces acting on atoms (cartesian axes, Ry/au):

     atom    1 type  1   force =     0.00080598   -0.00118675   -0.00110265
     atom    2 type  2   force =    -0.00026983    0.00010235   -0.00019761
     atom    3 type  2   force =    -0.00017115   -0.00001382    0.00012850
     atom    4 type  2   force =     0.00056284   -0.00086924    0.00023926
     atom    5 type  2   force =    -0.00088778   -0.00039014   -0.00007142
     atom    6 type  2   force =     0.00069079    0.00187075    0.00054711
     atom    7 type  2   force =    -0.00012656    0.00005977   -0.00003960
     atom    8 type  2   force =    -0.00081394   -0.00048910    0.00004776
     atom    9 type  3   force =     0.00019734   -0.00058991   -0.00145484
     atom   10 type  3   force =     0.00002083    0.00037853   -0.00015062
     atom   11 type  3   force =    -0.00185433   -0.00051715    0.00062402
     atom   12 type  3   force =     0.00026088    0.00142513    0.00136758
     atom   13 type  4   force =    -0.00137400   -0.00019356   -0.00105370
     atom   14 type  4   force =    -0.00033135    0.00067434    0.00049252
     atom   15 type  4   force =    -0.00034998   -0.00026559    0.00005949
     atom   16 type  4   force =    -0.00047617    0.00028153    0.00073068
     atom   17 type  4   force =     0.00130306    0.00114270    0.00039863
     atom   18 type  4   force =     0.00015931   -0.00048872   -0.00117806
     atom   19 type  4   force =    -0.00021210   -0.00018637    0.00076798
     atom   20 type  4   force =     0.00146976   -0.00115590    0.00076202
     atom   21 type  4   force =     0.00146615    0.00142797    0.00056136
     atom   22 type  4   force =    -0.00147863    0.00100538   -0.00178988
     atom   23 type  4   force =    -0.00127369    0.00055864    0.00071823
     atom   24 type  4   force =     0.00194114   -0.00176531   -0.00019999
     atom   25 type  4   force =     0.00000675   -0.00023520   -0.00026483
     atom   26 type  4   force =     0.00007496    0.00147748    0.00027577
     atom   27 type  4   force =     0.00138759   -0.00165561   -0.00010807
     atom   28 type  4   force =    -0.00072787   -0.00040221   -0.00010963

     Total force =     0.007997     Total SCF correction =     0.000024


     Computing stress (Cartesian axis) and pressure

          total   stress  (Ry/bohr**3)                   (kbar)     P=       -1.39
  -0.00000800  -0.00000215   0.00000387           -1.18       -0.32        0.57
  -0.00000215  -0.00000390  -0.00000036           -0.32       -0.57       -0.05
   0.00000387  -0.00000036  -0.00001654            0.57       -0.05       -2.43

     Energy error            =      1.4E-04 Ry
     Gradient error          =      1.9E-03 Ry/Bohr
     Cell gradient error     =      2.4E+00 kbar

     number of scf cycles    =  36
     number of bfgs steps    =  35

     enthalpy           old  =   -1926.2708960067 Ry
     enthalpy           new  =   -1926.2710403350 Ry

     CASE: enthalpy          _new < enthalpy          _old

     new trust radius        =       0.0198769400 bohr
     new conv_thr            =       0.0000000001 Ry

     new unit-cell volume =   1664.90595 a.u.^3 (   246.71361 Ang^3 )
     density =      3.23049 g/cm^3

CELL_PARAMETERS (angstrom)
   7.536040360  -0.016437177  -0.018708437
  -5.050940055   5.785638906   0.140656311
  -2.266044940   1.169840887   5.700729549

ATOMIC_POSITIONS (angstrom)
Co              -4.1863709274        5.3342928738        5.5269872517
Mg              -2.9792414177        4.9042719557        2.6505247843
Mg               3.3173537855        2.0351095581        3.1393180871
Mg               4.4135810758        1.5569434027        0.2091139719
Mg               0.8491774435        6.5520163323        4.4524764481
Mg              -0.5803185769        0.3072188123        1.4130365772
Mg              -0.5846106252        3.8078130096        4.2996233432
Mg               0.6225310287        3.1764713773        1.4275395031
Ni              -1.7127478126        6.1284357450        5.2444693757
Ni              -1.7875785070        2.5018505220        2.3201631504
Ni               2.0749693271        4.3472873218        3.4903577076
Ni               1.8908101942        0.8359003740        0.5331877700
H               -0.4426814385        5.3737917852        5.7263835649
H               -0.3642801594        2.0773468268        2.7678218512
H                0.6578149246        4.8222363543        3.0410605912
H                0.5759172025        1.4927475967        0.1047805702
H                5.0294738159        1.1196021473        2.1522631378
H                3.8166228404        1.8138267968        5.1450322516
H               -3.2285904087        5.0066100723        0.4512990963
H               -4.8595910684        5.7701951795        4.0672109148
H               -3.0451595530        6.0677897437        4.4103623937
H               -2.4991867087        3.3177106792        1.1158016165
H                3.2353266756        3.9494438541        4.5977800291
H                2.7858290371        0.8573582952        1.7783885091
H                0.5201825808        2.3768637205        4.9878524704
H                2.5702143051        3.6244145473        2.2149887303
H               -2.4017038610        3.2276355273        3.5458427271
H               -0.6209680681        4.7614122039        0.7038174919



     Writing config-only to output data dir ./outdir/mg2nih4_co.save/ :
     XML data file
     NEW-OLD atomic charge density approx. for the potential
     New effective cutoffs (rho, wfc):  539.04   67.44

     Check: negative core charge=   -0.000002

     total cpu time spent up to now is    17550.4 secs

     Self-consistent Calculation

     iteration #  1     ecut=    60.00 Ry     beta= 0.30
     Davidson diagonalization with overlap
     ethr =  1.00E-06,  avg # of iterations =  4.0

     total cpu time spent up to now is    17605.0 secs

     total energy              =   -1926.27116857 Ry
     estimated scf accuracy    <       0.00021088 Ry

     iteration #  2     ecut=    60.00 Ry     beta= 0.30
     Davidson diagonalization with overlap
     ethr =  1.77E-07,  avg # of iterations =  2.0

     total cpu time spent up to now is    17633.8 secs

     total energy              =   -1926.27114547 Ry
     estimated scf accuracy    <       0.00037017 Ry

     iteration #  3     ecut=    60.00 Ry     beta= 0.30
     Davidson diagonalization with overlap
     ethr =  1.77E-07,  avg # of iterations =  2.3

     total cpu time spent up to now is    17664.7 secs

     total energy              =   -1926.27116345 Ry
     estimated scf accuracy    <       0.00043583 Ry

     iteration #  4     ecut=    60.00 Ry     beta= 0.30
     Davidson diagonalization with overlap
     ethr =  1.77E-07,  avg # of iterations =  2.0

     total cpu time spent up to now is    17691.9 secs

     total energy              =   -1926.27117995 Ry
     estimated scf accuracy    <       0.00017258 Ry

     iteration #  5     ecut=    60.00 Ry     beta= 0.30
     Davidson diagonalization with overlap
     ethr =  1.45E-07,  avg # of iterations =  1.0

     total cpu time spent up to now is    17714.5 secs

     total energy              =   -1926.27118994 Ry
     estimated scf accuracy    <       0.00000805 Ry

     iteration #  6     ecut=    60.00 Ry     beta= 0.30
     Davidson diagonalization with overlap
     ethr =  6.76E-09,  avg # of iterations =  2.0

     total cpu time spent up to now is    17743.3 secs

     total energy              =   -1926.27119089 Ry
     estimated scf accuracy    <       0.00000710 Ry

     iteration #  7     ecut=    60.00 Ry     beta= 0.30
     Davidson diagonalization with overlap
     ethr =  5.97E-09,  avg # of iterations =  1.3

     total cpu time spent up to now is    17769.4 secs

     total energy              =   -1926.27119134 Ry
     estimated scf accuracy    <       0.00000099 Ry

     iteration #  8     ecut=    60.00 Ry     beta= 0.30
     Davidson diagonalization with overlap
     ethr =  8.29E-10,  avg # of iterations =  2.0

     total cpu time spent up to now is    17797.7 secs

     total energy              =   -1926.27119145 Ry
     estimated scf accuracy    <       0.00000071 Ry

     iteration #  9     ecut=    60.00 Ry     beta= 0.30
     Davidson diagonalization with overlap
     ethr =  5.94E-10,  avg # of iterations =  1.1

     total cpu time spent up to now is    17821.1 secs

     total energy              =   -1926.27119152 Ry
     estimated scf accuracy    <       0.00000009 Ry

     iteration # 10     ecut=    60.00 Ry     beta= 0.30
     Davidson diagonalization with overlap
     ethr =  7.32E-11,  avg # of iterations =  4.0

     total cpu time spent up to now is    17868.9 secs

     total energy              =   -1926.27119157 Ry
     estimated scf accuracy    <       0.00000003 Ry

     iteration # 11     ecut=    60.00 Ry     beta= 0.30
     Davidson diagonalization with overlap
     ethr =  2.49E-11,  avg # of iterations =  1.1

     total cpu time spent up to now is    17892.7 secs

     total energy              =   -1926.27119157 Ry
     estimated scf accuracy    <          8.0E-09 Ry

     iteration # 12     ecut=    60.00 Ry     beta= 0.30
     Davidson diagonalization with overlap
     ethr =  6.75E-12,  avg # of iterations =  2.0

     total cpu time spent up to now is    17920.4 secs

     total energy              =   -1926.27119157 Ry
     estimated scf accuracy    <          1.2E-09 Ry

     iteration # 13     ecut=    60.00 Ry     beta= 0.30
     Davidson diagonalization with overlap
     ethr =  9.69E-13,  avg # of iterations =  1.2

     total cpu time spent up to now is    17945.6 secs

     End of self-consistent calculation

     Number of k-points >= 100: set verbosity='high' to print the bands.

     the Fermi energy is     6.8510 ev

!    total energy              =   -1926.27119157 Ry
     estimated scf accuracy    <          8.1E-11 Ry
     smearing contrib. (-TS)   =      -0.00046277 Ry
     internal energy E=F+TS    =   -1926.27072880 Ry

     The total energy is F=E-TS. E is the sum of the following terms:
     one-electron contribution =   -1701.24483021 Ry
     hartree contribution      =     885.15407708 Ry
     xc contribution           =    -198.31587137 Ry
     ewald contribution        =    -692.44802914 Ry
     DFT-D3 Dispersion         =      -0.36524012 Ry
     one-center paw contrib.   =    -219.05083505 Ry

     convergence has been achieved in  13 iterations

     Forces acting on atoms (cartesian axes, Ry/au):

     atom    1 type  1   force =     0.00055203   -0.00022705   -0.00114278
     atom    2 type  2   force =    -0.00031095   -0.00019097   -0.00001810
     atom    3 type  2   force =    -0.00040746    0.00029436    0.00042333
     atom    4 type  2   force =    -0.00005432   -0.00080695    0.00026732
     atom    5 type  2   force =    -0.00059619   -0.00039885    0.00015362
     atom    6 type  2   force =     0.00074143    0.00136405    0.00017386
     atom    7 type  2   force =    -0.00002625    0.00022618   -0.00004538
     atom    8 type  2   force =    -0.00050315   -0.00017444   -0.00014332
     atom    9 type  3   force =    -0.00008253   -0.00196707   -0.00146360
     atom   10 type  3   force =    -0.00079183    0.00199301   -0.00073539
     atom   11 type  3   force =    -0.00023421   -0.00030541    0.00082057
     atom   12 type  3   force =     0.00092011    0.00070464    0.00148716
     atom   13 type  4   force =    -0.00166701   -0.00007724   -0.00090895
     atom   14 type  4   force =     0.00067066    0.00025537    0.00078842
     atom   15 type  4   force =    -0.00092962   -0.00010358   -0.00010291
     atom   16 type  4   force =    -0.00071302    0.00038249    0.00069969
     atom   17 type  4   force =     0.00077880    0.00019925    0.00020306
     atom   18 type  4   force =     0.00067542    0.00036292   -0.00116406
     atom   19 type  4   force =     0.00011728    0.00018363    0.00057229
     atom   20 type  4   force =     0.00134150   -0.00170180    0.00094548
     atom   21 type  4   force =     0.00168901    0.00145592    0.00091377
     atom   22 type  4   force =    -0.00104873    0.00057557   -0.00124545
     atom   23 type  4   force =    -0.00157730    0.00022545    0.00020942
     atom   24 type  4   force =     0.00179940   -0.00183986   -0.00058109
     atom   25 type  4   force =    -0.00004107   -0.00043920    0.00009349
     atom   26 type  4   force =    -0.00002492    0.00139881    0.00023700
     atom   27 type  4   force =     0.00079642   -0.00099531    0.00017101
     atom   28 type  4   force =    -0.00107350   -0.00039391   -0.00060845

     Total force =     0.007815     Total SCF correction =     0.000023


     Computing stress (Cartesian axis) and pressure

          total   stress  (Ry/bohr**3)                   (kbar)     P=       -1.87
  -0.00000936  -0.00000274   0.00000237           -1.38       -0.40        0.35
  -0.00000274  -0.00000745   0.00000139           -0.40       -1.10        0.20
   0.00000237   0.00000139  -0.00002140            0.35        0.20       -3.15

     Energy error            =      1.5E-04 Ry
     Gradient error          =      2.0E-03 Ry/Bohr
     Cell gradient error     =      3.1E+00 kbar

     number of scf cycles    =  37
     number of bfgs steps    =  36

     enthalpy           old  =   -1926.2710403350 Ry
     enthalpy           new  =   -1926.2711915732 Ry

     CASE: enthalpy          _new < enthalpy          _old

     new trust radius        =       0.0298271178 bohr
     new conv_thr            =       0.0000000002 Ry

     new unit-cell volume =   1663.97426 a.u.^3 (   246.57555 Ang^3 )
     density =      3.23230 g/cm^3

CELL_PARAMETERS (angstrom)
   7.535127574  -0.016512328  -0.020404523
  -5.050370025   5.789413360   0.142510058
  -2.267048276   1.171057749   5.695259167

ATOMIC_POSITIONS (angstrom)
Co              -4.1850368500        5.3349779989        5.5255838712
Mg              -2.9818139567        4.9059301022        2.6508920115
Mg               3.3145188308        2.0349798659        3.1273791186
Mg               4.4192646221        1.5532987816        0.2039831189
Mg               0.8442415889        6.5568780872        4.4494808724
Mg              -0.5789270049        0.3125872503        1.4162994822
Mg              -0.5875543668        3.8105569458        4.2951108525
Mg               0.6209282627        3.1790699095        1.4264115781
Ni              -1.7147545715        6.1346846043        5.2387838529
Ni              -1.7880788139        2.5037726574        2.3140318103
Ni               2.0695003432        4.3497985240        3.4898336313
Ni               1.8910431501        0.8400903653        0.5354927521
H               -0.4448935678        5.3757360277        5.7150151322
H               -0.3666557984        2.0845789866        2.7654114480
H                0.6543826005        4.8242589443        3.0403120069
H                0.5762021676        1.4947920975        0.1049180082
H                5.0327957830        1.1216917618        2.1502532525
H                3.8167954473        1.8129328833        5.1328553895
H               -3.2281300847        5.0122942026        0.4539180291
H               -4.8609748351        5.7741679235        4.0670114292
H               -3.0493024896        6.0751140705        4.4083774734
H               -2.5123466906        3.3217075321        1.1127187385
H                3.2362213923        3.9543470900        4.5955589522
H                2.7959720411        0.8468387021        1.7735678663
H                0.5197842526        2.3860631634        4.9839727008
H                2.5712368060        3.6327851300        2.2137628393
H               -2.3989328656        3.2216710478        3.5431818889
H               -0.6175555518        4.7598182834        0.7089877179



     Writing config-only to output data dir ./outdir/mg2nih4_co.save/ :
     XML data file
     NEW-OLD atomic charge density approx. for the potential
     New effective cutoffs (rho, wfc):  539.93   67.56

     Check: negative core charge=   -0.000002

     total cpu time spent up to now is    17962.4 secs

     Self-consistent Calculation

     iteration #  1     ecut=    60.00 Ry     beta= 0.30
     Davidson diagonalization with overlap
     ethr =  1.00E-06,  avg # of iterations =  4.0

     total cpu time spent up to now is    18015.5 secs

     total energy              =   -1926.27134041 Ry
     estimated scf accuracy    <       0.00038934 Ry

     iteration #  2     ecut=    60.00 Ry     beta= 0.30
     Davidson diagonalization with overlap
     ethr =  3.27E-07,  avg # of iterations =  2.0

     total cpu time spent up to now is    18044.0 secs

     total energy              =   -1926.27132893 Ry
     estimated scf accuracy    <       0.00030005 Ry

     iteration #  3     ecut=    60.00 Ry     beta= 0.30
     Davidson diagonalization with overlap
     ethr =  2.52E-07,  avg # of iterations =  2.1

     total cpu time spent up to now is    18072.6 secs

     total energy              =   -1926.27135476 Ry
     estimated scf accuracy    <       0.00030954 Ry

     iteration #  4     ecut=    60.00 Ry     beta= 0.30
     Davidson diagonalization with overlap
     ethr =  2.52E-07,  avg # of iterations =  1.0

     total cpu time spent up to now is    18095.6 secs

     total energy              =   -1926.27137276 Ry
     estimated scf accuracy    <       0.00002661 Ry

     iteration #  5     ecut=    60.00 Ry     beta= 0.30
     Davidson diagonalization with overlap
     ethr =  2.24E-08,  avg # of iterations =  2.0

     total cpu time spent up to now is    18124.6 secs

     total energy              =   -1926.27137308 Ry
     estimated scf accuracy    <       0.00004719 Ry

     iteration #  6     ecut=    60.00 Ry     beta= 0.30
     Davidson diagonalization with overlap
     ethr =  2.24E-08,  avg # of iterations =  2.2

     total cpu time spent up to now is    18154.0 secs

     total energy              =   -1926.27137497 Ry
     estimated scf accuracy    <       0.00004422 Ry

     iteration #  7     ecut=    60.00 Ry     beta= 0.30
     Davidson diagonalization with overlap
     ethr =  2.24E-08,  avg # of iterations =  1.0

     total cpu time spent up to now is    18176.5 secs

     total energy              =   -1926.27137716 Ry
     estimated scf accuracy    <       0.00000139 Ry

     iteration #  8     ecut=    60.00 Ry     beta= 0.30
     Davidson diagonalization with overlap
     ethr =  1.17E-09,  avg # of iterations =  2.2

     total cpu time spent up to now is    18207.3 secs

     total energy              =   -1926.27137740 Ry
     estimated scf accuracy    <       0.00000152 Ry

     iteration #  9     ecut=    60.00 Ry     beta= 0.30
     Davidson diagonalization with overlap
     ethr =  1.17E-09,  avg # of iterations =  1.0

     total cpu time spent up to now is    18230.5 secs

     total energy              =   -1926.27137752 Ry
     estimated scf accuracy    <       0.00000014 Ry

     iteration # 10     ecut=    60.00 Ry     beta= 0.30
     Davidson diagonalization with overlap
     ethr =  1.17E-10,  avg # of iterations =  4.0

     total cpu time spent up to now is    18278.0 secs

     total energy              =   -1926.27137760 Ry
     estimated scf accuracy    <       0.00000011 Ry

     iteration # 11     ecut=    60.00 Ry     beta= 0.30
     Davidson diagonalization with overlap
     ethr =  9.48E-11,  avg # of iterations =  1.0

     total cpu time spent up to now is    18301.1 secs

     total energy              =   -1926.27137761 Ry
     estimated scf accuracy    <       0.00000002 Ry

     iteration # 12     ecut=    60.00 Ry     beta= 0.30
     Davidson diagonalization with overlap
     ethr =  1.65E-11,  avg # of iterations =  2.0

     total cpu time spent up to now is    18329.1 secs

     total energy              =   -1926.27137761 Ry
     estimated scf accuracy    <          2.7E-09 Ry

     iteration # 13     ecut=    60.00 Ry     beta= 0.30
     Davidson diagonalization with overlap
     ethr =  2.28E-12,  avg # of iterations =  1.9

     total cpu time spent up to now is    18357.2 secs

     total energy              =   -1926.27137761 Ry
     estimated scf accuracy    <          2.2E-10 Ry

     iteration # 14     ecut=    60.00 Ry     beta= 0.30
     Davidson diagonalization with overlap
     ethr =  1.82E-13,  avg # of iterations =  2.0

     total cpu time spent up to now is    18385.4 secs

     End of self-consistent calculation

     Number of k-points >= 100: set verbosity='high' to print the bands.

     the Fermi energy is     6.8588 ev

!    total energy              =   -1926.27137761 Ry
     estimated scf accuracy    <          2.0E-11 Ry
     smearing contrib. (-TS)   =      -0.00044630 Ry
     internal energy E=F+TS    =   -1926.27093131 Ry

     The total energy is F=E-TS. E is the sum of the following terms:
     one-electron contribution =   -1700.79560201 Ry
     hartree contribution      =     884.95030597 Ry
     xc contribution           =    -198.31844388 Ry
     ewald contribution        =    -692.69039313 Ry
     DFT-D3 Dispersion         =      -0.36543403 Ry
     one-center paw contrib.   =    -219.05136423 Ry

     convergence has been achieved in  14 iterations

     Forces acting on atoms (cartesian axes, Ry/au):

     atom    1 type  1   force =     0.00001591    0.00098862   -0.00101967
     atom    2 type  2   force =    -0.00033078   -0.00058364    0.00035775
     atom    3 type  2   force =    -0.00079321    0.00069014    0.00054955
     atom    4 type  2   force =    -0.00085816   -0.00072358    0.00029826
     atom    5 type  2   force =    -0.00011554   -0.00028346    0.00034316
     atom    6 type  2   force =     0.00070728    0.00054255   -0.00025135
     atom    7 type  2   force =     0.00010152    0.00038742   -0.00004823
     atom    8 type  2   force =     0.00003980    0.00027899   -0.00031650
     atom    9 type  3   force =    -0.00015337   -0.00285218   -0.00119742
     atom   10 type  3   force =    -0.00133817    0.00338905   -0.00136364
     atom   11 type  3   force =     0.00136233   -0.00002087    0.00076821
     atom   12 type  3   force =     0.00135516   -0.00023654    0.00132268
     atom   13 type  4   force =    -0.00168225   -0.00007178   -0.00053740
     atom   14 type  4   force =     0.00147639   -0.00020239    0.00109707
     atom   15 type  4   force =    -0.00138474    0.00013910   -0.00033160
     atom   16 type  4   force =    -0.00072056    0.00039100    0.00066228
     atom   17 type  4   force =     0.00020219   -0.00081770   -0.00004538
     atom   18 type  4   force =     0.00119029    0.00095194   -0.00108618
     atom   19 type  4   force =     0.00068198    0.00064893    0.00024220
     atom   20 type  4   force =     0.00104522   -0.00212100    0.00098252
     atom   21 type  4   force =     0.00151786    0.00149617    0.00104701
     atom   22 type  4   force =    -0.00064403   -0.00015901   -0.00027222
     atom   23 type  4   force =    -0.00166311   -0.00024097   -0.00036628
     atom   24 type  4   force =     0.00174770   -0.00183078   -0.00091575
     atom   25 type  4   force =    -0.00012814   -0.00068473    0.00044824
     atom   26 type  4   force =    -0.00011189    0.00123338    0.00005936
     atom   27 type  4   force =    -0.00013767   -0.00003915    0.00068702
     atom   28 type  4   force =    -0.00138200   -0.00026951   -0.00111366

     Total force =     0.009016     Total SCF correction =     0.000019


     Computing stress (Cartesian axis) and pressure

          total   stress  (Ry/bohr**3)                   (kbar)     P=       -1.61
  -0.00000616  -0.00000260  -0.00000013           -0.91       -0.38       -0.02
  -0.00000260  -0.00000779   0.00000359           -0.38       -1.15        0.53
  -0.00000013   0.00000359  -0.00001895           -0.02        0.53       -2.79

     Energy error            =      1.9E-04 Ry
     Gradient error          =      3.4E-03 Ry/Bohr
     Cell gradient error     =      2.8E+00 kbar

     number of scf cycles    =  38
     number of bfgs steps    =  37

     enthalpy           old  =   -1926.2711915732 Ry
     enthalpy           new  =   -1926.2713776110 Ry

     CASE: enthalpy          _new < enthalpy          _old

     new trust radius        =       0.0368280880 bohr
     new conv_thr            =       0.0000000002 Ry

     new unit-cell volume =   1661.19479 a.u.^3 (   246.16367 Ang^3 )
     density =      3.23771 g/cm^3

CELL_PARAMETERS (angstrom)
   7.532839286  -0.017592988  -0.022066525
  -5.049608110   5.792532009   0.144627069
  -2.267728307   1.172588708   5.685898563

ATOMIC_POSITIONS (angstrom)
Co              -4.1833421695        5.3361280795        5.5209973565
Mg              -2.9849634858        4.9062881471        2.6498705120
Mg               3.3098168364        2.0344797250        3.1132302643
Mg               4.4239122622        1.5472611903        0.1989609586
Mg               0.8379592093        6.5599729096        4.4440404886
Mg              -0.5766224915        0.3191658510        1.4189141392
Mg              -0.5908534831        3.8125295840        4.2877392181
Mg               0.6189889670        3.1815045318        1.4243431115
Ni              -1.7170852408        6.1384884510        5.2290211853
Ni              -1.7894777027        2.5076659570        2.3051480491
Ni               2.0635274469        4.3512465709        3.4878623176
Ni               1.8915254937        0.8441343541        0.5386171501
H               -0.4484475914        5.3760846776        5.6986319261
H               -0.3683788813        2.0924882833        2.7613359113
H                0.6487928086        4.8247076894        3.0383650451
H                0.5760648669        1.4973744767        0.1058819713
H                5.0354162019        1.1220233929        2.1474938821
H                3.8176380201        1.8119057805        5.1161239098
H               -3.2284389695        5.0178665491        0.4568887489
H               -4.8612288932        5.7770087133        4.0642458248
H               -3.0526033653        6.0827836619        4.4037903255
H               -2.5271120580        3.3257891454        1.1080421766
H                3.2343740139        3.9577665055        4.5906971339
H                2.8080560074        0.8331845941        1.7670587663
H                0.5193214463        2.3947066358        4.9769027491
H                2.5715882612        3.6412701615        2.2109282035
H               -2.3961770004        3.2150996992        3.5392257868
H               -0.6152103467        4.7564628805        0.7140703910



     Writing config-only to output data dir ./outdir/mg2nih4_co.save/ :
     XML data file
     NEW-OLD atomic charge density approx. for the potential
     New effective cutoffs (rho, wfc):  541.52   67.77

     Check: negative core charge=   -0.000002

     total cpu time spent up to now is    18402.2 secs

     Self-consistent Calculation

     iteration #  1     ecut=    60.00 Ry     beta= 0.30
     Davidson diagonalization with overlap
     ethr =  1.00E-06,  avg # of iterations =  4.0

     total cpu time spent up to now is    18456.0 secs

     total energy              =   -1926.27145267 Ry
     estimated scf accuracy    <       0.00066757 Ry

     iteration #  2     ecut=    60.00 Ry     beta= 0.30
     Davidson diagonalization with overlap
     ethr =  5.61E-07,  avg # of iterations =  2.0

     total cpu time spent up to now is    18485.2 secs

     total energy              =   -1926.27133799 Ry
     estimated scf accuracy    <       0.00244909 Ry

     iteration #  3     ecut=    60.00 Ry     beta= 0.30
     Davidson diagonalization with overlap
     ethr =  5.61E-07,  avg # of iterations =  3.0

     total cpu time spent up to now is    18518.7 secs

     total energy              =   -1926.27148811 Ry
     estimated scf accuracy    <       0.00101230 Ry

     iteration #  4     ecut=    60.00 Ry     beta= 0.30
     Davidson diagonalization with overlap
     ethr =  5.61E-07,  avg # of iterations =  2.0

     total cpu time spent up to now is    18545.5 secs

     total energy              =   -1926.27153329 Ry
     estimated scf accuracy    <       0.00035032 Ry

     iteration #  5     ecut=    60.00 Ry     beta= 0.30
     Davidson diagonalization with overlap
     ethr =  2.94E-07,  avg # of iterations =  1.0

     total cpu time spent up to now is    18568.2 secs

     total energy              =   -1926.27155441 Ry
     estimated scf accuracy    <       0.00003432 Ry

     iteration #  6     ecut=    60.00 Ry     beta= 0.30
     Davidson diagonalization with overlap
     ethr =  2.88E-08,  avg # of iterations =  2.0

     total cpu time spent up to now is    18596.7 secs

     total energy              =   -1926.27155833 Ry
     estimated scf accuracy    <       0.00001557 Ry

     iteration #  7     ecut=    60.00 Ry     beta= 0.30
     Davidson diagonalization with overlap
     ethr =  1.31E-08,  avg # of iterations =  1.0

     total cpu time spent up to now is    18619.4 secs

     total energy              =   -1926.27155920 Ry
     estimated scf accuracy    <       0.00000200 Ry

     iteration #  8     ecut=    60.00 Ry     beta= 0.30
     Davidson diagonalization with overlap
     ethr =  1.68E-09,  avg # of iterations =  2.0

     total cpu time spent up to now is    18648.1 secs

     total energy              =   -1926.27155942 Ry
     estimated scf accuracy    <       0.00000277 Ry

     iteration #  9     ecut=    60.00 Ry     beta= 0.30
     Davidson diagonalization with overlap
     ethr =  1.68E-09,  avg # of iterations =  1.4

     total cpu time spent up to now is    18675.4 secs

     total energy              =   -1926.27155965 Ry
     estimated scf accuracy    <       0.00000016 Ry

     iteration # 10     ecut=    60.00 Ry     beta= 0.30
     Davidson diagonalization with overlap
     ethr =  1.31E-10,  avg # of iterations =  4.0

     total cpu time spent up to now is    18725.1 secs

     total energy              =   -1926.27155977 Ry
     estimated scf accuracy    <       0.00000004 Ry

     iteration # 11     ecut=    60.00 Ry     beta= 0.30
     Davidson diagonalization with overlap
     ethr =  2.97E-11,  avg # of iterations =  2.0

     total cpu time spent up to now is    18752.1 secs

     total energy              =   -1926.27155977 Ry
     estimated scf accuracy    <       0.00000003 Ry

     iteration # 12     ecut=    60.00 Ry     beta= 0.30
     Davidson diagonalization with overlap
     ethr =  2.45E-11,  avg # of iterations =  1.1

     total cpu time spent up to now is    18775.4 secs

     total energy              =   -1926.27155977 Ry
     estimated scf accuracy    <          2.7E-09 Ry

     iteration # 13     ecut=    60.00 Ry     beta= 0.30
     Davidson diagonalization with overlap
     ethr =  2.25E-12,  avg # of iterations =  2.0

     total cpu time spent up to now is    18803.9 secs

     total energy              =   -1926.27155977 Ry
     estimated scf accuracy    <          4.4E-10 Ry

     iteration # 14     ecut=    60.00 Ry     beta= 0.30
     Davidson diagonalization with overlap
     ethr =  3.70E-13,  avg # of iterations =  1.9

     total cpu time spent up to now is    18832.8 secs

     End of self-consistent calculation

     Number of k-points >= 100: set verbosity='high' to print the bands.

     the Fermi energy is     6.8794 ev

!    total energy              =   -1926.27155977 Ry
     estimated scf accuracy    <          5.6E-11 Ry
     smearing contrib. (-TS)   =      -0.00042783 Ry
     internal energy E=F+TS    =   -1926.27113194 Ry

     The total energy is F=E-TS. E is the sum of the following terms:
     one-electron contribution =   -1699.94720807 Ry
     hartree contribution      =     884.59350291 Ry
     xc contribution           =    -198.32841826 Ry
     ewald contribution        =    -693.17019442 Ry
     DFT-D3 Dispersion         =      -0.36601499 Ry
     one-center paw contrib.   =    -219.05279911 Ry

     convergence has been achieved in  14 iterations

     Forces acting on atoms (cartesian axes, Ry/au):

     atom    1 type  1   force =    -0.00057989    0.00195118   -0.00076986
     atom    2 type  2   force =    -0.00031538   -0.00087545    0.00086123
     atom    3 type  2   force =    -0.00121407    0.00097235    0.00040475
     atom    4 type  2   force =    -0.00161339   -0.00063745    0.00033413
     atom    5 type  2   force =     0.00046303   -0.00005396    0.00038719
     atom    6 type  2   force =     0.00055667   -0.00034392   -0.00060892
     atom    7 type  2   force =     0.00022544    0.00046891   -0.00005360
     atom    8 type  2   force =     0.00067062    0.00067960   -0.00035407
     atom    9 type  3   force =     0.00011591   -0.00257046   -0.00073736
     atom   10 type  3   force =    -0.00122932    0.00360736   -0.00151150
     atom   11 type  3   force =     0.00211868    0.00022432    0.00029013
     atom   12 type  3   force =     0.00125595   -0.00097855    0.00087708
     atom   13 type  4   force =    -0.00125686   -0.00025960    0.00004889
     atom   14 type  4   force =     0.00153120   -0.00049979    0.00124518
     atom   15 type  4   force =    -0.00131590    0.00035529   -0.00051816
     atom   16 type  4   force =    -0.00035347    0.00023818    0.00067614
     atom   17 type  4   force =    -0.00011906   -0.00132773   -0.00023455
     atom   18 type  4   force =     0.00144526    0.00086471   -0.00092626
     atom   19 type  4   force =     0.00126037    0.00101454   -0.00013915
     atom   20 type  4   force =     0.00063358   -0.00210276    0.00082164
     atom   21 type  4   force =     0.00085124    0.00154488    0.00083771
     atom   22 type  4   force =    -0.00045592   -0.00087101    0.00070154
     atom   23 type  4   force =    -0.00142076   -0.00072239   -0.00078245
     atom   24 type  4   force =     0.00184176   -0.00167261   -0.00103969
     atom   25 type  4   force =    -0.00025280   -0.00091187    0.00064802
     atom   26 type  4   force =    -0.00017141    0.00102821   -0.00025862
     atom   27 type  4   force =    -0.00113193    0.00088369    0.00124558
     atom   28 type  4   force =    -0.00153957   -0.00000567   -0.00144502

     Total force =     0.009741     Total SCF correction =     0.000012


     Computing stress (Cartesian axis) and pressure

          total   stress  (Ry/bohr**3)                   (kbar)     P=       -0.52
   0.00000117  -0.00000176  -0.00000283            0.17       -0.26       -0.42
  -0.00000176  -0.00000413   0.00000513           -0.26       -0.61        0.75
  -0.00000283   0.00000513  -0.00000773           -0.42        0.75       -1.14

     Energy error            =      1.8E-04 Ry
     Gradient error          =      3.6E-03 Ry/Bohr
     Cell gradient error     =      1.1E+00 kbar

     number of scf cycles    =  39
     number of bfgs steps    =  38

     enthalpy           old  =   -1926.2713776110 Ry
     enthalpy           new  =   -1926.2715597728 Ry

     CASE: enthalpy          _new < enthalpy          _old

     new trust radius        =       0.0333113397 bohr
     new conv_thr            =       0.0000000002 Ry

     new unit-cell volume =   1658.33662 a.u.^3 (   245.74013 Ang^3 )
     density =      3.24329 g/cm^3

CELL_PARAMETERS (angstrom)
   7.531274786  -0.019197572  -0.023825570
  -5.049703514   5.794529817   0.147220864
  -2.268763306   1.174504647   5.677294560

ATOMIC_POSITIONS (angstrom)
Co              -4.1835122081        5.3385627825        5.5168206515
Mg              -2.9884045755        4.9057741644        2.6495044467
Mg               3.3047809112        2.0344719610        3.1017413097
Mg               4.4266193132        1.5409426159        0.1953114785
Mg               0.8324143456        6.5616783587        4.4392947776
Mg              -0.5743525779        0.3245915481        1.4202745448
Mg              -0.5938429802        3.8140510240        4.2811526499
Mg               0.6176812497        3.1836537585        1.4224620308
Ni              -1.7196080757        6.1397116111        5.2202990621
Ni              -1.7917921592        2.5129355184        2.2971992653
Ni               2.0595445794        4.3520744478        3.4857769655
Ni               1.8924683994        0.8466369474        0.5415148702
H               -0.4527616812        5.3758358053        5.6845420402
H               -0.3692975494        2.0989149962        2.7579333684
H                0.6429796093        4.8243306882        3.0367500740
H                0.5758702045        1.4996070578        0.1073924806
H                5.0373599118        1.1208859432        2.1447601809
H                3.8193393375        1.8113934996        5.1009717834
H               -3.2289816873        5.0224180250        0.4597764824
H               -4.8617902926        5.7782588513        4.0619602518
H               -3.0552677838        6.0896196151        4.4003059717
H               -2.5396093103        3.3284365073        1.1047918835
H                3.2311139609        3.9597717127        4.5855914251
H                2.8190130645        0.8206100536        1.7608153860
H                0.5183753227        2.4007988017        4.9705980399
H                2.5714399723        3.6480757333        2.2079576844
H               -2.3954966364        3.2107645345        3.5365700939
H               -0.6149711445        4.7529099216        0.7175887493



     Writing config-only to output data dir ./outdir/mg2nih4_co.save/ :
     XML data file
     NEW-OLD atomic charge density approx. for the potential
     New effective cutoffs (rho, wfc):  543.14   67.98

     Check: negative core charge=   -0.000002

     total cpu time spent up to now is    18849.6 secs

     Self-consistent Calculation

     iteration #  1     ecut=    60.00 Ry     beta= 0.30
     Davidson diagonalization with overlap
     ethr =  1.00E-06,  avg # of iterations =  4.0

     total cpu time spent up to now is    18902.6 secs

     total energy              =   -1926.27154126 Ry
     estimated scf accuracy    <       0.00071888 Ry

     iteration #  2     ecut=    60.00 Ry     beta= 0.30
     Davidson diagonalization with overlap
     ethr =  6.04E-07,  avg # of iterations =  3.0

     total cpu time spent up to now is    18936.9 secs

     total energy              =   -1926.27130243 Ry
     estimated scf accuracy    <       0.00663483 Ry

     iteration #  3     ecut=    60.00 Ry     beta= 0.30
     Davidson diagonalization with overlap
     ethr =  6.04E-07,  avg # of iterations =  3.0

     total cpu time spent up to now is    18968.7 secs

     total energy              =   -1926.27166996 Ry
     estimated scf accuracy    <       0.00044350 Ry

     iteration #  4     ecut=    60.00 Ry     beta= 0.30
     Davidson diagonalization with overlap
     ethr =  3.73E-07,  avg # of iterations =  2.0

     total cpu time spent up to now is    18995.7 secs

     total energy              =   -1926.27169103 Ry
     estimated scf accuracy    <       0.00021464 Ry

     iteration #  5     ecut=    60.00 Ry     beta= 0.30
     Davidson diagonalization with overlap
     ethr =  1.80E-07,  avg # of iterations =  1.4

     total cpu time spent up to now is    19022.6 secs

     total energy              =   -1926.27170557 Ry
     estimated scf accuracy    <       0.00002596 Ry

     iteration #  6     ecut=    60.00 Ry     beta= 0.30
     Davidson diagonalization with overlap
     ethr =  2.18E-08,  avg # of iterations =  2.0

     total cpu time spent up to now is    19050.7 secs

     total energy              =   -1926.27170828 Ry
     estimated scf accuracy    <       0.00001297 Ry

     iteration #  7     ecut=    60.00 Ry     beta= 0.30
     Davidson diagonalization with overlap
     ethr =  1.09E-08,  avg # of iterations =  1.0

     total cpu time spent up to now is    19073.3 secs

     total energy              =   -1926.27170906 Ry
     estimated scf accuracy    <       0.00000119 Ry

     iteration #  8     ecut=    60.00 Ry     beta= 0.30
     Davidson diagonalization with overlap
     ethr =  1.00E-09,  avg # of iterations =  3.7

     total cpu time spent up to now is    19115.6 secs

     total energy              =   -1926.27170919 Ry
     estimated scf accuracy    <       0.00000232 Ry

     iteration #  9     ecut=    60.00 Ry     beta= 0.30
     Davidson diagonalization with overlap
     ethr =  1.00E-09,  avg # of iterations =  2.0

     total cpu time spent up to now is    19142.6 secs

     total energy              =   -1926.27170937 Ry
     estimated scf accuracy    <       0.00000013 Ry

     iteration # 10     ecut=    60.00 Ry     beta= 0.30
     Davidson diagonalization with overlap
     ethr =  1.13E-10,  avg # of iterations =  4.0

     total cpu time spent up to now is    19187.4 secs

     total energy              =   -1926.27170943 Ry
     estimated scf accuracy    <       0.00000003 Ry

     iteration # 11     ecut=    60.00 Ry     beta= 0.30
     Davidson diagonalization with overlap
     ethr =  2.49E-11,  avg # of iterations =  2.0

     total cpu time spent up to now is    19216.9 secs

     total energy              =   -1926.27170943 Ry
     estimated scf accuracy    <          3.5E-09 Ry

     iteration # 12     ecut=    60.00 Ry     beta= 0.30
     Davidson diagonalization with overlap
     ethr =  2.96E-12,  avg # of iterations =  2.1

     total cpu time spent up to now is    19246.2 secs

     total energy              =   -1926.27170943 Ry
     estimated scf accuracy    <          5.4E-09 Ry

     iteration # 13     ecut=    60.00 Ry     beta= 0.30
     Davidson diagonalization with overlap
     ethr =  2.96E-12,  avg # of iterations =  1.7

     total cpu time spent up to now is    19274.9 secs

     total energy              =   -1926.27170943 Ry
     estimated scf accuracy    <          2.0E-10 Ry

     iteration # 14     ecut=    60.00 Ry     beta= 0.30
     Davidson diagonalization with overlap
     ethr =  1.71E-13,  avg # of iterations =  3.0

     total cpu time spent up to now is    19310.8 secs

     End of self-consistent calculation

     Number of k-points >= 100: set verbosity='high' to print the bands.

     the Fermi energy is     6.9008 ev

!    total energy              =   -1926.27170943 Ry
     estimated scf accuracy    <          5.1E-11 Ry
     smearing contrib. (-TS)   =      -0.00041274 Ry
     internal energy E=F+TS    =   -1926.27129669 Ry

     The total energy is F=E-TS. E is the sum of the following terms:
     one-electron contribution =   -1699.25033832 Ry
     hartree contribution      =     884.31578730 Ry
     xc contribution           =    -198.33881812 Ry
     ewald contribution        =    -693.57712084 Ry
     DFT-D3 Dispersion         =      -0.36661409 Ry
     one-center paw contrib.   =    -219.05419261 Ry

     convergence has been achieved in  14 iterations

     Forces acting on atoms (cartesian axes, Ry/au):

     atom    1 type  1   force =    -0.00086286    0.00211580   -0.00047373
     atom    2 type  2   force =    -0.00027576   -0.00086583    0.00128176
     atom    3 type  2   force =    -0.00144942    0.00092325    0.00004482
     atom    4 type  2   force =    -0.00194998   -0.00057607    0.00035047
     atom    5 type  2   force =     0.00092934    0.00016704    0.00027847
     atom    6 type  2   force =     0.00032566   -0.00087747   -0.00079125
     atom    7 type  2   force =     0.00031915    0.00042120   -0.00006038
     atom    8 type  2   force =     0.00106776    0.00080848   -0.00020405
     atom    9 type  3   force =     0.00046923   -0.00122943   -0.00032292
     atom   10 type  3   force =    -0.00056376    0.00242349   -0.00089393
     atom   11 type  3   force =     0.00163225    0.00031162   -0.00039939
     atom   12 type  3   force =     0.00067228   -0.00112132    0.00041295
     atom   13 type  4   force =    -0.00051647   -0.00059247    0.00062357
     atom   14 type  4   force =     0.00080004   -0.00049819    0.00112715
     atom   15 type  4   force =    -0.00067147    0.00043133   -0.00055321
     atom   16 type  4   force =     0.00025113   -0.00001904    0.00076071
     atom   17 type  4   force =    -0.00002281   -0.00102915   -0.00027545
     atom   18 type  4   force =     0.00131937    0.00022169   -0.00070975
     atom   19 type  4   force =     0.00153474    0.00108421   -0.00042926
     atom   20 type  4   force =     0.00024801   -0.00154296    0.00051819
     atom   21 type  4   force =    -0.00004986    0.00155713    0.00038277
     atom   22 type  4   force =    -0.00052867   -0.00112933    0.00108877
     atom   23 type  4   force =    -0.00098421   -0.00103676   -0.00084059
     atom   24 type  4   force =     0.00203225   -0.00138292   -0.00089602
     atom   25 type  4   force =    -0.00039314   -0.00102959    0.00061940
     atom   26 type  4   force =    -0.00018500    0.00085774   -0.00061060
     atom   27 type  4   force =    -0.00170052    0.00132472    0.00147650
     atom   28 type  4   force =    -0.00144729    0.00028283   -0.00150498

     Total force =     0.008767     Total SCF correction =     0.000013


     Computing stress (Cartesian axis) and pressure

          total   stress  (Ry/bohr**3)                   (kbar)     P=        0.57
   0.00000696  -0.00000075  -0.00000420            1.02       -0.11       -0.62
  -0.00000075  -0.00000005   0.00000491           -0.11       -0.01        0.72
  -0.00000420   0.00000491   0.00000481           -0.62        0.72        0.71

     Energy error            =      1.5E-04 Ry
     Gradient error          =      2.4E-03 Ry/Bohr
     Cell gradient error     =      1.0E+00 kbar

     number of scf cycles    =  40
     number of bfgs steps    =  39

     enthalpy           old  =   -1926.2715597728 Ry
     enthalpy           new  =   -1926.2717094291 Ry

     CASE: enthalpy          _new < enthalpy          _old

     new trust radius        =       0.0341802264 bohr
     new conv_thr            =       0.0000000001 Ry

     new unit-cell volume =   1656.22936 a.u.^3 (   245.42787 Ang^3 )
     density =      3.24742 g/cm^3

CELL_PARAMETERS (angstrom)
   7.531380152  -0.021027641  -0.026474613
  -5.051061868   5.796382433   0.151313367
  -2.271002720   1.177439285   5.670763185

ATOMIC_POSITIONS (angstrom)
Co              -4.1865864369        5.3430397530        5.5152151973
Mg              -2.9928331440        4.9053232313        2.6518064593
Mg               3.2991888519        2.0354912511        3.0917420638
Mg               4.4286316298        1.5344562714        0.1918779333
Mg               0.8273392913        6.5641051469        4.4365674005
Mg              -0.5722922267        0.3291453490        1.4211145606
Mg              -0.5971380351        3.8165605860        4.2763593815
Mg               0.6170389448        3.1863187385        1.4212502487
Ni              -1.7229744958        6.1407326881        5.2141361005
Ni              -1.7950410036        2.5197448611        2.2907655042
Ni               2.0569396061        4.3534836286        3.4843576591
Ni               1.8940199096        0.8482597282        0.5444143661
H               -0.4582742239        5.3763652087        5.6740441038
H               -0.3702613838        2.1049697463        2.7562537233
H                0.6370917131        4.8245387604        3.0362052530
H                0.5760045773        1.5014409857        0.1093756584
H                5.0398948135        1.1194650277        2.1416881871
H                3.8219326903        1.8114457678        5.0870756913
H               -3.2286688564        5.0273271439        0.4633050785
H               -4.8641353368        5.7789739845        4.0627003902
H               -3.0593154873        6.0978103986        4.4001188791
H               -2.5522202138        3.3300129901        1.1040057676
H                3.2277838541        3.9622965291        4.5812183718
H                2.8307341220        0.8080506195        1.7543383565
H                0.5163389147        2.4064394689        4.9664837774
H                2.5711796992        3.6552463438        2.2054698238
H               -2.3973871806        3.2084543553        3.5362001801
H               -0.6165726888        4.7496185100        0.7203370280



     Writing config-only to output data dir ./outdir/mg2nih4_co.save/ :
     XML data file
     NEW-OLD atomic charge density approx. for the potential
     New effective cutoffs (rho, wfc):  544.69   68.18

     Check: negative core charge=   -0.000002

     total cpu time spent up to now is    19327.5 secs

     Self-consistent Calculation

     iteration #  1     ecut=    60.00 Ry     beta= 0.30
     Davidson diagonalization with overlap
     ethr =  1.00E-06,  avg # of iterations =  4.0

     total cpu time spent up to now is    19380.5 secs

     total energy              =   -1926.27162627 Ry
     estimated scf accuracy    <       0.00085293 Ry

     iteration #  2     ecut=    60.00 Ry     beta= 0.30
     Davidson diagonalization with overlap
     ethr =  7.17E-07,  avg # of iterations =  3.0

     total cpu time spent up to now is    19415.1 secs

     total energy              =   -1926.27126584 Ry
     estimated scf accuracy    <       0.01083871 Ry

     iteration #  3     ecut=    60.00 Ry     beta= 0.30
     Davidson diagonalization with overlap
     ethr =  7.17E-07,  avg # of iterations =  3.0

     total cpu time spent up to now is    19446.9 secs

     total energy              =   -1926.27183194 Ry
     estimated scf accuracy    <       0.00024796 Ry

     iteration #  4     ecut=    60.00 Ry     beta= 0.30
     Davidson diagonalization with overlap
     ethr =  2.08E-07,  avg # of iterations =  2.0

     total cpu time spent up to now is    19474.2 secs

     total energy              =   -1926.27183772 Ry
     estimated scf accuracy    <       0.00019460 Ry

     iteration #  5     ecut=    60.00 Ry     beta= 0.30
     Davidson diagonalization with overlap
     ethr =  1.64E-07,  avg # of iterations =  1.4

     total cpu time spent up to now is    19500.9 secs

     total energy              =   -1926.27185091 Ry
     estimated scf accuracy    <       0.00001708 Ry

     iteration #  6     ecut=    60.00 Ry     beta= 0.30
     Davidson diagonalization with overlap
     ethr =  1.44E-08,  avg # of iterations =  2.0

     total cpu time spent up to now is    19529.5 secs

     total energy              =   -1926.27185237 Ry
     estimated scf accuracy    <       0.00001725 Ry

     iteration #  7     ecut=    60.00 Ry     beta= 0.30
     Davidson diagonalization with overlap
     ethr =  1.44E-08,  avg # of iterations =  1.0

     total cpu time spent up to now is    19552.3 secs

     total energy              =   -1926.27185348 Ry
     estimated scf accuracy    <       0.00000141 Ry

     iteration #  8     ecut=    60.00 Ry     beta= 0.30
     Davidson diagonalization with overlap
     ethr =  1.19E-09,  avg # of iterations =  3.1

     total cpu time spent up to now is    19593.1 secs

     total energy              =   -1926.27185364 Ry
     estimated scf accuracy    <       0.00000209 Ry

     iteration #  9     ecut=    60.00 Ry     beta= 0.30
     Davidson diagonalization with overlap
     ethr =  1.19E-09,  avg # of iterations =  1.7

     total cpu time spent up to now is    19621.0 secs

     total energy              =   -1926.27185380 Ry
     estimated scf accuracy    <       0.00000016 Ry

     iteration # 10     ecut=    60.00 Ry     beta= 0.30
     Davidson diagonalization with overlap
     ethr =  1.38E-10,  avg # of iterations =  4.2

     total cpu time spent up to now is    19667.1 secs

     total energy              =   -1926.27185387 Ry
     estimated scf accuracy    <       0.00000004 Ry

     iteration # 11     ecut=    60.00 Ry     beta= 0.30
     Davidson diagonalization with overlap
     ethr =  3.55E-11,  avg # of iterations =  2.0

     total cpu time spent up to now is    19694.6 secs

     total energy              =   -1926.27185387 Ry
     estimated scf accuracy    <       0.00000003 Ry

     iteration # 12     ecut=    60.00 Ry     beta= 0.30
     Davidson diagonalization with overlap
     ethr =  2.42E-11,  avg # of iterations =  1.3

     total cpu time spent up to now is    19720.2 secs

     total energy              =   -1926.27185388 Ry
     estimated scf accuracy    <          2.3E-09 Ry

     iteration # 13     ecut=    60.00 Ry     beta= 0.30
     Davidson diagonalization with overlap
     ethr =  1.91E-12,  avg # of iterations =  2.0

     total cpu time spent up to now is    19748.5 secs

     total energy              =   -1926.27185388 Ry
     estimated scf accuracy    <          3.7E-10 Ry

     iteration # 14     ecut=    60.00 Ry     beta= 0.30
     Davidson diagonalization with overlap
     ethr =  3.12E-13,  avg # of iterations =  1.4

     total cpu time spent up to now is    19775.8 secs

     End of self-consistent calculation

     Number of k-points >= 100: set verbosity='high' to print the bands.

     the Fermi energy is     6.9179 ev

!    total energy              =   -1926.27185388 Ry
     estimated scf accuracy    <          3.5E-11 Ry
     smearing contrib. (-TS)   =      -0.00039766 Ry
     internal energy E=F+TS    =   -1926.27145622 Ry

     The total energy is F=E-TS. E is the sum of the following terms:
     one-electron contribution =   -1698.88630949 Ry
     hartree contribution      =     884.18654441 Ry
     xc contribution           =    -198.34602014 Ry
     ewald contribution        =    -693.80351707 Ry
     DFT-D3 Dispersion         =      -0.36705677 Ry
     one-center paw contrib.   =    -219.05509717 Ry

     convergence has been achieved in  14 iterations

     Forces acting on atoms (cartesian axes, Ry/au):

     atom    1 type  1   force =    -0.00076509    0.00155352   -0.00012979
     atom    2 type  2   force =    -0.00023723   -0.00055104    0.00158471
     atom    3 type  2   force =    -0.00146559    0.00055371   -0.00043151
     atom    4 type  2   force =    -0.00185121   -0.00050861    0.00036417
     atom    5 type  2   force =     0.00128437    0.00033455    0.00008469
     atom    6 type  2   force =     0.00002129   -0.00105878   -0.00087230
     atom    7 type  2   force =     0.00040629    0.00026296   -0.00007180
     atom    8 type  2   force =     0.00117923    0.00067689    0.00010210
     atom    9 type  3   force =     0.00064666    0.00058205    0.00002047
     atom   10 type  3   force =     0.00028048    0.00039793    0.00036795
     atom   11 type  3   force =     0.00036057    0.00023322   -0.00110591
     atom   12 type  3   force =    -0.00009319   -0.00078489    0.00011267
     atom   13 type  4   force =     0.00039947   -0.00099677    0.00113001
     atom   14 type  4   force =    -0.00034844   -0.00028265    0.00080177
     atom   15 type  4   force =     0.00031602    0.00039913   -0.00046406
     atom   16 type  4   force =     0.00093001   -0.00030122    0.00089189
     atom   17 type  4   force =     0.00032346   -0.00021070   -0.00020609
     atom   18 type  4   force =     0.00095618   -0.00055206   -0.00042578
     atom   19 type  4   force =     0.00144272    0.00091591   -0.00062435
     atom   20 type  4   force =    -0.00013752   -0.00052459    0.00009081
     atom   21 type  4   force =    -0.00102333    0.00151666   -0.00018589
     atom   22 type  4   force =    -0.00068566   -0.00092479    0.00086882
     atom   23 type  4   force =    -0.00050709   -0.00125530   -0.00063872
     atom   24 type  4   force =     0.00222109   -0.00098016   -0.00062041
     atom   25 type  4   force =    -0.00057336   -0.00106056    0.00044208
     atom   26 type  4   force =    -0.00015777    0.00070145   -0.00098922
     atom   27 type  4   force =    -0.00182404    0.00130641    0.00129256
     atom   28 type  4   force =    -0.00109834    0.00055772   -0.00138886

     Total force =     0.007698     Total SCF correction =     0.000016


     Computing stress (Cartesian axis) and pressure

          total   stress  (Ry/bohr**3)                   (kbar)     P=        1.31
   0.00000925   0.00000018  -0.00000401            1.36        0.03       -0.59
   0.00000018   0.00000286   0.00000299            0.03        0.42        0.44
  -0.00000401   0.00000299   0.00001458           -0.59        0.44        2.15

     Energy error            =      1.4E-04 Ry
     Gradient error          =      2.2E-03 Ry/Bohr
     Cell gradient error     =      2.1E+00 kbar

     number of scf cycles    =  41
     number of bfgs steps    =  40

     enthalpy           old  =   -1926.2717094291 Ry
     enthalpy           new  =   -1926.2718538775 Ry

     CASE: enthalpy          _new < enthalpy          _old

     new trust radius        =       0.0330645571 bohr
     new conv_thr            =       0.0000000001 Ry

     new unit-cell volume =   1655.76486 a.u.^3 (   245.35904 Ang^3 )
     density =      3.24833 g/cm^3

CELL_PARAMETERS (angstrom)
   7.533554097  -0.022560121  -0.029940108
  -5.053572624   5.798517774   0.156628108
  -2.274452107   1.181158306   5.668213497

ATOMIC_POSITIONS (angstrom)
Co              -4.1923061020        5.3490320006        5.5177115636
Mg              -2.9979033424        4.9056688674        2.6576331067
Mg               3.2936924174        2.0375665782        3.0839492690
Mg               4.4303832167        1.5287929165        0.1885818668
Mg               0.8235339891        6.5681884561        4.4370698758
Mg              -0.5708465939        0.3324127363        1.4218504662
Mg              -0.6004235935        3.8204102062        4.2747672350
Mg               0.6171647419        3.1896317226        1.4212738503
Ni              -1.7269281807        6.1432470549        5.2123611562
Ni              -1.7985043200        2.5267488286        2.2874541821
Ni               2.0552871935        4.3559599623        3.4842372140
Ni               1.8959373663        0.8493092092        0.5471487568
H               -0.4641148598        5.3781098669        5.6695316713
H               -0.3718108107        2.1105339500        2.7572514122
H                0.6322823362        4.8262358704        3.0372057693
H                0.5768593717        1.5026398973        0.1116678257
H                5.0435370153        1.1189838717        2.1387961123
H                3.8250599111        1.8118928294        5.0765337714
H               -3.2268840293        5.0327307990        0.4671997384
H               -4.8685090827        5.7798927219        4.0674370883
H               -3.0652500990        6.1076583990        4.4041922793
H               -2.5645300750        3.3306681126        1.1060304868
H                3.2254718877        3.9659294485        4.5791591502
H                2.8429006991        0.7966999655        1.7483585914
H                0.5132149172        2.4117808410        4.9660529367
H                2.5711569374        3.6631181336        2.2041433207
H               -2.4015765384        3.2082129242        3.5387434032
H               -0.6194832404        4.7475672505        0.7222788551



     Writing config-only to output data dir ./outdir/mg2nih4_co.save/ :
     XML data file
     NEW-OLD atomic charge density approx. for the potential
     New effective cutoffs (rho, wfc):  545.80   68.32

     Check: negative core charge=   -0.000002

     total cpu time spent up to now is    19792.5 secs

     Self-consistent Calculation

     iteration #  1     ecut=    60.00 Ry     beta= 0.30
     Davidson diagonalization with overlap
     ethr =  1.00E-06,  avg # of iterations =  4.0

     total cpu time spent up to now is    19844.5 secs

     total energy              =   -1926.27182514 Ry
     estimated scf accuracy    <       0.00062666 Ry

     iteration #  2     ecut=    60.00 Ry     beta= 0.30
     Davidson diagonalization with overlap
     ethr =  5.27E-07,  avg # of iterations =  3.0

     total cpu time spent up to now is    19877.7 secs

     total energy              =   -1926.27155604 Ry
     estimated scf accuracy    <       0.00811249 Ry

     iteration #  3     ecut=    60.00 Ry     beta= 0.30
     Davidson diagonalization with overlap
     ethr =  5.27E-07,  avg # of iterations =  3.0

     total cpu time spent up to now is    19909.8 secs

     total energy              =   -1926.27198109 Ry
     estimated scf accuracy    <       0.00014875 Ry

     iteration #  4     ecut=    60.00 Ry     beta= 0.30
     Davidson diagonalization with overlap
     ethr =  1.25E-07,  avg # of iterations =  1.0

     total cpu time spent up to now is    19932.4 secs

     total energy              =   -1926.27198215 Ry
     estimated scf accuracy    <       0.00007888 Ry

     iteration #  5     ecut=    60.00 Ry     beta= 0.30
     Davidson diagonalization with overlap
     ethr =  6.63E-08,  avg # of iterations =  1.1

     total cpu time spent up to now is    19955.7 secs

     total energy              =   -1926.27198843 Ry
     estimated scf accuracy    <       0.00001130 Ry

     iteration #  6     ecut=    60.00 Ry     beta= 0.30
     Davidson diagonalization with overlap
     ethr =  9.50E-09,  avg # of iterations =  2.0

     total cpu time spent up to now is    19983.4 secs

     total energy              =   -1926.27198882 Ry
     estimated scf accuracy    <       0.00000511 Ry

     iteration #  7     ecut=    60.00 Ry     beta= 0.30
     Davidson diagonalization with overlap
     ethr =  4.29E-09,  avg # of iterations =  2.0

     total cpu time spent up to now is    20010.3 secs

     total energy              =   -1926.27198928 Ry
     estimated scf accuracy    <       0.00000119 Ry

     iteration #  8     ecut=    60.00 Ry     beta= 0.30
     Davidson diagonalization with overlap
     ethr =  1.00E-09,  avg # of iterations =  2.1

     total cpu time spent up to now is    20039.4 secs

     total energy              =   -1926.27198937 Ry
     estimated scf accuracy    <       0.00000109 Ry

     iteration #  9     ecut=    60.00 Ry     beta= 0.30
     Davidson diagonalization with overlap
     ethr =  9.15E-10,  avg # of iterations =  1.6

     total cpu time spent up to now is    20068.9 secs

     total energy              =   -1926.27198946 Ry
     estimated scf accuracy    <       0.00000009 Ry

     iteration # 10     ecut=    60.00 Ry     beta= 0.30
     Davidson diagonalization with overlap
     ethr =  7.53E-11,  avg # of iterations =  4.0

     total cpu time spent up to now is    20118.4 secs

     total energy              =   -1926.27198953 Ry
     estimated scf accuracy    <       0.00000003 Ry

     iteration # 11     ecut=    60.00 Ry     beta= 0.30
     Davidson diagonalization with overlap
     ethr =  2.33E-11,  avg # of iterations =  1.2

     total cpu time spent up to now is    20143.7 secs

     total energy              =   -1926.27198954 Ry
     estimated scf accuracy    <          4.0E-09 Ry

     iteration # 12     ecut=    60.00 Ry     beta= 0.30
     Davidson diagonalization with overlap
     ethr =  3.34E-12,  avg # of iterations =  2.0

     total cpu time spent up to now is    20172.2 secs

     total energy              =   -1926.27198954 Ry
     estimated scf accuracy    <          3.1E-09 Ry

     iteration # 13     ecut=    60.00 Ry     beta= 0.30
     Davidson diagonalization with overlap
     ethr =  2.59E-12,  avg # of iterations =  1.0

     total cpu time spent up to now is    20194.8 secs

     End of self-consistent calculation

     Number of k-points >= 100: set verbosity='high' to print the bands.

     the Fermi energy is     6.9244 ev

!    total energy              =   -1926.27198954 Ry
     estimated scf accuracy    <          1.1E-10 Ry
     smearing contrib. (-TS)   =      -0.00038338 Ry
     internal energy E=F+TS    =   -1926.27160615 Ry

     The total energy is F=E-TS. E is the sum of the following terms:
     one-electron contribution =   -1698.97302582 Ry
     hartree contribution      =     884.24162787 Ry
     xc contribution           =    -198.34625325 Ry
     ewald contribution        =    -693.77172786 Ry
     DFT-D3 Dispersion         =      -0.36715381 Ry
     one-center paw contrib.   =    -219.05507329 Ry

     convergence has been achieved in  13 iterations

     Forces acting on atoms (cartesian axes, Ry/au):

     atom    1 type  1   force =    -0.00035961    0.00047375    0.00011875
     atom    2 type  2   force =    -0.00022746   -0.00002306    0.00168225
     atom    3 type  2   force =    -0.00124874   -0.00000905   -0.00083879
     atom    4 type  2   force =    -0.00135095   -0.00039849    0.00038240
     atom    5 type  2   force =     0.00146066    0.00039963   -0.00009673
     atom    6 type  2   force =    -0.00028451   -0.00090732   -0.00088744
     atom    7 type  2   force =     0.00048469    0.00005045   -0.00007994
     atom    8 type  2   force =     0.00095652    0.00035170    0.00045490
     atom    9 type  3   force =     0.00049345    0.00195813    0.00023591
     atom   10 type  3   force =     0.00078436   -0.00147718    0.00176793
     atom   11 type  3   force =    -0.00089987    0.00003879   -0.00149987
     atom   12 type  3   force =    -0.00057537   -0.00022332    0.00018026
     atom   13 type  4   force =     0.00110679   -0.00126593    0.00140223
     atom   14 type  4   force =    -0.00132961    0.00000849    0.00040735
     atom   15 type  4   force =     0.00118699    0.00031955   -0.00032172
     atom   16 type  4   force =     0.00138571   -0.00047084    0.00100096
     atom   17 type  4   force =     0.00066717    0.00062991   -0.00008563
     atom   18 type  4   force =     0.00056823   -0.00096394   -0.00012623
     atom   19 type  4   force =     0.00099979    0.00060569   -0.00069140
     atom   20 type  4   force =    -0.00047657    0.00060999   -0.00033611
     atom   21 type  4   force =    -0.00173839    0.00140687   -0.00060870
     atom   22 type  4   force =    -0.00070240   -0.00039149    0.00022109
     atom   23 type  4   force =    -0.00020097   -0.00137023   -0.00033572
     atom   24 type  4   force =     0.00224923   -0.00056309   -0.00042725
     atom   25 type  4   force =    -0.00077789   -0.00101362    0.00023510
     atom   26 type  4   force =    -0.00009545    0.00057034   -0.00129472
     atom   27 type  4   force =    -0.00152282    0.00091160    0.00072277
     atom   28 type  4   force =    -0.00055296    0.00074266   -0.00118165

     Total force =     0.008130     Total SCF correction =     0.000025


     Computing stress (Cartesian axis) and pressure

          total   stress  (Ry/bohr**3)                   (kbar)     P=        1.28
   0.00000648   0.00000086  -0.00000256            0.95        0.13       -0.38
   0.00000086   0.00000295   0.00000009            0.13        0.43        0.01
  -0.00000256   0.00000009   0.00001659           -0.38        0.01        2.44

     Energy error            =      1.4E-04 Ry
     Gradient error          =      2.2E-03 Ry/Bohr
     Cell gradient error     =      2.4E+00 kbar

     number of scf cycles    =  42
     number of bfgs steps    =  41

     enthalpy           old  =   -1926.2718538775 Ry
     enthalpy           new  =   -1926.2719895376 Ry

     CASE: enthalpy          _new < enthalpy          _old

     new trust radius        =       0.0366731813 bohr
     new conv_thr            =       0.0000000001 Ry

     new unit-cell volume =   1656.75108 a.u.^3 (   245.50518 Ang^3 )
     density =      3.24640 g/cm^3

CELL_PARAMETERS (angstrom)
   7.537247354  -0.023700818  -0.034369498
  -5.056799323   5.801242252   0.163210705
  -2.279048459   1.185620907   5.669077234

ATOMIC_POSITIONS (angstrom)
Co              -4.1999932984        5.3561304101        5.5239874772
Mg              -3.0037638224        4.9069653135        2.6673190814
Mg               3.2875518234        2.0404943714        3.0767373003
Mg               4.4321104914        1.5233936395        0.1849611332
Mg               0.8208252376        6.5743297234        4.4404536428
Mg              -0.5698762777        0.3349969546        1.4227691151
Mg              -0.6037494964        3.8257010805        4.2759045476
Mg               0.6178906092        3.1938711713        1.4225656655
Ni              -1.7315344822        6.1482053055        5.2142087762
Ni              -1.8019917852        2.5337133074        2.2871223678
Ni               2.0533776553        4.3596170543        3.4851166185
Ni               1.8981782249        0.8503366268        0.5502724219
H               -0.4702731486        5.3806350383        5.6698601953
H               -0.3744390222        2.1164474547        2.7608762714
H                0.6283449692        4.8297154382        3.0394294449
H                0.5787531389        1.5034197402        0.1146787461
H                5.0486655721        1.1200093773        2.1359852297
H                3.8286755483        1.8124562697        5.0679676576
H               -3.2232271120        5.0391921883        0.4715645452
H               -4.8746195402        5.7814497444        4.0756658864
H               -3.0735166209        6.1203729238        4.4118824512
H               -2.5780201214        3.3308486460        1.1101116658
H                3.2236516360        3.9706556091        4.5793318784
H                2.8572432725        0.7851684336        1.7421107829
H                0.5087774347        2.4172834833        4.9688109186
H                2.5714369743        3.6728931230        2.2035463906
H               -2.4075802132        3.2092200464        3.5439568463
H               -0.6233036424        4.7467502927        0.7236611108



     Writing config-only to output data dir ./outdir/mg2nih4_co.save/ :
     XML data file
     NEW-OLD atomic charge density approx. for the potential
     New effective cutoffs (rho, wfc):  546.59   68.42

     Check: negative core charge=   -0.000002

     total cpu time spent up to now is    20211.6 secs

     Self-consistent Calculation

     iteration #  1     ecut=    60.00 Ry     beta= 0.30
     Davidson diagonalization with overlap
     ethr =  1.00E-06,  avg # of iterations =  4.0

     total cpu time spent up to now is    20263.5 secs

     total energy              =   -1926.27205044 Ry
     estimated scf accuracy    <       0.00041075 Ry

     iteration #  2     ecut=    60.00 Ry     beta= 0.30
     Davidson diagonalization with overlap
     ethr =  3.45E-07,  avg # of iterations =  3.0

     total cpu time spent up to now is    20296.4 secs

     total energy              =   -1926.27191817 Ry
     estimated scf accuracy    <       0.00357247 Ry

     iteration #  3     ecut=    60.00 Ry     beta= 0.30
     Davidson diagonalization with overlap
     ethr =  3.45E-07,  avg # of iterations =  3.0

     total cpu time spent up to now is    20328.1 secs

     total energy              =   -1926.27211943 Ry
     estimated scf accuracy    <       0.00022844 Ry

     iteration #  4     ecut=    60.00 Ry     beta= 0.30
     Davidson diagonalization with overlap
     ethr =  1.92E-07,  avg # of iterations =  1.2

     total cpu time spent up to now is    20352.5 secs

     total energy              =   -1926.27212637 Ry
     estimated scf accuracy    <       0.00008836 Ry

     iteration #  5     ecut=    60.00 Ry     beta= 0.30
     Davidson diagonalization with overlap
     ethr =  7.42E-08,  avg # of iterations =  1.8

     total cpu time spent up to now is    20381.9 secs

     total energy              =   -1926.27213250 Ry
     estimated scf accuracy    <       0.00001591 Ry

     iteration #  6     ecut=    60.00 Ry     beta= 0.30
     Davidson diagonalization with overlap
     ethr =  1.34E-08,  avg # of iterations =  2.0

     total cpu time spent up to now is    20409.6 secs

     total energy              =   -1926.27213341 Ry
     estimated scf accuracy    <       0.00001747 Ry

     iteration #  7     ecut=    60.00 Ry     beta= 0.30
     Davidson diagonalization with overlap
     ethr =  1.34E-08,  avg # of iterations =  1.0

     total cpu time spent up to now is    20432.2 secs

     total energy              =   -1926.27213463 Ry
     estimated scf accuracy    <       0.00000056 Ry

     iteration #  8     ecut=    60.00 Ry     beta= 0.30
     Davidson diagonalization with overlap
     ethr =  4.69E-10,  avg # of iterations =  4.0

     total cpu time spent up to now is    20476.0 secs

     total energy              =   -1926.27213480 Ry
     estimated scf accuracy    <       0.00000115 Ry

     iteration #  9     ecut=    60.00 Ry     beta= 0.30
     Davidson diagonalization with overlap
     ethr =  4.69E-10,  avg # of iterations =  2.0

     total cpu time spent up to now is    20503.3 secs

     total energy              =   -1926.27213487 Ry
     estimated scf accuracy    <       0.00000010 Ry

     iteration # 10     ecut=    60.00 Ry     beta= 0.30
     Davidson diagonalization with overlap
     ethr =  8.81E-11,  avg # of iterations =  2.0

     total cpu time spent up to now is    20531.7 secs

     total energy              =   -1926.27213489 Ry
     estimated scf accuracy    <       0.00000003 Ry

     iteration # 11     ecut=    60.00 Ry     beta= 0.30
     Davidson diagonalization with overlap
     ethr =  2.30E-11,  avg # of iterations =  2.0

     total cpu time spent up to now is    20558.9 secs

     total energy              =   -1926.27213489 Ry
     estimated scf accuracy    <       0.00000003 Ry

     iteration # 12     ecut=    60.00 Ry     beta= 0.30
     Davidson diagonalization with overlap
     ethr =  2.20E-11,  avg # of iterations =  1.0

     total cpu time spent up to now is    20581.7 secs

     total energy              =   -1926.27213489 Ry
     estimated scf accuracy    <          9.9E-10 Ry

     iteration # 13     ecut=    60.00 Ry     beta= 0.30
     Davidson diagonalization with overlap
     ethr =  8.32E-13,  avg # of iterations =  2.7

     total cpu time spent up to now is    20616.3 secs

     total energy              =   -1926.27213489 Ry
     estimated scf accuracy    <          4.0E-10 Ry

     iteration # 14     ecut=    60.00 Ry     beta= 0.30
     Davidson diagonalization with overlap
     ethr =  3.40E-13,  avg # of iterations =  1.1

     total cpu time spent up to now is    20639.9 secs

     End of self-consistent calculation

     Number of k-points >= 100: set verbosity='high' to print the bands.

     the Fermi energy is     6.9213 ev

!    total energy              =   -1926.27213489 Ry
     estimated scf accuracy    <          1.8E-11 Ry
     smearing contrib. (-TS)   =      -0.00036855 Ry
     internal energy E=F+TS    =   -1926.27176634 Ry

     The total energy is F=E-TS. E is the sum of the following terms:
     one-electron contribution =   -1699.35760368 Ry
     hartree contribution      =     884.40811259 Ry
     xc contribution           =    -198.33989192 Ry
     ewald contribution        =    -693.56121888 Ry
     DFT-D3 Dispersion         =      -0.36694491 Ry
     one-center paw contrib.   =    -219.05421954 Ry

     convergence has been achieved in  14 iterations

     Forces acting on atoms (cartesian axes, Ry/au):

     atom    1 type  1   force =     0.00018791   -0.00094052    0.00018805
     atom    2 type  2   force =    -0.00025102    0.00063920    0.00157931
     atom    3 type  2   force =    -0.00083787   -0.00065823   -0.00110417
     atom    4 type  2   force =    -0.00052397   -0.00019832    0.00040380
     atom    5 type  2   force =     0.00145643    0.00038184   -0.00022588
     atom    6 type  2   force =    -0.00057312   -0.00053360   -0.00085894
     atom    7 type  2   force =     0.00056023   -0.00018072   -0.00007325
     atom    8 type  2   force =     0.00042419   -0.00009022    0.00078864
     atom    9 type  3   force =     0.00005705    0.00247946    0.00035670
     atom   10 type  3   force =     0.00071631   -0.00266053    0.00285993
     atom   11 type  3   force =    -0.00164965   -0.00021055   -0.00145517
     atom   12 type  3   force =    -0.00055363    0.00034455    0.00064396
     atom   13 type  4   force =     0.00141144   -0.00126292    0.00139999
     atom   14 type  4   force =    -0.00185800    0.00026970    0.00003125
     atom   15 type  4   force =     0.00169653    0.00025633   -0.00019415
     atom   16 type  4   force =     0.00148712   -0.00046432    0.00103579
     atom   17 type  4   force =     0.00083999    0.00116697    0.00004099
     atom   18 type  4   force =     0.00027556   -0.00083722    0.00018629
     atom   19 type  4   force =     0.00027946    0.00021994   -0.00064509
     atom   20 type  4   force =    -0.00078838    0.00167653   -0.00072299
     atom   21 type  4   force =    -0.00211213    0.00121509   -0.00076956
     atom   22 type  4   force =    -0.00040275    0.00027143   -0.00055314
     atom   23 type  4   force =    -0.00010910   -0.00138475   -0.00005527
     atom   24 type  4   force =     0.00204505   -0.00016394   -0.00041032
     atom   25 type  4   force =    -0.00100657   -0.00090693    0.00006479
     atom   26 type  4   force =     0.00000642    0.00044119   -0.00151163
     atom   27 type  4   force =    -0.00094237    0.00029902   -0.00009731
     atom   28 type  4   force =     0.00016489    0.00083150   -0.00090267

     Total force =     0.009083     Total SCF correction =     0.000019


     Computing stress (Cartesian axis) and pressure

          total   stress  (Ry/bohr**3)                   (kbar)     P=        0.50
  -0.00000054   0.00000148  -0.00000049           -0.08        0.22       -0.07
   0.00000148   0.00000029  -0.00000312            0.22        0.04       -0.46
  -0.00000049  -0.00000312   0.00001040           -0.07       -0.46        1.53

     Energy error            =      1.5E-04 Ry
     Gradient error          =      2.9E-03 Ry/Bohr
     Cell gradient error     =      1.5E+00 kbar

     number of scf cycles    =  43
     number of bfgs steps    =  42

     enthalpy           old  =   -1926.2719895376 Ry
     enthalpy           new  =   -1926.2721348904 Ry

     CASE: enthalpy          _new < enthalpy          _old

     new trust radius        =       0.0364595788 bohr
     new conv_thr            =       0.0000000001 Ry

     new unit-cell volume =   1658.30223 a.u.^3 (   245.73504 Ang^3 )
     density =      3.24336 g/cm^3

CELL_PARAMETERS (angstrom)
   7.540490649  -0.024090355  -0.038860232
  -5.059179919   5.803676734   0.169440151
  -2.283477950   1.189518969   5.671923176

ATOMIC_POSITIONS (angstrom)
Co              -4.2068049197        5.3617492344        5.5313518675
Mg              -3.0090078837        4.9086319914        2.6785896876
Mg               3.2811774443        2.0431523053        3.0699978833
Mg               4.4331073206        1.5188778374        0.1815733790
Mg               0.8197992874        6.5807398987        4.4449667636
Mg              -0.5694739487        0.3367415149        1.4235570123
Mg              -0.6062433433        3.8308025716        4.2784769944
Mg               0.6188702495        3.1979868092        1.4246863850
Ni              -1.7356225948        6.1544017536        5.2177680419
Ni              -1.8046305373        2.5387881203        2.2894518886
Ni               2.0506159399        4.3632061914        3.4860145635
Ni               1.9002201569        0.8514582643        0.5537370253
H               -0.4752846777        5.3822645663        5.6731892082
H               -0.3778756979        2.1218059735        2.7658960159
H                0.6259024571        4.8339607690        3.0415841231
H                0.5814991509        1.5037669279        0.1182232115
H                5.0539592302        1.1224705522        2.1335997254
H                3.8317864717        1.8127626936        5.0615447961
H               -3.2182094447        5.0453279716        0.4753170461
H               -4.8803335578        5.7832029709        4.0843180714
H               -3.0822964822        6.1336206266        4.4201123892
H               -2.5904277374        3.3307048864        1.1142741543
H                3.2216546492        3.9744654784        4.5808240143
H                2.8719569247        0.7747278957        1.7360314329
H                0.5037116754        2.4215019713        4.9730161785
H                2.5718063273        3.6829946043        2.2028281026
H               -2.4135092090        3.2103077948        3.5500236876
H               -0.6266883366        4.7470527011        0.7240896774



     Writing config-only to output data dir ./outdir/mg2nih4_co.save/ :
     XML data file
     NEW-OLD atomic charge density approx. for the potential
     New effective cutoffs (rho, wfc):  547.04   68.48

     Check: negative core charge=   -0.000002

     total cpu time spent up to now is    20656.7 secs

     Self-consistent Calculation

     iteration #  1     ecut=    60.00 Ry     beta= 0.30
     Davidson diagonalization with overlap
     ethr =  1.00E-06,  avg # of iterations =  3.5

     total cpu time spent up to now is    20710.0 secs

     total energy              =   -1926.27226266 Ry
     estimated scf accuracy    <       0.00019154 Ry

     iteration #  2     ecut=    60.00 Ry     beta= 0.30
     Davidson diagonalization with overlap
     ethr =  1.61E-07,  avg # of iterations =  2.0

     total cpu time spent up to now is    20737.7 secs

     total energy              =   -1926.27225783 Ry
     estimated scf accuracy    <       0.00013873 Ry

     iteration #  3     ecut=    60.00 Ry     beta= 0.30
     Davidson diagonalization with overlap
     ethr =  1.17E-07,  avg # of iterations =  2.0

     total cpu time spent up to now is    20765.3 secs

     total energy              =   -1926.27225849 Ry
     estimated scf accuracy    <       0.00021734 Ry

     iteration #  4     ecut=    60.00 Ry     beta= 0.30
     Davidson diagonalization with overlap
     ethr =  1.17E-07,  avg # of iterations =  2.1

     total cpu time spent up to now is    20793.1 secs

     total energy              =   -1926.27226387 Ry
     estimated scf accuracy    <       0.00022432 Ry

     iteration #  5     ecut=    60.00 Ry     beta= 0.30
     Davidson diagonalization with overlap
     ethr =  1.17E-07,  avg # of iterations =  1.0

     total cpu time spent up to now is    20816.2 secs

     total energy              =   -1926.27227445 Ry
     estimated scf accuracy    <       0.00001873 Ry

     iteration #  6     ecut=    60.00 Ry     beta= 0.30
     Davidson diagonalization with overlap
     ethr =  1.57E-08,  avg # of iterations =  2.0

     total cpu time spent up to now is    20844.5 secs

     total energy              =   -1926.27227629 Ry
     estimated scf accuracy    <       0.00001135 Ry

     iteration #  7     ecut=    60.00 Ry     beta= 0.30
     Davidson diagonalization with overlap
     ethr =  9.54E-09,  avg # of iterations =  1.0

     total cpu time spent up to now is    20867.1 secs

     total energy              =   -1926.27227703 Ry
     estimated scf accuracy    <       0.00000056 Ry

     iteration #  8     ecut=    60.00 Ry     beta= 0.30
     Davidson diagonalization with overlap
     ethr =  4.71E-10,  avg # of iterations =  4.0

     total cpu time spent up to now is    20908.1 secs

     total energy              =   -1926.27227717 Ry
     estimated scf accuracy    <       0.00000088 Ry

     iteration #  9     ecut=    60.00 Ry     beta= 0.30
     Davidson diagonalization with overlap
     ethr =  4.71E-10,  avg # of iterations =  1.6

     total cpu time spent up to now is    20935.8 secs

     total energy              =   -1926.27227723 Ry
     estimated scf accuracy    <       0.00000008 Ry

     iteration # 10     ecut=    60.00 Ry     beta= 0.30
     Davidson diagonalization with overlap
     ethr =  6.71E-11,  avg # of iterations =  2.0

     total cpu time spent up to now is    20964.5 secs

     total energy              =   -1926.27227724 Ry
     estimated scf accuracy    <       0.00000002 Ry

     iteration # 11     ecut=    60.00 Ry     beta= 0.30
     Davidson diagonalization with overlap
     ethr =  1.71E-11,  avg # of iterations =  2.0

     total cpu time spent up to now is    20991.5 secs

     total energy              =   -1926.27227724 Ry
     estimated scf accuracy    <       0.00000002 Ry

     iteration # 12     ecut=    60.00 Ry     beta= 0.30
     Davidson diagonalization with overlap
     ethr =  1.34E-11,  avg # of iterations =  1.1

     total cpu time spent up to now is    21014.9 secs

     total energy              =   -1926.27227724 Ry
     estimated scf accuracy    <          8.9E-10 Ry

     iteration # 13     ecut=    60.00 Ry     beta= 0.30
     Davidson diagonalization with overlap
     ethr =  7.45E-13,  avg # of iterations =  2.5

     total cpu time spent up to now is    21047.4 secs

     total energy              =   -1926.27227724 Ry
     estimated scf accuracy    <          1.9E-10 Ry

     iteration # 14     ecut=    60.00 Ry     beta= 0.30
     Davidson diagonalization with overlap
     ethr =  1.61E-13,  avg # of iterations =  2.3

     total cpu time spent up to now is    21079.0 secs

     End of self-consistent calculation

     Number of k-points >= 100: set verbosity='high' to print the bands.

     the Fermi energy is     6.9134 ev

!    total energy              =   -1926.27227724 Ry
     estimated scf accuracy    <          1.5E-11 Ry
     smearing contrib. (-TS)   =      -0.00035547 Ry
     internal energy E=F+TS    =   -1926.27192177 Ry

     The total energy is F=E-TS. E is the sum of the following terms:
     one-electron contribution =   -1699.69444043 Ry
     hartree contribution      =     884.53463836 Ry
     xc contribution           =    -198.33079944 Ry
     ewald contribution        =    -693.36163835 Ry
     DFT-D3 Dispersion         =      -0.36661819 Ry
     one-center paw contrib.   =    -219.05306372 Ry

     convergence has been achieved in  14 iterations

     Forces acting on atoms (cartesian axes, Ry/au):

     atom    1 type  1   force =     0.00055849   -0.00220063    0.00003226
     atom    2 type  2   force =    -0.00029028    0.00120535    0.00131780
     atom    3 type  2   force =    -0.00037191   -0.00114303   -0.00112303
     atom    4 type  2   force =     0.00037530    0.00007796    0.00038959
     atom    5 type  2   force =     0.00123667    0.00032026   -0.00026294
     atom    6 type  2   force =    -0.00075548   -0.00011331   -0.00077606
     atom    7 type  2   force =     0.00061428   -0.00034344   -0.00004061
     atom    8 type  2   force =    -0.00027126   -0.00048819    0.00097092
     atom    9 type  3   force =    -0.00044316    0.00187108    0.00037653
     atom   10 type  3   force =     0.00003585   -0.00258949    0.00299966
     atom   11 type  3   force =    -0.00146162   -0.00040296   -0.00094659
     atom   12 type  3   force =    -0.00000760    0.00066925    0.00130770
     atom   13 type  4   force =     0.00113152   -0.00088284    0.00110371
     atom   14 type  4   force =    -0.00164834    0.00036095   -0.00017325
     atom   15 type  4   force =     0.00156602    0.00027287   -0.00016847
     atom   16 type  4   force =     0.00113117   -0.00024777    0.00094211
     atom   17 type  4   force =     0.00069307    0.00106115    0.00011694
     atom   18 type  4   force =     0.00020147   -0.00019237    0.00043738
     atom   19 type  4   force =    -0.00045040   -0.00014444   -0.00050821
     atom   20 type  4   force =    -0.00099180    0.00226967   -0.00097195
     atom   21 type  4   force =    -0.00201675    0.00098256   -0.00057028
     atom   22 type  4   force =     0.00025884    0.00073526   -0.00099733
     atom   23 type  4   force =    -0.00021604   -0.00125891    0.00007135
     atom   24 type  4   force =     0.00167179    0.00008501   -0.00055664
     atom   25 type  4   force =    -0.00117851   -0.00078137   -0.00000374
     atom   26 type  4   force =     0.00013538    0.00032848   -0.00157892
     atom   27 type  4   force =    -0.00036158   -0.00025186   -0.00080210
     atom   28 type  4   force =     0.00085487    0.00080076   -0.00058581

     Total force =     0.008958     Total SCF correction =     0.000017


     Computing stress (Cartesian axis) and pressure

          total   stress  (Ry/bohr**3)                   (kbar)     P=       -0.53
  -0.00000753   0.00000208   0.00000117           -1.11        0.31        0.17
   0.00000208  -0.00000293  -0.00000534            0.31       -0.43       -0.79
   0.00000117  -0.00000534  -0.00000029            0.17       -0.79       -0.04

     Energy error            =      1.4E-04 Ry
     Gradient error          =      3.0E-03 Ry/Bohr
     Cell gradient error     =      1.1E+00 kbar

     number of scf cycles    =  44
     number of bfgs steps    =  43

     enthalpy           old  =   -1926.2721348904 Ry
     enthalpy           new  =   -1926.2722772408 Ry

     CASE: enthalpy          _new < enthalpy          _old

     new trust radius        =       0.0360134525 bohr
     new conv_thr            =       0.0000000001 Ry

     new unit-cell volume =   1659.33916 a.u.^3 (   245.88869 Ang^3 )
     density =      3.24133 g/cm^3

CELL_PARAMETERS (angstrom)
   7.541800491  -0.023647461  -0.042931626
  -5.059671514   5.805054052   0.174312556
  -2.286921814   1.191950153   5.674578654

ATOMIC_POSITIONS (angstrom)
Co              -4.2109396103        5.3640313183        5.5369822124
Mg              -3.0129694365        4.9099948045        2.6894846856
Mg               3.2744434709        2.0446216308        3.0627707114
Mg               4.4330205243        1.5151630900        0.1786500427
Mg               0.8204208577        6.5858428747        4.4484754791
Mg              -0.5695318424        0.3378407593        1.4237713014
Mg              -0.6074897775        3.8343726266        4.2805994044
Mg               0.6197538306        3.2012014418        1.4269936535
Ni              -1.7385887687        6.1601279384        5.2205343993
Ni              -1.8064019896        2.5414086859        2.2931541191
Ni               2.0468802718        4.3656228867        3.4857870085
Ni               1.9019622998        0.8527812777        0.5578227059
H               -0.4786187391        5.3816106139        5.6765714308
H               -0.3817347134        2.1262191433        2.7707864276
H                0.6247703156        4.8378250745        3.0424174858
H                0.5848117902        1.5039167454        0.1222636017
H                5.0583701508        1.1256328444        2.1314824843
H                3.8340679462        1.8126644960        5.0558921879
H               -3.2125969253        5.0502620745        0.4777998820
H               -4.8842823595        5.7846676355        4.0906508958
H               -3.0903731707        6.1457903434        4.4261681524
H               -2.6006620233        3.3303513672        1.1168897518
H                3.2185897476        3.9756450922        4.5818774173
H                2.8865035290        0.7652259749        1.7297923782
H                0.4983483200        2.4235245242        4.9765672330
H                2.5720728420        3.6924056924        2.2006922873
H               -2.4182834559        3.2103778243        3.5551883897
H               -0.6286427991        4.7478656351        0.7233684403



     Writing config-only to output data dir ./outdir/mg2nih4_co.save/ :
     XML data file
     NEW-OLD atomic charge density approx. for the potential
     New effective cutoffs (rho, wfc):  547.33   68.51

     Check: negative core charge=   -0.000002

     total cpu time spent up to now is    21095.7 secs

     Self-consistent Calculation

     iteration #  1     ecut=    60.00 Ry     beta= 0.30
     Davidson diagonalization with overlap
     ethr =  1.00E-06,  avg # of iterations =  4.0

     total cpu time spent up to now is    21150.6 secs

     total energy              =   -1926.27237469 Ry
     estimated scf accuracy    <       0.00025800 Ry

     iteration #  2     ecut=    60.00 Ry     beta= 0.30
     Davidson diagonalization with overlap
     ethr =  2.17E-07,  avg # of iterations =  3.0

     total cpu time spent up to now is    21182.7 secs

     total energy              =   -1926.27229006 Ry
     estimated scf accuracy    <       0.00231401 Ry

     iteration #  3     ecut=    60.00 Ry     beta= 0.30
     Davidson diagonalization with overlap
     ethr =  2.17E-07,  avg # of iterations =  3.0

     total cpu time spent up to now is    21214.3 secs

     total energy              =   -1926.27241173 Ry
     estimated scf accuracy    <       0.00010438 Ry

     iteration #  4     ecut=    60.00 Ry     beta= 0.30
     Davidson diagonalization with overlap
     ethr =  8.77E-08,  avg # of iterations =  2.0

     total cpu time spent up to now is    21241.4 secs

     total energy              =   -1926.27240928 Ry
     estimated scf accuracy    <       0.00012522 Ry

     iteration #  5     ecut=    60.00 Ry     beta= 0.30
     Davidson diagonalization with overlap
     ethr =  8.77E-08,  avg # of iterations =  1.0

     total cpu time spent up to now is    21264.0 secs

     total energy              =   -1926.27241847 Ry
     estimated scf accuracy    <       0.00000541 Ry

     iteration #  6     ecut=    60.00 Ry     beta= 0.30
     Davidson diagonalization with overlap
     ethr =  4.55E-09,  avg # of iterations =  2.0

     total cpu time spent up to now is    21293.4 secs

     total energy              =   -1926.27241890 Ry
     estimated scf accuracy    <       0.00000192 Ry

     iteration #  7     ecut=    60.00 Ry     beta= 0.30
     Davidson diagonalization with overlap
     ethr =  1.62E-09,  avg # of iterations =  1.8

     total cpu time spent up to now is    21321.5 secs

     total energy              =   -1926.27241896 Ry
     estimated scf accuracy    <       0.00000107 Ry

     iteration #  8     ecut=    60.00 Ry     beta= 0.30
     Davidson diagonalization with overlap
     ethr =  9.01E-10,  avg # of iterations =  1.6

     total cpu time spent up to now is    21349.3 secs

     total energy              =   -1926.27241906 Ry
     estimated scf accuracy    <       0.00000018 Ry

     iteration #  9     ecut=    60.00 Ry     beta= 0.30
     Davidson diagonalization with overlap
     ethr =  1.50E-10,  avg # of iterations =  4.0

     total cpu time spent up to now is    21395.4 secs

     total energy              =   -1926.27241914 Ry
     estimated scf accuracy    <       0.00000008 Ry

     iteration # 10     ecut=    60.00 Ry     beta= 0.30
     Davidson diagonalization with overlap
     ethr =  6.95E-11,  avg # of iterations =  1.4

     total cpu time spent up to now is    21422.9 secs

     total energy              =   -1926.27241915 Ry
     estimated scf accuracy    <          3.9E-09 Ry

     iteration # 11     ecut=    60.00 Ry     beta= 0.30
     Davidson diagonalization with overlap
     ethr =  3.30E-12,  avg # of iterations =  3.0

     total cpu time spent up to now is    21457.6 secs

     total energy              =   -1926.27241915 Ry
     estimated scf accuracy    <          1.8E-09 Ry

     iteration # 12     ecut=    60.00 Ry     beta= 0.30
     Davidson diagonalization with overlap
     ethr =  1.52E-12,  avg # of iterations =  2.0

     total cpu time spent up to now is    21484.8 secs

     total energy              =   -1926.27241915 Ry
     estimated scf accuracy    <          8.8E-10 Ry

     iteration # 13     ecut=    60.00 Ry     beta= 0.30
     Davidson diagonalization with overlap
     ethr =  7.37E-13,  avg # of iterations =  1.4

     total cpu time spent up to now is    21511.5 secs

     total energy              =   -1926.27241915 Ry
     estimated scf accuracy    <          2.8E-10 Ry

     iteration # 14     ecut=    60.00 Ry     beta= 0.30
     Davidson diagonalization with overlap
     ethr =  2.39E-13,  avg # of iterations =  2.0

     total cpu time spent up to now is    21538.6 secs

     End of self-consistent calculation

     Number of k-points >= 100: set verbosity='high' to print the bands.

     the Fermi energy is     6.9074 ev

!    total energy              =   -1926.27241915 Ry
     estimated scf accuracy    <          2.1E-11 Ry
     smearing contrib. (-TS)   =      -0.00034483 Ry
     internal energy E=F+TS    =   -1926.27207432 Ry

     The total energy is F=E-TS. E is the sum of the following terms:
     one-electron contribution =   -1699.67622832 Ry
     hartree contribution      =     884.49409570 Ry
     xc contribution           =    -198.32337908 Ry
     ewald contribution        =    -693.34797127 Ry
     DFT-D3 Dispersion         =      -0.36640122 Ry
     one-center paw contrib.   =    -219.05219012 Ry

     convergence has been achieved in  14 iterations

     Forces acting on atoms (cartesian axes, Ry/au):

     atom    1 type  1   force =     0.00056164   -0.00293145   -0.00026864
     atom    2 type  2   force =    -0.00031841    0.00153003    0.00098309
     atom    3 type  2   force =     0.00003611   -0.00131973   -0.00090409
     atom    4 type  2   force =     0.00113347    0.00040171    0.00027779
     atom    5 type  2   force =     0.00079917    0.00026476   -0.00021443
     atom    6 type  2   force =    -0.00079563    0.00021740   -0.00060505
     atom    7 type  2   force =     0.00062576   -0.00039552    0.00002741
     atom    8 type  2   force =    -0.00098555   -0.00074766    0.00095475
     atom    9 type  3   force =    -0.00078977    0.00045164    0.00027112
     atom   10 type  3   force =    -0.00093711   -0.00139500    0.00204842
     atom   11 type  3   force =    -0.00046134   -0.00045152   -0.00019656
     atom   12 type  3   force =     0.00077279    0.00067250    0.00185745
     atom   13 type  4   force =     0.00036565   -0.00017432    0.00060172
     atom   14 type  4   force =    -0.00080443    0.00024864   -0.00016397
     atom   15 type  4   force =     0.00084370    0.00037917   -0.00026950
     atom   16 type  4   force =     0.00042825    0.00011158    0.00073135
     atom   17 type  4   force =     0.00024540    0.00033286    0.00012634
     atom   18 type  4   force =     0.00029787    0.00065064    0.00060076
     atom   19 type  4   force =    -0.00095973   -0.00047087   -0.00032099
     atom   20 type  4   force =    -0.00103132    0.00222040   -0.00106187
     atom   21 type  4   force =    -0.00150858    0.00074809   -0.00005603
     atom   22 type  4   force =     0.00116354    0.00085459   -0.00091611
     atom   23 type  4   force =    -0.00038791   -0.00099091    0.00003142
     atom   24 type  4   force =     0.00127617    0.00012236   -0.00074173
     atom   25 type  4   force =    -0.00122003   -0.00067004    0.00004148
     atom   26 type  4   force =     0.00026890    0.00024699   -0.00146564
     atom   27 type  4   force =     0.00002014   -0.00056476   -0.00113296
     atom   28 type  4   force =     0.00136126    0.00065845   -0.00023554

     Total force =     0.007984     Total SCF correction =     0.000020


     Computing stress (Cartesian axis) and pressure

          total   stress  (Ry/bohr**3)                   (kbar)     P=       -1.31
  -0.00001114   0.00000267   0.00000178           -1.64        0.39        0.26
   0.00000267  -0.00000495  -0.00000595            0.39       -0.73       -0.88
   0.00000178  -0.00000595  -0.00001053            0.26       -0.88       -1.55

     Energy error            =      1.4E-04 Ry
     Gradient error          =      2.9E-03 Ry/Bohr
     Cell gradient error     =      1.6E+00 kbar

     number of scf cycles    =  45
     number of bfgs steps    =  44

     enthalpy           old  =   -1926.2722772408 Ry
     enthalpy           new  =   -1926.2724191523 Ry

     CASE: enthalpy          _new < enthalpy          _old

     new trust radius        =       0.0351294011 bohr
     new conv_thr            =       0.0000000001 Ry

     new unit-cell volume =   1658.92023 a.u.^3 (   245.82661 Ang^3 )
     density =      3.24215 g/cm^3

CELL_PARAMETERS (angstrom)
   7.540417507  -0.022435556  -0.046353405
  -5.057815283   5.804774622   0.177298276
  -2.288981868   1.192388660   5.674880376

ATOMIC_POSITIONS (angstrom)
Co              -4.2116071856        5.3618366549        5.5385334469
Mg              -3.0153646317        4.9105217447        2.6982184998
Mg               3.2674937808        2.0442354675        3.0541481995
Mg               4.4320787027        1.5122629561        0.1760337897
Mg               0.8221560768        6.5884480507        4.4490418887
Mg              -0.5699437413        0.3384985991        1.4230337276
Mg              -0.6074809929        3.8355647636        4.2804293770
Mg               0.6201074348        3.2028104628        1.4287464071
Ni              -1.7402337306        6.1634392153        5.2201548209
Ni              -1.8077148069        2.5417774380        2.2963600528
Ni               2.0427471123        4.3660677404        3.4835803887
Ni               1.9034857338        0.8543741315        0.5626129611
H               -0.4803092389        5.3781904892        5.6770748954
H               -0.3853285433        2.1293568077        2.7739870122
H                0.6244035196        4.8402716563        3.0409616221
H                0.5880970665        1.5041054715        0.1264027457
H                5.0609890288        1.1283025761        2.1291134486
H                3.8354202947        1.8122892807        5.0493821567
H               -3.2072884958        5.0532560788        0.4786951863
H               -4.8859647980        5.7854044916        4.0928850894
H               -3.0970502724        6.1552924800        4.4282798813
H               -2.6080303219        3.3298903563        1.1169995696
H                3.2143815471        3.9732861609        4.5805317636
H                2.9003005460        0.7563487813        1.7230817471
H                0.4930017151        2.4232701440        4.9775702692
H                2.5721337664        3.7001564565        2.1961196279
H               -2.4214038866        3.2086003764        3.5578662554
H               -0.6283907041        4.7483293335        0.7217086249



     Writing config-only to output data dir ./outdir/mg2nih4_co.save/ :
     XML data file
     NEW-OLD atomic charge density approx. for the potential
     New effective cutoffs (rho, wfc):  547.76   68.55

     Check: negative core charge=   -0.000002

     total cpu time spent up to now is    21555.4 secs

     Self-consistent Calculation

     iteration #  1     ecut=    60.00 Ry     beta= 0.30
     Davidson diagonalization with overlap

     Maximum CPU time exceeded

     max_seconds     =   21600.00
     elapsed seconds =   21600.03
     Calculation stopped in k-point loop, point #   358
     Calculation stopped in scf loop at iteration #     0

     Writing config to output data dir ./outdir/mg2nih4_co.save/ :
     XML data file, charge density
 
     init_run     :    105.48s CPU     22.91s WALL (       1 calls)
     electrons    :  22535.66s CPU  20817.66s WALL (      46 calls)
     update_pot   :     36.41s CPU      3.15s WALL (      45 calls)
     forces       :    227.99s CPU    210.66s WALL (      45 calls)
     force_dftd3  :     32.59s CPU     31.29s WALL (      45 calls)
     stress       :    504.04s CPU    456.18s WALL (      45 calls)
     stres_dftd3  :     32.66s CPU     31.24s WALL (      45 calls)

     Called by init_run:
     wfcinit      :     13.33s CPU     14.73s WALL (       1 calls)
     potinit      :     90.73s CPU      6.81s WALL (       1 calls)
     hinit0       :      0.84s CPU      0.66s WALL (       1 calls)

     Called by electrons:
     c_bands      :  19346.05s CPU  18403.28s WALL (     632 calls)
     sum_band     :   2559.14s CPU   2247.06s WALL (     631 calls)
     v_of_rho     :      4.44s CPU      3.68s WALL (     677 calls)
     newd         :    114.41s CPU    108.15s WALL (     677 calls)
     PAW_pot      :    448.23s CPU     25.28s WALL (     722 calls)
     mix_rho      :      7.17s CPU      5.63s WALL (     631 calls)
     energy_dftd3 :     28.92s CPU     28.74s WALL (      46 calls)

     Called by c_bands:
     init_us_2    :    377.98s CPU    311.90s WALL (  537190 calls)
     cegterg      :  18228.19s CPU  17313.02s WALL (  242662 calls)

     Called by *egterg:
     cdiaghg      :   4733.74s CPU   5031.10s WALL (  800222 calls)
                                     5024.23s GPU  (  800222 calls)
     h_psi        :   7134.48s CPU   6333.63s WALL (  817860 calls)
     s_psi        :   1482.21s CPU   1479.05s WALL (  817860 calls)
     g_psi        :     28.56s CPU     27.99s WALL (  574814 calls)

     Called by h_psi:
     h_psi:calbec :     22.41s CPU     20.43s WALL (  817860 calls)
     vloc_psi     :   5652.55s CPU   4864.46s WALL (  817860 calls)
                                     4862.21s GPU  (  817860 calls)
     add_vuspsi   :   1428.82s CPU   1425.75s WALL (  817860 calls)

     General routines
     calbec       :     27.57s CPU     25.62s WALL ( 1371204 calls)
     fft          :    122.71s CPU      9.71s WALL (    9881 calls)
                                        1.49s GPU  (    9204 calls)
     ffts         :     19.68s CPU      1.02s WALL (    1308 calls)
                                        0.06s GPU  (     631 calls)
     fftw         :     62.88s CPU   5161.43s WALL ( 7386044 calls)
                                     5128.21s GPU  ( 7386044 calls)
     interpolate  :    146.57s CPU     10.76s WALL (     677 calls)
     davcio       :      0.04s CPU      1.45s WALL (     384 calls)
 
 
     PWSCF        :      6h31m CPU      6h 0m WALL

 
   This run was terminated on:   1:48:54  11Jun2026            

=------------------------------------------------------------------------------=
   JOB DONE.
=------------------------------------------------------------------------------=
