
     Program PWSCF v.7.5 starts on 12Jun2026 at 15:17:29 

     This program is part of the open-source Quantum ESPRESSO suite
     for quantum simulation of materials; please cite
         "P. Giannozzi et al., J. Phys.:Condens. Matter 21 395502 (2009);
         "P. Giannozzi et al., J. Phys.:Condens. Matter 29 465901 (2017);
         "P. Giannozzi et al., J. Chem. Phys. 152 154105 (2020);
          URL http://www.quantum-espresso.org", 
     in publications or presentations arising from this work. More details at
     http://www.quantum-espresso.org/quote

     Serial multi-threaded version, running on   32 processor cores
     23940 MiB available memory on the printing compute node when the environment starts
 
     Reading input from inputs/mg2ni_ni.in

     Current dimensions of program PWSCF are:
     Max number of different atomic species (ntypx) = 10
     Max number of k-points (npk) =  40000
     Max angular momentum in pseudopotentials (lmaxx) =  4

     File ./outdir/mg2ni_ni.update deleted, as requested

     File ./outdir/mg2ni_ni.bfgs deleted, as requested
     file Mg.pbe-n-kjpaw_psl.0.3.0.UPF: wavefunction(s)  3S renormalized
 
 
     G-vector sticks info
     --------------------
     sticks:   dense  smooth     PW     G-vecs:    dense   smooth      PW
     Sum        3041    1515    439               342375   121055   19365
 
     Using Slab Decomposition
 


     bravais-lattice index     =            0
     lattice parameter (alat)  =       9.5644  a.u.
     unit-cell volume          =    1927.2969 (a.u.)^3
     number of atoms/cell      =           18
     number of atomic types    =            2
     number of electrons       =       148.00
     number of Kohn-Sham states=           89
     kinetic-energy cutoff     =      60.0000  Ry
     charge density cutoff     =     480.0000  Ry
     scf convergence threshold =      1.0E-09
     mixing beta               =       0.3000
     number of iterations used =           12  plain     mixing
     energy convergence thresh.=      1.0E-05
     force convergence thresh. =      1.0E-04
     press convergence thresh. =      5.0E-01
     Exchange-correlation= SLA  PW   PBX  PBC
                           (   1   4   3   4   0   0   0)
     nstep                     =          200


     GPU acceleration is ACTIVE.  1 visible GPUs per MPI rank


     celldm(1)=   9.564361  celldm(2)=   0.000000  celldm(3)=   0.000000
     celldm(4)=   0.000000  celldm(5)=   0.000000  celldm(6)=   0.000000

     crystal axes: (cart. coord. in units of alat)
               a(1) = (   0.999997   0.001331  -0.002206 )  
               a(2) = (  -0.498846   0.866688  -0.002206 )  
               a(3) = (  -0.005595  -0.009691   2.539775 )  

     reciprocal axes: (cart. coord. in units 2 pi/alat)
               b(1) = (  0.999247  0.575155  0.004396 )  
               b(2) = ( -0.001525  1.152951  0.004396 )  
               b(3) = (  0.000867  0.001501  0.393743 )  


     PseudoPot. # 1 for Ni read from file:
     /home/x/Workspace/3-hEspesso/pseudo/ni_pbe_v1.4.uspp.F.UPF
     MD5 check sum: 1ee80287db30b12d2bc1f57a5b5d6409
     Pseudo is Ultrasoft + core correction, Zval = 18.0
     Generated by new atomic code, or converted to UPF format
     Using radial grid of  865 points,  6 beta functions with: 
                l(1) =   0
                l(2) =   0
                l(3) =   1
                l(4) =   1
                l(5) =   2
                l(6) =   2
     Q(r) pseudized with 10 coefficients,  rinner =    0.980   0.980   0.980
                                                       0.980   0.980

     PseudoPot. # 2 for Mg read from file:
     /home/x/Workspace/3-hEspesso/pseudo/Mg.pbe-n-kjpaw_psl.0.3.0.UPF
     MD5 check sum: 24ecedc7f3e3cbe212e682f4413594e4
     Pseudo is Projector augmented-wave + core cor, Zval =  2.0
     Generated using "atomic" code by A. Dal Corso  v.5.0.99 svn rev. 10869
     Shape of augmentation charge: PSQ
     Using radial grid of 1129 points,  4 beta functions with: 
                l(1) =   0
                l(2) =   0
                l(3) =   1
                l(4) =   1
     Q(r) pseudized with 0 coefficients 


     atomic species   valence    mass     pseudopotential
     Ni               18.00    58.69340     Ni( 1.00)
     Mg                2.00    24.30500     Mg( 1.00)

     Starting magnetic structure 
     atomic species   magnetization
     Ni              0.400
     Mg              0.000

     No symmetry found



   Cartesian axes

     site n.     atom                  positions (alat units)
         1        Ni     tau(   1) = (  -0.2598274   0.7179224   2.1142736  )
         2        Mg     tau(   2) = (  -0.0027160   0.2813674   1.2732921  )
         3        Mg     tau(   3) = (   0.7435959   0.1385958   2.1142735  )
         4        Mg     tau(   4) = (   0.4980307   0.5771167   1.2691635  )
         5        Mg     tau(   5) = (   0.2523914   0.7232267   0.4154792  )
         6        Mg     tau(   6) = (   0.2466387   0.1416928   0.4196078  )
         7        Mg     tau(   7) = (   0.2445509   0.4263577   1.8344687  )
         8        Mg     tau(   8) = (   0.4992129  -0.0045307   1.5682763  )
         9        Mg     tau(   9) = (   0.2448643   0.4269009   2.3940775  )
        10        Mg     tau(  10) = (   0.4984134  -0.0031099   0.9793517  )
        11        Mg     tau(  11) = (   0.7493209   0.4314746   0.7094193  )
        12        Mg     tau(  12) = (   0.7509510   0.4314926   0.1204949  )
        13        Ni     tau(  13) = (   0.2492141   0.4304884   0.8443852  )
        14        Ni     tau(  14) = (   0.4935634  -0.0021458  -0.0095758  )
        15        Ni     tau(  15) = (   0.7460611   0.4351921   1.6983471  )
        16        Ni     tau(  16) = (  -0.0009895  -0.0037359   0.8465912  )
        17        Ni     tau(  17) = (   0.0067856  -0.0027808  -0.0114386  )
        18        Ni     tau(  18) = (   0.0020714  -0.0109474   1.7046235  )

     --------------------------------------------
     DFT-D3 Dispersion Correction (3-body terms):
     --------------------------------------------
       Reference C6 values for interpolation: 

         atom   Coordination number   C6
         Mg         0.000          1366.75
         Mg         0.963           902.54
         Mg         1.950           351.12
         Ni         0.000          1149.49
         Ni         1.794           356.66
         Ni         6.546           257.56
         Ni         6.292           283.75

       Values used:

         atom   Coordination number  R0_AB[au]  C6      C8
         Ni         6.417            3.162    270.24  22644.16
         Mg        11.210            3.292    351.12  31436.69
         Mg        10.784            3.292    351.12  31436.69
         Mg        11.211            3.292    351.12  31436.69
         Mg        11.210            3.292    351.12  31436.69
         Mg        11.211            3.292    351.12  31436.69
         Mg        10.363            3.292    351.12  31436.69
         Mg        10.916            3.292    351.12  31436.69
         Mg        10.363            3.292    351.12  31436.69
         Mg        11.255            3.292    351.12  31436.69
         Mg        11.255            3.292    351.12  31436.69
         Mg        10.916            3.292    351.12  31436.69
         Ni         8.678            3.162    257.81  21602.61
         Ni         8.434            3.162    257.96  21615.58
         Ni         8.434            3.162    257.96  21615.58
         Ni         8.708            3.162    257.80  21601.39
         Ni         8.490            3.162    257.92  21612.05
         Ni         8.490            3.162    257.92  21612.05

         Molecular C6 ( Ry / a.u.^6 ) =    101067.08


     number of k points=   256  Marzari-Vanderbilt smearing, width (Ry)=  0.0100

     Number of k-points >= 100: set verbosity='high' to print them.

     Dense  grid:   342375 G-vectors     FFT dimensions: (  72,  72, 180)

     Smooth grid:   121055 G-vectors     FFT dimensions: (  48,  48, 120)

     Estimated max dynamical RAM per process >      11.89 GB

     Check: negative core charge=   -0.000002
     Generating pointlists ...
     new r_m :   0.2008 (alat units)  1.9205 (a.u.) for type    1
     new r_m :   0.2097 (alat units)  2.0055 (a.u.) for type    2

     Initial potential from superposition of free atoms

     starting charge     133.9898, renormalised to     148.0000
     Starting wfcs are  135 randomized atomic wfcs

     total cpu time spent up to now is       54.5 secs

     Self-consistent Calculation

     iteration #  1     ecut=    60.00 Ry     beta= 0.30
     Davidson diagonalization with overlap
     ethr =  1.00E-02,  avg # of iterations =  5.7

     total cpu time spent up to now is      147.9 secs

     total energy              =   -2635.25903739 Ry
     estimated scf accuracy    <     459.08809929 Ry

     total magnetization       =     3.14 Bohr mag/cell
     absolute magnetization    =     4.13 Bohr mag/cell

     iteration #  2     ecut=    60.00 Ry     beta= 0.30
     Davidson diagonalization with overlap
     ethr =  1.00E-02,  avg # of iterations =  4.7

     total cpu time spent up to now is      227.2 secs

     total energy              =   -2768.58601903 Ry
     estimated scf accuracy    <     157.49140270 Ry

     total magnetization       =     1.58 Bohr mag/cell
     absolute magnetization    =     2.30 Bohr mag/cell

     iteration #  3     ecut=    60.00 Ry     beta= 0.30
     Davidson diagonalization with overlap
     ethr =  1.00E-02,  avg # of iterations =  4.1

     total cpu time spent up to now is      295.3 secs

     total energy              =   -2770.46058731 Ry
     estimated scf accuracy    <     104.22246378 Ry

     total magnetization       =     6.07 Bohr mag/cell
     absolute magnetization    =     7.52 Bohr mag/cell

     iteration #  4     ecut=    60.00 Ry     beta= 0.30
     Davidson diagonalization with overlap
     ethr =  1.00E-02,  avg # of iterations =  3.2

     total cpu time spent up to now is      343.8 secs

     total energy              =   -2768.90600598 Ry
     estimated scf accuracy    <      32.50131263 Ry

     total magnetization       =     1.48 Bohr mag/cell
     absolute magnetization    =     3.36 Bohr mag/cell

     iteration #  5     ecut=    60.00 Ry     beta= 0.30
     Davidson diagonalization with overlap
     ethr =  1.00E-02,  avg # of iterations =  2.3

     total cpu time spent up to now is      391.1 secs

     total energy              =   -2768.32943881 Ry
     estimated scf accuracy    <      17.94047618 Ry

     total magnetization       =    10.10 Bohr mag/cell
     absolute magnetization    =    13.34 Bohr mag/cell

     iteration #  6     ecut=    60.00 Ry     beta= 0.30
     Davidson diagonalization with overlap
     ethr =  1.00E-02,  avg # of iterations =  3.0

     total cpu time spent up to now is      439.2 secs

     total energy              =   -2774.32704083 Ry
     estimated scf accuracy    <      19.19795322 Ry

     total magnetization       =     1.28 Bohr mag/cell
     absolute magnetization    =     3.29 Bohr mag/cell

     iteration #  7     ecut=    60.00 Ry     beta= 0.30
     Davidson diagonalization with overlap
     ethr =  1.00E-02,  avg # of iterations =  1.0

     total cpu time spent up to now is      470.1 secs

     total energy              =   -2773.91153210 Ry
     estimated scf accuracy    <      33.77336191 Ry

     total magnetization       =     3.95 Bohr mag/cell
     absolute magnetization    =     5.66 Bohr mag/cell

     iteration #  8     ecut=    60.00 Ry     beta= 0.30
     Davidson diagonalization with overlap
     ethr =  1.00E-02,  avg # of iterations =  1.0

     total cpu time spent up to now is      500.5 secs

     total energy              =   -2773.26447825 Ry
     estimated scf accuracy    <      18.81051329 Ry

     total magnetization       =     4.81 Bohr mag/cell
     absolute magnetization    =     6.73 Bohr mag/cell

     iteration #  9     ecut=    60.00 Ry     beta= 0.30
     Davidson diagonalization with overlap
     ethr =  1.00E-02,  avg # of iterations =  1.0

     total cpu time spent up to now is      532.1 secs

     total energy              =   -2773.17609694 Ry
     estimated scf accuracy    <       5.91742857 Ry

     total magnetization       =     1.20 Bohr mag/cell
     absolute magnetization    =     3.37 Bohr mag/cell

     iteration # 10     ecut=    60.00 Ry     beta= 0.30
     Davidson diagonalization with overlap
     ethr =  4.00E-03,  avg # of iterations =  1.0

     total cpu time spent up to now is      562.8 secs

     total energy              =   -2773.34001268 Ry
     estimated scf accuracy    <       1.48457548 Ry

     total magnetization       =     2.00 Bohr mag/cell
     absolute magnetization    =     4.18 Bohr mag/cell

     iteration # 11     ecut=    60.00 Ry     beta= 0.30
     Davidson diagonalization with overlap
     ethr =  1.00E-03,  avg # of iterations =  1.3

     total cpu time spent up to now is      598.2 secs

     total energy              =   -2773.33222627 Ry
     estimated scf accuracy    <       1.85948492 Ry

     total magnetization       =     2.00 Bohr mag/cell
     absolute magnetization    =     4.07 Bohr mag/cell

     iteration # 12     ecut=    60.00 Ry     beta= 0.30
     Davidson diagonalization with overlap
     ethr =  1.00E-03,  avg # of iterations =  1.1

     total cpu time spent up to now is      631.1 secs

     total energy              =   -2773.35175457 Ry
     estimated scf accuracy    <       1.45723574 Ry

     total magnetization       =     1.27 Bohr mag/cell
     absolute magnetization    =     3.16 Bohr mag/cell

     iteration # 13     ecut=    60.00 Ry     beta= 0.30
     Davidson diagonalization with overlap
     ethr =  9.85E-04,  avg # of iterations =  1.0

     total cpu time spent up to now is      661.7 secs

     total energy              =   -2773.33304721 Ry
     estimated scf accuracy    <       0.86692775 Ry

     total magnetization       =     1.15 Bohr mag/cell
     absolute magnetization    =     2.78 Bohr mag/cell

     iteration # 14     ecut=    60.00 Ry     beta= 0.30
     Davidson diagonalization with overlap
     ethr =  5.86E-04,  avg # of iterations =  1.1

     total cpu time spent up to now is      693.1 secs

     total energy              =   -2773.35276366 Ry
     estimated scf accuracy    <       0.26081131 Ry

     total magnetization       =     1.15 Bohr mag/cell
     absolute magnetization    =     2.58 Bohr mag/cell

     iteration # 15     ecut=    60.00 Ry     beta= 0.30
     Davidson diagonalization with overlap
     ethr =  1.76E-04,  avg # of iterations =  3.6

     total cpu time spent up to now is      754.9 secs

     total energy              =   -2773.32102350 Ry
     estimated scf accuracy    <       1.84635948 Ry

     total magnetization       =     0.78 Bohr mag/cell
     absolute magnetization    =     1.68 Bohr mag/cell

     iteration # 16     ecut=    60.00 Ry     beta= 0.30
     Davidson diagonalization with overlap
     ethr =  1.76E-04,  avg # of iterations =  1.9

     total cpu time spent up to now is      792.9 secs

     total energy              =   -2773.37750918 Ry
     estimated scf accuracy    <       0.36502209 Ry

     total magnetization       =     0.33 Bohr mag/cell
     absolute magnetization    =     1.19 Bohr mag/cell

     iteration # 17     ecut=    60.00 Ry     beta= 0.30
     Davidson diagonalization with overlap
     ethr =  1.76E-04,  avg # of iterations =  1.8

     total cpu time spent up to now is      831.7 secs

     total energy              =   -2773.32880992 Ry
     estimated scf accuracy    <       2.45162816 Ry

     total magnetization       =     0.17 Bohr mag/cell
     absolute magnetization    =     0.94 Bohr mag/cell

     iteration # 18     ecut=    60.00 Ry     beta= 0.30
     Davidson diagonalization with overlap
     ethr =  1.76E-04,  avg # of iterations =  1.0

     total cpu time spent up to now is      863.5 secs

     total energy              =   -2773.35678196 Ry
     estimated scf accuracy    <       0.19780499 Ry

     total magnetization       =     0.51 Bohr mag/cell
     absolute magnetization    =     1.20 Bohr mag/cell

     iteration # 19     ecut=    60.00 Ry     beta= 0.30
     Davidson diagonalization with overlap
     ethr =  1.34E-04,  avg # of iterations =  1.0

     total cpu time spent up to now is      895.8 secs

     total energy              =   -2773.35866505 Ry
     estimated scf accuracy    <       0.05083972 Ry

     total magnetization       =     0.44 Bohr mag/cell
     absolute magnetization    =     0.98 Bohr mag/cell

     iteration # 20     ecut=    60.00 Ry     beta= 0.30
     Davidson diagonalization with overlap
     ethr =  3.44E-05,  avg # of iterations =  1.8

     total cpu time spent up to now is      941.4 secs

     total energy              =   -2773.35965862 Ry
     estimated scf accuracy    <       0.01640423 Ry

     total magnetization       =     0.42 Bohr mag/cell
     absolute magnetization    =     0.89 Bohr mag/cell

     iteration # 21     ecut=    60.00 Ry     beta= 0.30
     Davidson diagonalization with overlap
     ethr =  1.11E-05,  avg # of iterations =  3.2

     total cpu time spent up to now is     1005.5 secs

     total energy              =   -2773.35923907 Ry
     estimated scf accuracy    <       0.01365561 Ry

     total magnetization       =     0.38 Bohr mag/cell
     absolute magnetization    =     0.81 Bohr mag/cell

     iteration # 22     ecut=    60.00 Ry     beta= 0.30
     Davidson diagonalization with overlap
     ethr =  9.23E-06,  avg # of iterations =  3.2

     total cpu time spent up to now is     1059.4 secs

     total energy              =   -2773.35898947 Ry
     estimated scf accuracy    <       0.03340614 Ry

     total magnetization       =     0.32 Bohr mag/cell
     absolute magnetization    =     0.63 Bohr mag/cell

     iteration # 23     ecut=    60.00 Ry     beta= 0.30
     Davidson diagonalization with overlap
     ethr =  9.23E-06,  avg # of iterations =  1.4

     total cpu time spent up to now is     1095.6 secs

     total energy              =   -2773.36059266 Ry
     estimated scf accuracy    <       0.00138800 Ry

     total magnetization       =     0.34 Bohr mag/cell
     absolute magnetization    =     0.63 Bohr mag/cell

     iteration # 24     ecut=    60.00 Ry     beta= 0.30
     Davidson diagonalization with overlap
     ethr =  9.38E-07,  avg # of iterations =  4.3

     total cpu time spent up to now is     1156.5 secs

     total energy              =   -2773.36100192 Ry
     estimated scf accuracy    <       0.00126612 Ry

     total magnetization       =     0.30 Bohr mag/cell
     absolute magnetization    =     0.54 Bohr mag/cell

     iteration # 25     ecut=    60.00 Ry     beta= 0.30
     Davidson diagonalization with overlap
     ethr =  8.55E-07,  avg # of iterations =  2.1

     total cpu time spent up to now is     1199.8 secs

     total energy              =   -2773.36129316 Ry
     estimated scf accuracy    <       0.00087106 Ry

     total magnetization       =     0.23 Bohr mag/cell
     absolute magnetization    =     0.40 Bohr mag/cell

     iteration # 26     ecut=    60.00 Ry     beta= 0.30
     Davidson diagonalization with overlap
     ethr =  5.89E-07,  avg # of iterations =  2.0

     total cpu time spent up to now is     1237.3 secs

     total energy              =   -2773.36147655 Ry
     estimated scf accuracy    <       0.00135422 Ry

     total magnetization       =     0.15 Bohr mag/cell
     absolute magnetization    =     0.29 Bohr mag/cell

     iteration # 27     ecut=    60.00 Ry     beta= 0.30
     Davidson diagonalization with overlap
     ethr =  5.89E-07,  avg # of iterations =  1.0

     total cpu time spent up to now is     1269.3 secs

     total energy              =   -2773.36152120 Ry
     estimated scf accuracy    <       0.00147747 Ry

     total magnetization       =     0.14 Bohr mag/cell
     absolute magnetization    =     0.25 Bohr mag/cell

     iteration # 28     ecut=    60.00 Ry     beta= 0.30
     Davidson diagonalization with overlap
     ethr =  5.89E-07,  avg # of iterations =  1.2

     total cpu time spent up to now is     1304.6 secs

     total energy              =   -2773.36148087 Ry
     estimated scf accuracy    <       0.00148145 Ry

     total magnetization       =     0.10 Bohr mag/cell
     absolute magnetization    =     0.18 Bohr mag/cell

     iteration # 29     ecut=    60.00 Ry     beta= 0.30
     Davidson diagonalization with overlap
     ethr =  5.89E-07,  avg # of iterations =  1.0

     total cpu time spent up to now is     1337.8 secs

     total energy              =   -2773.36157351 Ry
     estimated scf accuracy    <       0.00004989 Ry

     total magnetization       =     0.06 Bohr mag/cell
     absolute magnetization    =     0.12 Bohr mag/cell

     iteration # 30     ecut=    60.00 Ry     beta= 0.30
     Davidson diagonalization with overlap
     ethr =  3.37E-08,  avg # of iterations =  3.5

     total cpu time spent up to now is     1399.8 secs

     total energy              =   -2773.36160771 Ry
     estimated scf accuracy    <       0.00002599 Ry

     total magnetization       =     0.04 Bohr mag/cell
     absolute magnetization    =     0.08 Bohr mag/cell

     iteration # 31     ecut=    60.00 Ry     beta= 0.30
     Davidson diagonalization with overlap
     ethr =  1.76E-08,  avg # of iterations =  2.3

     total cpu time spent up to now is     1445.2 secs

     total energy              =   -2773.36162531 Ry
     estimated scf accuracy    <       0.00000382 Ry

     total magnetization       =     0.01 Bohr mag/cell
     absolute magnetization    =     0.04 Bohr mag/cell

     iteration # 32     ecut=    60.00 Ry     beta= 0.30
     Davidson diagonalization with overlap
     ethr =  2.58E-09,  avg # of iterations =  2.6

     total cpu time spent up to now is     1491.4 secs

     total energy              =   -2773.36162843 Ry
     estimated scf accuracy    <       0.00000565 Ry

     total magnetization       =     0.01 Bohr mag/cell
     absolute magnetization    =     0.03 Bohr mag/cell

     iteration # 33     ecut=    60.00 Ry     beta= 0.30
     Davidson diagonalization with overlap
     ethr =  2.58E-09,  avg # of iterations =  2.0

     total cpu time spent up to now is     1530.4 secs

     total energy              =   -2773.36162977 Ry
     estimated scf accuracy    <       0.00000163 Ry

     total magnetization       =     0.01 Bohr mag/cell
     absolute magnetization    =     0.03 Bohr mag/cell

     iteration # 34     ecut=    60.00 Ry     beta= 0.30
     Davidson diagonalization with overlap
     ethr =  1.10E-09,  avg # of iterations =  2.3

     total cpu time spent up to now is     1575.0 secs

     total energy              =   -2773.36163083 Ry
     estimated scf accuracy    <       0.00000105 Ry

     total magnetization       =     0.00 Bohr mag/cell
     absolute magnetization    =     0.02 Bohr mag/cell

     iteration # 35     ecut=    60.00 Ry     beta= 0.30
     Davidson diagonalization with overlap
     ethr =  7.09E-10,  avg # of iterations =  2.6

     total cpu time spent up to now is     1625.7 secs

     total energy              =   -2773.36163155 Ry
     estimated scf accuracy    <       0.00000022 Ry

     total magnetization       =     0.00 Bohr mag/cell
     absolute magnetization    =     0.01 Bohr mag/cell

     iteration # 36     ecut=    60.00 Ry     beta= 0.30
     Davidson diagonalization with overlap
     ethr =  1.52E-10,  avg # of iterations =  3.0

     total cpu time spent up to now is     1676.4 secs

     total energy              =   -2773.36163166 Ry
     estimated scf accuracy    <       0.00000043 Ry

     total magnetization       =     0.00 Bohr mag/cell
     absolute magnetization    =     0.01 Bohr mag/cell

     iteration # 37     ecut=    60.00 Ry     beta= 0.30
     Davidson diagonalization with overlap
     ethr =  1.52E-10,  avg # of iterations =  2.1

     total cpu time spent up to now is     1720.1 secs

     total energy              =   -2773.36163173 Ry
     estimated scf accuracy    <       0.00000011 Ry

     total magnetization       =    -0.00 Bohr mag/cell
     absolute magnetization    =     0.01 Bohr mag/cell

     iteration # 38     ecut=    60.00 Ry     beta= 0.30
     Davidson diagonalization with overlap
     ethr =  7.73E-11,  avg # of iterations =  2.4

     total cpu time spent up to now is     1766.3 secs

     total energy              =   -2773.36163176 Ry
     estimated scf accuracy    <       0.00000008 Ry

     total magnetization       =    -0.00 Bohr mag/cell
     absolute magnetization    =     0.00 Bohr mag/cell

     iteration # 39     ecut=    60.00 Ry     beta= 0.30
     Davidson diagonalization with overlap
     ethr =  5.65E-11,  avg # of iterations =  2.2

     total cpu time spent up to now is     1811.8 secs

     total energy              =   -2773.36163179 Ry
     estimated scf accuracy    <       0.00000002 Ry

     total magnetization       =    -0.00 Bohr mag/cell
     absolute magnetization    =     0.00 Bohr mag/cell

     iteration # 40     ecut=    60.00 Ry     beta= 0.30
     Davidson diagonalization with overlap
     ethr =  1.03E-11,  avg # of iterations =  4.2

     total cpu time spent up to now is     1879.8 secs

     total energy              =   -2773.36163180 Ry
     estimated scf accuracy    <       0.00000002 Ry

     total magnetization       =    -0.00 Bohr mag/cell
     absolute magnetization    =     0.00 Bohr mag/cell

     iteration # 41     ecut=    60.00 Ry     beta= 0.30
     Davidson diagonalization with overlap
     ethr =  1.03E-11,  avg # of iterations =  1.4

     total cpu time spent up to now is     1917.4 secs

     total energy              =   -2773.36163180 Ry
     estimated scf accuracy    <       0.00000006 Ry

     total magnetization       =    -0.00 Bohr mag/cell
     absolute magnetization    =     0.00 Bohr mag/cell

     iteration # 42     ecut=    60.00 Ry     beta= 0.30
     Davidson diagonalization with overlap
     ethr =  1.03E-11,  avg # of iterations =  1.9

     total cpu time spent up to now is     1958.5 secs

     total energy              =   -2773.36163180 Ry
     estimated scf accuracy    <       0.00000001 Ry

     total magnetization       =    -0.00 Bohr mag/cell
     absolute magnetization    =     0.00 Bohr mag/cell

     iteration # 43     ecut=    60.00 Ry     beta= 0.30
     Davidson diagonalization with overlap
     ethr =  7.28E-12,  avg # of iterations =  1.1

     total cpu time spent up to now is     1992.3 secs

     total energy              =   -2773.36163181 Ry
     estimated scf accuracy    <          2.6E-09 Ry

     total magnetization       =    -0.00 Bohr mag/cell
     absolute magnetization    =     0.00 Bohr mag/cell

     iteration # 44     ecut=    60.00 Ry     beta= 0.30
     Davidson diagonalization with overlap
     ethr =  1.74E-12,  avg # of iterations =  2.1

     total cpu time spent up to now is     2032.0 secs

     total energy              =   -2773.36163181 Ry
     estimated scf accuracy    <          1.9E-09 Ry

     total magnetization       =    -0.00 Bohr mag/cell
     absolute magnetization    =     0.00 Bohr mag/cell

     iteration # 45     ecut=    60.00 Ry     beta= 0.30
     Davidson diagonalization with overlap
     ethr =  1.29E-12,  avg # of iterations =  2.8
 
     Magnetic moment per site  (integrated on atomic sphere of radius R)
     atom   1 (R=0.201)  charge= 16.5124  magn=  0.0000
     atom   2 (R=0.210)  charge=  0.6069  magn= -0.0000
     atom   3 (R=0.210)  charge=  0.5919  magn= -0.0000
     atom   4 (R=0.210)  charge=  0.6134  magn= -0.0000
     atom   5 (R=0.210)  charge=  0.6069  magn= -0.0000
     atom   6 (R=0.210)  charge=  0.6134  magn= -0.0000
     atom   7 (R=0.210)  charge=  0.5934  magn= -0.0000
     atom   8 (R=0.210)  charge=  0.6028  magn= -0.0000
     atom   9 (R=0.210)  charge=  0.5934  magn= -0.0000
     atom  10 (R=0.210)  charge=  0.6102  magn= -0.0000
     atom  11 (R=0.210)  charge=  0.6102  magn= -0.0000
     atom  12 (R=0.210)  charge=  0.6028  magn= -0.0000
     atom  13 (R=0.201)  charge= 16.6674  magn= -0.0000
     atom  14 (R=0.201)  charge= 16.6621  magn=  0.0000
     atom  15 (R=0.201)  charge= 16.6621  magn=  0.0000
     atom  16 (R=0.201)  charge= 16.6824  magn=  0.0001
     atom  17 (R=0.201)  charge= 16.6704  magn=  0.0000
     atom  18 (R=0.201)  charge= 16.6704  magn=  0.0000

     total cpu time spent up to now is     2085.2 secs

     End of self-consistent calculation

     Number of k-points >= 100: set verbosity='high' to print the bands.

     the Fermi energy is     7.8803 ev

!    total energy              =   -2773.36163181 Ry
     estimated scf accuracy    <          9.7E-10 Ry
     smearing contrib. (-TS)   =       0.00006728 Ry
     internal energy E=F+TS    =   -2773.36169909 Ry

     The total energy is F=E-TS. E is the sum of the following terms:
     one-electron contribution =   -2560.79626899 Ry
     hartree contribution      =    1329.81165642 Ry
     xc contribution           =    -267.31315727 Ry
     ewald contribution        =    -930.16613067 Ry
     DFT-D3 Dispersion         =      -0.45279352 Ry
     one-center paw contrib.   =    -344.44500507 Ry

     total magnetization       =     0.00 Bohr mag/cell
     absolute magnetization    =     0.00 Bohr mag/cell

     convergence has been achieved in  45 iterations

     Forces acting on atoms (cartesian axes, Ry/au):

     atom    1 type  1   force =    -0.00027982    0.00015999   -0.00000341
     atom    2 type  2   force =     0.00036030   -0.00006953    0.00289042
     atom    3 type  2   force =    -0.00266339    0.00153779    0.00000022
     atom    4 type  2   force =     0.00024832    0.00026085    0.00167297
     atom    5 type  2   force =     0.00024036   -0.00027698   -0.00289000
     atom    6 type  2   force =    -0.00010170   -0.00034539   -0.00167253
     atom    7 type  2   force =    -0.00091313    0.00011008    0.00236585
     atom    8 type  2   force =     0.00199676    0.00097453    0.00249910
     atom    9 type  2   force =    -0.00055194    0.00073599   -0.00236511
     atom   10 type  2   force =     0.00039505    0.00009467    0.00179382
     atom   11 type  2   force =     0.00011563   -0.00038929   -0.00179324
     atom   12 type  2   force =     0.00015430   -0.00221626   -0.00249857
     atom   13 type  1   force =     0.00008244   -0.00004748    0.00000058
     atom   14 type  1   force =    -0.00157071   -0.00078399   -0.00274224
     atom   15 type  1   force =    -0.00010618    0.00175286    0.00274316
     atom   16 type  1   force =     0.00019020   -0.00010971    0.00000189
     atom   17 type  1   force =     0.00106883   -0.00092404   -0.00334736
     atom   18 type  1   force =     0.00133470   -0.00046407    0.00334444

     Total force =     0.011048     Total SCF correction =     0.000052


     Computing stress (Cartesian axis) and pressure

          total   stress  (Ry/bohr**3)                   (kbar)     P=       -2.26
  -0.00001763  -0.00000067  -0.00000153           -2.59       -0.10       -0.23
  -0.00000067  -0.00001840  -0.00000265           -0.10       -2.71       -0.39
  -0.00000153  -0.00000265  -0.00001003           -0.23       -0.39       -1.47


     BFGS Geometry Optimization
     Energy error            =      1.6E-04 Ry
     Gradient error          =      3.3E-03 Ry/Bohr
     Cell gradient error     =      2.7E+00 kbar

     number of scf cycles    =   1
     number of bfgs steps    =   0

     enthalpy           new  =   -2773.3616318084 Ry

     new trust radius        =       0.0040823745 bohr
     new conv_thr            =       0.0000000010 Ry

     new unit-cell volume =   1925.07882 a.u.^3 (   285.26725 Ang^3 )
     density =      3.94785 g/cm^3

CELL_PARAMETERS (angstrom)
   5.058994529   0.006649944  -0.011356416
  -2.523738244   4.384543377  -0.011355780
  -0.028799018  -0.049879498  12.851197087

ATOMIC_POSITIONS (angstrom)
Ni              -1.3150882083        3.6313040863       10.6979749877
Mg              -0.0138202186        1.4229492743        6.4442588387
Mg               3.7600292485        0.7011852329       10.6979763388
Mg               2.5193792347        2.9192536196        6.4225276360
Mg               1.2768365233        3.6584342643        2.1004929890
Mg               1.2476007911        0.7164675058        2.1222240758
Mg               1.2363111335        2.1563283498        9.2834235831
Mg               2.5262761204       -0.0229739259        7.9366626998
Mg               1.2379792396        2.1592198148       12.1125254735
Mg               2.5214979853       -0.0160536204        4.9563468129
Mg               3.7907097230        2.1822858142        3.5884039231
Mg               3.7990912698        2.1816082625        0.6080886738
Ni               1.2606202642        2.1774743924        4.2723737635
Ni               2.4961141357       -0.0113082397       -0.0499989364
Ni               3.7739090773        2.2018935146        8.5947509095
Ni              -0.0050691814       -0.0192416861        4.2837312335
Ni               0.0348962059       -0.0145529559       -0.0596503324
Ni               0.0108558156       -0.0561999222        8.6271215993



     Writing config-only to output data dir ./outdir/mg2ni_ni.save/ :
     XML data file
     NEW-OLD atomic charge density approx. for the potential
     New effective cutoffs (rho, wfc):  480.44   60.06

     Check: negative core charge=   -0.000002
     Generating pointlists ...

     total cpu time spent up to now is     2114.1 secs

     Self-consistent Calculation

     iteration #  1     ecut=    60.00 Ry     beta= 0.30
     Davidson diagonalization with overlap
     ethr =  1.00E-06,  avg # of iterations =  3.0

     total cpu time spent up to now is     2176.8 secs

     total energy              =   -2773.35802650 Ry
     estimated scf accuracy    <       0.00463122 Ry

     total magnetization       =     0.00 Bohr mag/cell
     absolute magnetization    =     0.00 Bohr mag/cell

     iteration #  2     ecut=    60.00 Ry     beta= 0.30
     Davidson diagonalization with overlap
     ethr =  3.13E-06,  avg # of iterations =  4.1

     total cpu time spent up to now is     2244.5 secs

     total energy              =   -2773.34764908 Ry
     estimated scf accuracy    <       0.49549151 Ry

     total magnetization       =     0.00 Bohr mag/cell
     absolute magnetization    =     0.00 Bohr mag/cell

     iteration #  3     ecut=    60.00 Ry     beta= 0.30
     Davidson diagonalization with overlap
     ethr =  3.13E-06,  avg # of iterations =  3.9

     total cpu time spent up to now is     2309.7 secs

     total energy              =   -2773.36009560 Ry
     estimated scf accuracy    <       0.00116611 Ry

     total magnetization       =     0.00 Bohr mag/cell
     absolute magnetization    =     0.00 Bohr mag/cell

     iteration #  4     ecut=    60.00 Ry     beta= 0.30
     Davidson diagonalization with overlap
     ethr =  7.88E-07,  avg # of iterations =  1.1

     total cpu time spent up to now is     2343.1 secs

     total energy              =   -2773.36016417 Ry
     estimated scf accuracy    <       0.00038793 Ry

     total magnetization       =     0.00 Bohr mag/cell
     absolute magnetization    =     0.00 Bohr mag/cell

     iteration #  5     ecut=    60.00 Ry     beta= 0.30
     Davidson diagonalization with overlap
     ethr =  2.62E-07,  avg # of iterations =  1.0

     total cpu time spent up to now is     2375.8 secs

     total energy              =   -2773.36019083 Ry
     estimated scf accuracy    <       0.00002929 Ry

     total magnetization       =     0.00 Bohr mag/cell
     absolute magnetization    =     0.00 Bohr mag/cell

     iteration #  6     ecut=    60.00 Ry     beta= 0.30
     Davidson diagonalization with overlap
     ethr =  1.98E-08,  avg # of iterations =  2.0

     total cpu time spent up to now is     2416.3 secs

     total energy              =   -2773.36019255 Ry
     estimated scf accuracy    <       0.00000923 Ry

     total magnetization       =     0.00 Bohr mag/cell
     absolute magnetization    =     0.00 Bohr mag/cell

     iteration #  7     ecut=    60.00 Ry     beta= 0.30
     Davidson diagonalization with overlap
     ethr =  6.24E-09,  avg # of iterations =  1.8

     total cpu time spent up to now is     2460.1 secs

     total energy              =   -2773.36019280 Ry
     estimated scf accuracy    <       0.00001223 Ry

     total magnetization       =     0.00 Bohr mag/cell
     absolute magnetization    =     0.00 Bohr mag/cell

     iteration #  8     ecut=    60.00 Ry     beta= 0.30
     Davidson diagonalization with overlap
     ethr =  6.24E-09,  avg # of iterations =  1.0

     total cpu time spent up to now is     2494.5 secs

     total energy              =   -2773.36019323 Ry
     estimated scf accuracy    <       0.00000176 Ry

     total magnetization       =     0.00 Bohr mag/cell
     absolute magnetization    =     0.00 Bohr mag/cell

     iteration #  9     ecut=    60.00 Ry     beta= 0.30
     Davidson diagonalization with overlap
     ethr =  1.19E-09,  avg # of iterations =  2.2

     total cpu time spent up to now is     2538.5 secs

     total energy              =   -2773.36019326 Ry
     estimated scf accuracy    <       0.00000185 Ry

     total magnetization       =     0.00 Bohr mag/cell
     absolute magnetization    =     0.00 Bohr mag/cell

     iteration # 10     ecut=    60.00 Ry     beta= 0.30
     Davidson diagonalization with overlap
     ethr =  1.19E-09,  avg # of iterations =  1.1

     total cpu time spent up to now is     2577.8 secs

     total energy              =   -2773.36019335 Ry
     estimated scf accuracy    <       0.00000018 Ry

     total magnetization       =     0.00 Bohr mag/cell
     absolute magnetization    =     0.00 Bohr mag/cell

     iteration # 11     ecut=    60.00 Ry     beta= 0.30
     Davidson diagonalization with overlap
     ethr =  1.24E-10,  avg # of iterations =  4.0

     total cpu time spent up to now is     2656.1 secs

     total energy              =   -2773.36019340 Ry
     estimated scf accuracy    <       0.00000035 Ry

     total magnetization       =     0.00 Bohr mag/cell
     absolute magnetization    =     0.00 Bohr mag/cell

     iteration # 12     ecut=    60.00 Ry     beta= 0.30
     Davidson diagonalization with overlap
     ethr =  1.24E-10,  avg # of iterations =  1.3

     total cpu time spent up to now is     2700.4 secs

     total energy              =   -2773.36019342 Ry
     estimated scf accuracy    <       0.00000004 Ry

     total magnetization       =     0.00 Bohr mag/cell
     absolute magnetization    =     0.00 Bohr mag/cell

     iteration # 13     ecut=    60.00 Ry     beta= 0.30
     Davidson diagonalization with overlap
     ethr =  2.67E-11,  avg # of iterations =  2.0

     total cpu time spent up to now is     2744.9 secs

     total energy              =   -2773.36019342 Ry
     estimated scf accuracy    <          3.9E-09 Ry

     total magnetization       =     0.00 Bohr mag/cell
     absolute magnetization    =     0.00 Bohr mag/cell

     iteration # 14     ecut=    60.00 Ry     beta= 0.30
     Davidson diagonalization with overlap
     ethr =  2.66E-12,  avg # of iterations =  2.0

     total cpu time spent up to now is     2790.5 secs

     total energy              =   -2773.36019342 Ry
     estimated scf accuracy    <          1.8E-09 Ry

     total magnetization       =     0.00 Bohr mag/cell
     absolute magnetization    =     0.00 Bohr mag/cell

     iteration # 15     ecut=    60.00 Ry     beta= 0.30
     Davidson diagonalization with overlap
     ethr =  1.22E-12,  avg # of iterations =  1.3
 
     Magnetic moment per site  (integrated on atomic sphere of radius R)
     atom   1 (R=0.201)  charge= 16.5138  magn=  0.0000
     atom   2 (R=0.210)  charge=  0.6072  magn= -0.0000
     atom   3 (R=0.210)  charge=  0.5930  magn= -0.0000
     atom   4 (R=0.210)  charge=  0.6138  magn= -0.0000
     atom   5 (R=0.210)  charge=  0.6072  magn= -0.0000
     atom   6 (R=0.210)  charge=  0.6138  magn= -0.0000
     atom   7 (R=0.210)  charge=  0.5944  magn= -0.0000
     atom   8 (R=0.210)  charge=  0.6036  magn= -0.0000
     atom   9 (R=0.210)  charge=  0.5944  magn= -0.0000
     atom  10 (R=0.210)  charge=  0.6107  magn=  0.0000
     atom  11 (R=0.210)  charge=  0.6107  magn=  0.0000
     atom  12 (R=0.210)  charge=  0.6036  magn= -0.0000
     atom  13 (R=0.201)  charge= 16.6679  magn= -0.0000
     atom  14 (R=0.201)  charge= 16.6633  magn=  0.0000
     atom  15 (R=0.201)  charge= 16.6633  magn=  0.0000
     atom  16 (R=0.201)  charge= 16.6829  magn=  0.0000
     atom  17 (R=0.201)  charge= 16.6716  magn=  0.0000
     atom  18 (R=0.201)  charge= 16.6716  magn=  0.0000

     total cpu time spent up to now is     2832.9 secs

     End of self-consistent calculation

     Number of k-points >= 100: set verbosity='high' to print the bands.

     the Fermi energy is     7.8932 ev

!    total energy              =   -2773.36019342 Ry
     estimated scf accuracy    <          2.2E-10 Ry
     smearing contrib. (-TS)   =       0.00005715 Ry
     internal energy E=F+TS    =   -2773.36025057 Ry

     The total energy is F=E-TS. E is the sum of the following terms:
     one-electron contribution =   -2561.35029832 Ry
     hartree contribution      =    1330.15105459 Ry
     xc contribution           =    -267.32135514 Ry
     ewald contribution        =    -929.94148027 Ry
     DFT-D3 Dispersion         =      -0.45169416 Ry
     one-center paw contrib.   =    -344.44647726 Ry

     total magnetization       =     0.00 Bohr mag/cell
     absolute magnetization    =     0.00 Bohr mag/cell

     convergence has been achieved in  15 iterations

     Forces acting on atoms (cartesian axes, Ry/au):

     atom    1 type  1   force =    -0.00017477    0.00010036    0.00000136
     atom    2 type  2   force =     0.00038014   -0.00003196    0.00270958
     atom    3 type  2   force =    -0.00256551    0.00148120   -0.00000054
     atom    4 type  2   force =     0.00027155    0.00023499    0.00155389
     atom    5 type  2   force =     0.00021771   -0.00031326   -0.00270983
     atom    6 type  2   force =    -0.00006792   -0.00035272   -0.00155415
     atom    7 type  2   force =    -0.00085826    0.00014076    0.00221906
     atom    8 type  2   force =     0.00189476    0.00096287    0.00225961
     atom    9 type  2   force =    -0.00055121    0.00067287   -0.00221940
     atom   10 type  2   force =     0.00037143    0.00008375    0.00178253
     atom   11 type  2   force =     0.00011316   -0.00036358   -0.00178290
     atom   12 type  2   force =     0.00011330   -0.00212229   -0.00225988
     atom   13 type  1   force =     0.00008050   -0.00004652    0.00000049
     atom   14 type  1   force =    -0.00141949   -0.00074313   -0.00250740
     atom   15 type  1   force =    -0.00006544    0.00160217    0.00251128
     atom   16 type  1   force =     0.00017438   -0.00010074   -0.00000057
     atom   17 type  1   force =     0.00088692   -0.00087332   -0.00308656
     atom   18 type  1   force =     0.00119873   -0.00033146    0.00308341

     Total force =     0.010298     Total SCF correction =     0.000050


     Computing stress (Cartesian axis) and pressure

          total   stress  (Ry/bohr**3)                   (kbar)     P=       -1.20
  -0.00001009  -0.00000068  -0.00000131           -1.48       -0.10       -0.19
  -0.00000068  -0.00001087  -0.00000226           -0.10       -1.60       -0.33
  -0.00000131  -0.00000226  -0.00000355           -0.19       -0.33       -0.52

     Energy error            =      1.4E-03 Ry
     Gradient error          =      3.1E-03 Ry/Bohr
     Cell gradient error     =      1.6E+00 kbar

     number of scf cycles    =   2
     number of bfgs steps    =   1

     enthalpy           old  =   -2773.3616318084 Ry
     enthalpy           new  =   -2773.3601934201 Ry

     CASE: enthalpy          _new > enthalpy          _old

     new trust radius        =       0.0002032956 bohr
     new conv_thr            =       0.0000000010 Ry

     new unit-cell volume =   1927.18635 a.u.^3 (   285.57955 Ang^3 )
     density =      3.94353 g/cm^3

CELL_PARAMETERS (angstrom)
   5.061113805   0.006732315  -0.011174423
  -2.524726546   4.386419558  -0.011173805
  -0.028343756  -0.049091012  12.854254406

ATOMIC_POSITIONS (angstrom)
Ni              -1.3150512593        3.6334652941       10.7007064447
Mg              -0.0137498794        1.4240126785        6.4444299600
Mg               3.7633445832        0.7014530711       10.7007059816
Mg               2.5205901467        2.9208438570        6.4234924066
Mg               1.2773851219        3.6603257254        2.1027238346
Mg               1.2482632976        0.7171080651        2.1236612665
Mg               1.2376605840        2.1578209993        9.2846266346
Mg               2.5266193099       -0.0229332264        7.9373874228
Mg               1.2392508748        2.1605775156       12.1167815485
Mg               2.5225360764       -0.0157555910        4.9567164282
Mg               3.7924050838        2.1837220953        3.5904362042
Mg               3.8006621292        2.1837749775        0.6097658717
Ni               1.2612971130        2.1787397598        4.2735745616
Ni               2.4979477095       -0.0108825828       -0.0485417978
Ni               3.7758916082        2.2025768518        8.5956954972
Ni              -0.0050112059       -0.0189247650        4.2847493914
Ni               0.0343709986       -0.0140979162       -0.0579810849
Ni               0.0105026263       -0.0554467126        8.6274920325



     Writing config-only to output data dir ./outdir/mg2ni_ni.save/ :
     XML data file
     NEW-OLD atomic charge density approx. for the potential
     New effective cutoffs (rho, wfc):  480.02   60.00

     Check: negative core charge=   -0.000002
     Generating pointlists ...

     total cpu time spent up to now is     2874.4 secs

     Self-consistent Calculation

     iteration #  1     ecut=    60.00 Ry     beta= 0.30
     Davidson diagonalization with overlap
     ethr =  1.00E-06,  avg # of iterations =  3.0

     total cpu time spent up to now is     2949.5 secs

     total energy              =   -2773.35809733 Ry
     estimated scf accuracy    <       0.00418335 Ry

     total magnetization       =     0.00 Bohr mag/cell
     absolute magnetization    =     0.00 Bohr mag/cell

     iteration #  2     ecut=    60.00 Ry     beta= 0.30
     Davidson diagonalization with overlap
     ethr =  2.83E-06,  avg # of iterations =  4.1

     total cpu time spent up to now is     3029.2 secs

     total energy              =   -2773.35033560 Ry
     estimated scf accuracy    <       0.36240070 Ry

     total magnetization       =     0.00 Bohr mag/cell
     absolute magnetization    =     0.00 Bohr mag/cell

     iteration #  3     ecut=    60.00 Ry     beta= 0.30
     Davidson diagonalization with overlap
     ethr =  2.83E-06,  avg # of iterations =  4.0

     total cpu time spent up to now is     3110.7 secs

     total energy              =   -2773.35996463 Ry
     estimated scf accuracy    <       0.00113780 Ry

     total magnetization       =     0.00 Bohr mag/cell
     absolute magnetization    =     0.00 Bohr mag/cell

     iteration #  4     ecut=    60.00 Ry     beta= 0.30
     Davidson diagonalization with overlap
     ethr =  7.69E-07,  avg # of iterations =  1.0

     total cpu time spent up to now is     3155.0 secs

     total energy              =   -2773.36003269 Ry
     estimated scf accuracy    <       0.00024791 Ry

     total magnetization       =     0.00 Bohr mag/cell
     absolute magnetization    =     0.00 Bohr mag/cell

     iteration #  5     ecut=    60.00 Ry     beta= 0.30
     Davidson diagonalization with overlap
     ethr =  1.68E-07,  avg # of iterations =  1.8

     total cpu time spent up to now is     3208.5 secs

     total energy              =   -2773.36005483 Ry
     estimated scf accuracy    <       0.00001099 Ry

     total magnetization       =     0.00 Bohr mag/cell
     absolute magnetization    =     0.00 Bohr mag/cell

     iteration #  6     ecut=    60.00 Ry     beta= 0.30
     Davidson diagonalization with overlap
     ethr =  7.42E-09,  avg # of iterations =  2.0

     total cpu time spent up to now is     3264.1 secs

     total energy              =   -2773.36005572 Ry
     estimated scf accuracy    <       0.00000316 Ry

     total magnetization       =     0.00 Bohr mag/cell
     absolute magnetization    =     0.00 Bohr mag/cell

     iteration #  7     ecut=    60.00 Ry     beta= 0.30
     Davidson diagonalization with overlap
     ethr =  2.14E-09,  avg # of iterations =  1.2

     total cpu time spent up to now is     3306.3 secs

     total energy              =   -2773.36005564 Ry
     estimated scf accuracy    <       0.00000607 Ry

     total magnetization       =     0.00 Bohr mag/cell
     absolute magnetization    =     0.00 Bohr mag/cell

     iteration #  8     ecut=    60.00 Ry     beta= 0.30
     Davidson diagonalization with overlap
     ethr =  2.14E-09,  avg # of iterations =  1.1

     total cpu time spent up to now is     3353.0 secs

     total energy              =   -2773.36005579 Ry
     estimated scf accuracy    <       0.00000235 Ry

     total magnetization       =     0.00 Bohr mag/cell
     absolute magnetization    =     0.00 Bohr mag/cell

     iteration #  9     ecut=    60.00 Ry     beta= 0.30
     Davidson diagonalization with overlap
     ethr =  1.58E-09,  avg # of iterations =  1.0

     total cpu time spent up to now is     3398.1 secs

     total energy              =   -2773.36005591 Ry
     estimated scf accuracy    <       0.00000081 Ry

     total magnetization       =     0.00 Bohr mag/cell
     absolute magnetization    =     0.00 Bohr mag/cell

     iteration # 10     ecut=    60.00 Ry     beta= 0.30
     Davidson diagonalization with overlap
     ethr =  5.47E-10,  avg # of iterations =  1.0

     total cpu time spent up to now is     3443.6 secs

     total energy              =   -2773.36005592 Ry
     estimated scf accuracy    <       0.00000024 Ry

     total magnetization       =     0.00 Bohr mag/cell
     absolute magnetization    =     0.00 Bohr mag/cell

     iteration # 11     ecut=    60.00 Ry     beta= 0.30
     Davidson diagonalization with overlap
     ethr =  1.59E-10,  avg # of iterations =  5.1

     total cpu time spent up to now is     3535.4 secs

     total energy              =   -2773.36005599 Ry
     estimated scf accuracy    <       0.00000006 Ry

     total magnetization       =     0.00 Bohr mag/cell
     absolute magnetization    =     0.00 Bohr mag/cell

     iteration # 12     ecut=    60.00 Ry     beta= 0.30
     Davidson diagonalization with overlap
     ethr =  4.37E-11,  avg # of iterations =  2.5

     total cpu time spent up to now is     3600.7 secs

     total energy              =   -2773.36005599 Ry
     estimated scf accuracy    <       0.00000004 Ry

     total magnetization       =     0.00 Bohr mag/cell
     absolute magnetization    =     0.00 Bohr mag/cell

     iteration # 13     ecut=    60.00 Ry     beta= 0.30
     Davidson diagonalization with overlap
     ethr =  2.52E-11,  avg # of iterations =  1.5

     total cpu time spent up to now is     3657.3 secs

     total energy              =   -2773.36005599 Ry
     estimated scf accuracy    <          2.7E-09 Ry

     total magnetization       =     0.00 Bohr mag/cell
     absolute magnetization    =     0.00 Bohr mag/cell

     iteration # 14     ecut=    60.00 Ry     beta= 0.30
     Davidson diagonalization with overlap
     ethr =  1.81E-12,  avg # of iterations =  3.4

     total cpu time spent up to now is     3740.1 secs

     total energy              =   -2773.36005599 Ry
     estimated scf accuracy    <          1.1E-09 Ry

     total magnetization       =     0.00 Bohr mag/cell
     absolute magnetization    =     0.00 Bohr mag/cell

     iteration # 15     ecut=    60.00 Ry     beta= 0.30
     Davidson diagonalization with overlap
     ethr =  7.20E-13,  avg # of iterations =  1.2
 
     Magnetic moment per site  (integrated on atomic sphere of radius R)
     atom   1 (R=0.201)  charge= 16.5125  magn=  0.0000
     atom   2 (R=0.210)  charge=  0.6069  magn= -0.0000
     atom   3 (R=0.210)  charge=  0.5919  magn= -0.0000
     atom   4 (R=0.210)  charge=  0.6134  magn= -0.0000
     atom   5 (R=0.210)  charge=  0.6069  magn= -0.0000
     atom   6 (R=0.210)  charge=  0.6134  magn= -0.0000
     atom   7 (R=0.210)  charge=  0.5934  magn= -0.0000
     atom   8 (R=0.210)  charge=  0.6028  magn=  0.0000
     atom   9 (R=0.210)  charge=  0.5934  magn= -0.0000
     atom  10 (R=0.210)  charge=  0.6102  magn=  0.0000
     atom  11 (R=0.210)  charge=  0.6102  magn=  0.0000
     atom  12 (R=0.210)  charge=  0.6028  magn= -0.0000
     atom  13 (R=0.201)  charge= 16.6674  magn= -0.0000
     atom  14 (R=0.201)  charge= 16.6621  magn=  0.0000
     atom  15 (R=0.201)  charge= 16.6621  magn=  0.0000
     atom  16 (R=0.201)  charge= 16.6824  magn=  0.0000
     atom  17 (R=0.201)  charge= 16.6705  magn=  0.0000
     atom  18 (R=0.201)  charge= 16.6704  magn=  0.0000

     total cpu time spent up to now is     3790.4 secs

     End of self-consistent calculation

     Number of k-points >= 100: set verbosity='high' to print the bands.

     the Fermi energy is     7.8810 ev

!    total energy              =   -2773.36005599 Ry
     estimated scf accuracy    <          5.7E-10 Ry
     smearing contrib. (-TS)   =       0.00006676 Ry
     internal energy E=F+TS    =   -2773.36012275 Ry

     The total energy is F=E-TS. E is the sum of the following terms:
     one-electron contribution =   -2560.82397320 Ry
     hartree contribution      =    1329.82874393 Ry
     xc contribution           =    -267.31357883 Ry
     ewald contribution        =    -930.15500193 Ry
     DFT-D3 Dispersion         =      -0.45123405 Ry
     one-center paw contrib.   =    -344.44507867 Ry

     total magnetization       =     0.00 Bohr mag/cell
     absolute magnetization    =     0.00 Bohr mag/cell

     convergence has been achieved in  15 iterations

     Forces acting on atoms (cartesian axes, Ry/au):

     atom    1 type  1   force =    -0.00026384    0.00015433    0.00000409
     atom    2 type  2   force =     0.00036063   -0.00006761    0.00285079
     atom    3 type  2   force =    -0.00265871    0.00153500   -0.00000059
     atom    4 type  2   force =     0.00024875    0.00025921    0.00163798
     atom    5 type  2   force =     0.00023879   -0.00027878   -0.00285130
     atom    6 type  2   force =    -0.00010057   -0.00034542   -0.00163847
     atom    7 type  2   force =    -0.00091090    0.00011155    0.00234216
     atom    8 type  2   force =     0.00198122    0.00096824    0.00245426
     atom    9 type  2   force =    -0.00055225    0.00073284   -0.00234297
     atom   10 type  2   force =     0.00039362    0.00009425    0.00178603
     atom   11 type  2   force =     0.00011497   -0.00038836   -0.00178623
     atom   12 type  2   force =     0.00015163   -0.00220020   -0.00245493
     atom   13 type  1   force =     0.00008366   -0.00004869   -0.00000966
     atom   14 type  1   force =    -0.00156999   -0.00078684   -0.00273595
     atom   15 type  1   force =    -0.00010449    0.00175427    0.00274605
     atom   16 type  1   force =     0.00018959   -0.00010977   -0.00000860
     atom   17 type  1   force =     0.00106331   -0.00092819   -0.00334408
     atom   18 type  1   force =     0.00133457   -0.00045583    0.00335141

     Total force =     0.010976     Total SCF correction =     0.000080


     Computing stress (Cartesian axis) and pressure

          total   stress  (Ry/bohr**3)                   (kbar)     P=       -2.09
  -0.00001655  -0.00000067  -0.00000149           -2.43       -0.10       -0.22
  -0.00000067  -0.00001732  -0.00000259           -0.10       -2.55       -0.38
  -0.00000149  -0.00000259  -0.00000873           -0.22       -0.38       -1.28

     Energy error            =      1.6E-03 Ry
     Gradient error          =      3.4E-03 Ry/Bohr
     Cell gradient error     =      2.5E+00 kbar

     number of scf cycles    =   3
     number of bfgs steps    =   1

     enthalpy           old  =   -2773.3616318084 Ry
     enthalpy           new  =   -2773.3600559931 Ry

     CASE: enthalpy          _new > enthalpy          _old

     new trust radius        =       0.0000005087 bohr

     trust_radius < trust_radius_min

     resetting bfgs history

     new conv_thr            =       0.0000000010 Ry

     new unit-cell volume =   1925.07879 a.u.^3 (   285.26724 Ang^3 )
     density =      3.94785 g/cm^3

CELL_PARAMETERS (angstrom)
   5.058994500   0.006649948  -0.011356413
  -2.523738226   4.384543354  -0.011355777
  -0.028799011  -0.049879486  12.851196991

ATOMIC_POSITIONS (angstrom)
Ni              -1.3150881983        3.6313040815       10.6979749098
Mg              -0.0138201997        1.4229492823        6.4442588302
Mg               3.7600291728        0.7011852777       10.6979762610
Mg               2.5193792355        2.9192536260        6.4225276154
Mg               1.2768365196        3.6584342330        2.1004929387
Mg               1.2476007796        0.7164674910        2.1222240377
Mg               1.2363111169        2.1563283593        9.2834235457
Mg               2.5262761625       -0.0229738821        7.9366626818
Mg               1.2379792239        2.1592198260       12.1125253552
Mg               2.5214979864       -0.0160536047        4.9563468018
Mg               3.7907097036        2.1822857945        3.5884038754
Mg               3.7990912467        2.1816081932        0.6080886329
Ni               1.2606202629        2.1774743859        4.2723737341
Ni               2.4961140786       -0.0113082676       -0.0499989767
Ni               3.7739090667        2.2018935671        8.5947508911
Ni              -0.0050691747       -0.0192416844        4.2837312013
Ni               0.0348962229       -0.0145529890       -0.0596503772
Ni               0.0108558576       -0.0561999121        8.6271215795



     Writing config-only to output data dir ./outdir/mg2ni_ni.save/ :
     XML data file
     NEW-OLD atomic charge density approx. for the potential
     New effective cutoffs (rho, wfc):  480.44   60.06

     Check: negative core charge=   -0.000002
     Generating pointlists ...

     total cpu time spent up to now is     3840.1 secs

     Self-consistent Calculation

     iteration #  1     ecut=    60.00 Ry     beta= 0.30
     Davidson diagonalization with overlap
     ethr =  1.00E-06,  avg # of iterations =  3.0

     total cpu time spent up to now is     3935.2 secs

     total energy              =   -2773.35825958 Ry
     estimated scf accuracy    <       0.00413383 Ry

     total magnetization       =     0.00 Bohr mag/cell
     absolute magnetization    =     0.00 Bohr mag/cell

     iteration #  2     ecut=    60.00 Ry     beta= 0.30
     Davidson diagonalization with overlap
     ethr =  2.79E-06,  avg # of iterations =  4.1

     total cpu time spent up to now is     4021.0 secs

     total energy              =   -2773.34902171 Ry
     estimated scf accuracy    <       0.44039498 Ry

     total magnetization       =     0.00 Bohr mag/cell
     absolute magnetization    =     0.00 Bohr mag/cell

     iteration #  3     ecut=    60.00 Ry     beta= 0.30
     Davidson diagonalization with overlap
     ethr =  2.79E-06,  avg # of iterations =  3.9

     total cpu time spent up to now is     4113.3 secs

     total energy              =   -2773.36011137 Ry
     estimated scf accuracy    <       0.00094215 Ry

     total magnetization       =     0.00 Bohr mag/cell
     absolute magnetization    =     0.00 Bohr mag/cell

     iteration #  4     ecut=    60.00 Ry     beta= 0.30
     Davidson diagonalization with overlap
     ethr =  6.37E-07,  avg # of iterations =  1.2

     total cpu time spent up to now is     4165.7 secs

     total energy              =   -2773.36016764 Ry
     estimated scf accuracy    <       0.00034572 Ry

     total magnetization       =     0.00 Bohr mag/cell
     absolute magnetization    =     0.00 Bohr mag/cell

     iteration #  5     ecut=    60.00 Ry     beta= 0.30
     Davidson diagonalization with overlap
     ethr =  2.34E-07,  avg # of iterations =  1.0

     total cpu time spent up to now is     4219.2 secs

     total energy              =   -2773.36019119 Ry
     estimated scf accuracy    <       0.00002529 Ry

     total magnetization       =     0.00 Bohr mag/cell
     absolute magnetization    =     0.00 Bohr mag/cell

     iteration #  6     ecut=    60.00 Ry     beta= 0.30
     Davidson diagonalization with overlap
     ethr =  1.71E-08,  avg # of iterations =  2.0

     total cpu time spent up to now is     4283.9 secs

     total energy              =   -2773.36019281 Ry
     estimated scf accuracy    <       0.00000643 Ry

     total magnetization       =     0.00 Bohr mag/cell
     absolute magnetization    =     0.00 Bohr mag/cell

     iteration #  7     ecut=    60.00 Ry     beta= 0.30
     Davidson diagonalization with overlap
     ethr =  4.34E-09,  avg # of iterations =  2.0

     total cpu time spent up to now is     4346.9 secs

     total energy              =   -2773.36019317 Ry
     estimated scf accuracy    <       0.00000200 Ry

     total magnetization       =     0.00 Bohr mag/cell
     absolute magnetization    =     0.00 Bohr mag/cell

     iteration #  8     ecut=    60.00 Ry     beta= 0.30
     Davidson diagonalization with overlap
     ethr =  1.35E-09,  avg # of iterations =  1.4

     total cpu time spent up to now is     4408.8 secs

     total energy              =   -2773.36019318 Ry
     estimated scf accuracy    <       0.00000350 Ry

     total magnetization       =     0.00 Bohr mag/cell
     absolute magnetization    =     0.00 Bohr mag/cell

     iteration #  9     ecut=    60.00 Ry     beta= 0.30
     Davidson diagonalization with overlap
     ethr =  1.35E-09,  avg # of iterations =  1.2

     total cpu time spent up to now is     4461.7 secs

     total energy              =   -2773.36019324 Ry
     estimated scf accuracy    <       0.00000305 Ry

     total magnetization       =     0.00 Bohr mag/cell
     absolute magnetization    =     0.00 Bohr mag/cell

     iteration # 10     ecut=    60.00 Ry     beta= 0.30
     Davidson diagonalization with overlap
     ethr =  1.35E-09,  avg # of iterations =  1.0

     total cpu time spent up to now is     4513.7 secs

     total energy              =   -2773.36019336 Ry
     estimated scf accuracy    <       0.00000016 Ry

     total magnetization       =     0.00 Bohr mag/cell
     absolute magnetization    =     0.00 Bohr mag/cell

     iteration # 11     ecut=    60.00 Ry     beta= 0.30
     Davidson diagonalization with overlap
     ethr =  1.09E-10,  avg # of iterations =  4.1

     total cpu time spent up to now is     4605.9 secs

     total energy              =   -2773.36019341 Ry
     estimated scf accuracy    <       0.00000026 Ry

     total magnetization       =     0.00 Bohr mag/cell
     absolute magnetization    =     0.00 Bohr mag/cell

     iteration # 12     ecut=    60.00 Ry     beta= 0.30
     Davidson diagonalization with overlap
     ethr =  1.09E-10,  avg # of iterations =  1.3

     total cpu time spent up to now is     4647.1 secs

     total energy              =   -2773.36019342 Ry
     estimated scf accuracy    <       0.00000004 Ry

     total magnetization       =     0.00 Bohr mag/cell
     absolute magnetization    =     0.00 Bohr mag/cell

     iteration # 13     ecut=    60.00 Ry     beta= 0.30
     Davidson diagonalization with overlap
     ethr =  2.55E-11,  avg # of iterations =  2.0

     total cpu time spent up to now is     4685.2 secs

     total energy              =   -2773.36019342 Ry
     estimated scf accuracy    <          3.9E-09 Ry

     total magnetization       =     0.00 Bohr mag/cell
     absolute magnetization    =     0.00 Bohr mag/cell

     iteration # 14     ecut=    60.00 Ry     beta= 0.30
     Davidson diagonalization with overlap
     ethr =  2.63E-12,  avg # of iterations =  2.1

     total cpu time spent up to now is     4725.4 secs

     total energy              =   -2773.36019342 Ry
     estimated scf accuracy    <          3.8E-09 Ry

     total magnetization       =     0.00 Bohr mag/cell
     absolute magnetization    =     0.00 Bohr mag/cell

     iteration # 15     ecut=    60.00 Ry     beta= 0.30
     Davidson diagonalization with overlap
     ethr =  2.54E-12,  avg # of iterations =  1.1
 
     Magnetic moment per site  (integrated on atomic sphere of radius R)
     atom   1 (R=0.201)  charge= 16.5138  magn=  0.0000
     atom   2 (R=0.210)  charge=  0.6072  magn= -0.0000
     atom   3 (R=0.210)  charge=  0.5930  magn= -0.0000
     atom   4 (R=0.210)  charge=  0.6138  magn= -0.0000
     atom   5 (R=0.210)  charge=  0.6072  magn= -0.0000
     atom   6 (R=0.210)  charge=  0.6138  magn= -0.0000
     atom   7 (R=0.210)  charge=  0.5944  magn= -0.0000
     atom   8 (R=0.210)  charge=  0.6036  magn=  0.0000
     atom   9 (R=0.210)  charge=  0.5944  magn= -0.0000
     atom  10 (R=0.210)  charge=  0.6107  magn=  0.0000
     atom  11 (R=0.210)  charge=  0.6107  magn=  0.0000
     atom  12 (R=0.210)  charge=  0.6036  magn=  0.0000
     atom  13 (R=0.201)  charge= 16.6679  magn= -0.0000
     atom  14 (R=0.201)  charge= 16.6633  magn=  0.0000
     atom  15 (R=0.201)  charge= 16.6633  magn=  0.0000
     atom  16 (R=0.201)  charge= 16.6829  magn=  0.0000
     atom  17 (R=0.201)  charge= 16.6715  magn=  0.0000
     atom  18 (R=0.201)  charge= 16.6716  magn=  0.0000

     total cpu time spent up to now is     4756.4 secs

     End of self-consistent calculation

     Number of k-points >= 100: set verbosity='high' to print the bands.

     the Fermi energy is     7.8932 ev

!    total energy              =   -2773.36019342 Ry
     estimated scf accuracy    <          6.2E-10 Ry
     smearing contrib. (-TS)   =       0.00005716 Ry
     internal energy E=F+TS    =   -2773.36025059 Ry

     The total energy is F=E-TS. E is the sum of the following terms:
     one-electron contribution =   -2561.35017458 Ry
     hartree contribution      =    1330.15090166 Ry
     xc contribution           =    -267.32133601 Ry
     ewald contribution        =    -929.94146999 Ry
     DFT-D3 Dispersion         =      -0.45169417 Ry
     one-center paw contrib.   =    -344.44647750 Ry

     total magnetization       =     0.00 Bohr mag/cell
     absolute magnetization    =     0.00 Bohr mag/cell

     convergence has been achieved in  15 iterations

     Forces acting on atoms (cartesian axes, Ry/au):

     atom    1 type  1   force =    -0.00017281    0.00009998   -0.00000801
     atom    2 type  2   force =     0.00038024   -0.00003212    0.00271039
     atom    3 type  2   force =    -0.00256522    0.00148117    0.00000054
     atom    4 type  2   force =     0.00027176    0.00023522    0.00155477
     atom    5 type  2   force =     0.00021791   -0.00031316   -0.00270893
     atom    6 type  2   force =    -0.00006788   -0.00035278   -0.00155330
     atom    7 type  2   force =    -0.00085805    0.00014076    0.00222048
     atom    8 type  2   force =     0.00189475    0.00096287    0.00226081
     atom    9 type  2   force =    -0.00055106    0.00067288   -0.00221817
     atom   10 type  2   force =     0.00037151    0.00008378    0.00178287
     atom   11 type  2   force =     0.00011327   -0.00036351   -0.00178254
     atom   12 type  2   force =     0.00011342   -0.00212220   -0.00225871
     atom   13 type  1   force =     0.00008047   -0.00004607    0.00002669
     atom   14 type  1   force =    -0.00141399   -0.00074149   -0.00251260
     atom   15 type  1   force =    -0.00006364    0.00159432    0.00248884
     atom   16 type  1   force =     0.00017379   -0.00010030    0.00002594
     atom   17 type  1   force =     0.00088272   -0.00087048   -0.00308831
     atom   18 type  1   force =     0.00119283   -0.00032887    0.00305924

     Total force =     0.010284     Total SCF correction =     0.000152


     Computing stress (Cartesian axis) and pressure

          total   stress  (Ry/bohr**3)                   (kbar)     P=       -1.22
  -0.00001021  -0.00000068  -0.00000131           -1.50       -0.10       -0.19
  -0.00000068  -0.00001100  -0.00000226           -0.10       -1.62       -0.33
  -0.00000131  -0.00000226  -0.00000368           -0.19       -0.33       -0.54

     Energy error            =      1.4E-03 Ry
     Gradient error          =      3.1E-03 Ry/Bohr
     Cell gradient error     =      1.6E+00 kbar

     number of scf cycles    =   4
     number of bfgs steps    =   1

     enthalpy           old  =   -2773.3616318084 Ry
     enthalpy           new  =   -2773.3601934234 Ry

     CASE: enthalpy          _new > enthalpy          _old

     new trust radius        =       0.0002033032 bohr
     new conv_thr            =       0.0000000010 Ry

     new unit-cell volume =   1927.18635 a.u.^3 (   285.57955 Ang^3 )
     density =      3.94353 g/cm^3

CELL_PARAMETERS (angstrom)
   5.061113800   0.006732315  -0.011174423
  -2.524726544   4.386419555  -0.011173805
  -0.028343756  -0.049091012  12.854254396

ATOMIC_POSITIONS (angstrom)
Ni              -1.3150512589        3.6334652907       10.7007064369
Mg              -0.0137498785        1.4240126774        6.4444299594
Mg               3.7633445747        0.7014530729       10.7007059738
Mg               2.5205901450        2.9208438551        6.4234924042
Mg               1.2773851209        3.6603257211        2.1027238289
Mg               1.2482632960        0.7171080634        2.1236612626
Mg               1.2376605812        2.1578209976        9.2846266310
Mg               2.5266193115       -0.0229332242        7.9373874209
Mg               1.2392508722        2.1605775142       12.1167815365
Mg               2.5225360750       -0.0157555906        4.9567164271
Mg               3.7924050804        2.1837220922        3.5904361989
Mg               3.8006621258        2.1837749709        0.6097658673
Ni               1.2612971119        2.1787397576        4.2735745584
Ni               2.4979477041       -0.0108825848       -0.0485418019
Ni               3.7758916048        2.2025768534        8.5956954950
Ni              -0.0050112057       -0.0189247653        4.2847493883
Ni               0.0343710002       -0.0140979185       -0.0579810895
Ni               0.0105026289       -0.0554467132        8.6274920310



     Writing config-only to output data dir ./outdir/mg2ni_ni.save/ :
     XML data file
     NEW-OLD atomic charge density approx. for the potential
     New effective cutoffs (rho, wfc):  480.02   60.00

     Check: negative core charge=   -0.000002
     Generating pointlists ...

     total cpu time spent up to now is     4783.8 secs

     Self-consistent Calculation

     iteration #  1     ecut=    60.00 Ry     beta= 0.30
     Davidson diagonalization with overlap
     ethr =  1.00E-06,  avg # of iterations =  3.0

     total cpu time spent up to now is     4844.8 secs

     total energy              =   -2773.35809400 Ry
     estimated scf accuracy    <       0.00419054 Ry

     total magnetization       =     0.00 Bohr mag/cell
     absolute magnetization    =     0.00 Bohr mag/cell

     iteration #  2     ecut=    60.00 Ry     beta= 0.30
     Davidson diagonalization with overlap
     ethr =  2.83E-06,  avg # of iterations =  4.1

     total cpu time spent up to now is     4910.2 secs

     total energy              =   -2773.35032299 Ry
     estimated scf accuracy    <       0.36283371 Ry

     total magnetization       =     0.00 Bohr mag/cell
     absolute magnetization    =     0.00 Bohr mag/cell

     iteration #  3     ecut=    60.00 Ry     beta= 0.30
     Davidson diagonalization with overlap
     ethr =  2.83E-06,  avg # of iterations =  4.0

     total cpu time spent up to now is     4973.3 secs

     total energy              =   -2773.35996398 Ry
     estimated scf accuracy    <       0.00114910 Ry

     total magnetization       =     0.00 Bohr mag/cell
     absolute magnetization    =     0.00 Bohr mag/cell

     iteration #  4     ecut=    60.00 Ry     beta= 0.30
     Davidson diagonalization with overlap
     ethr =  7.76E-07,  avg # of iterations =  1.0

     total cpu time spent up to now is     5003.3 secs

     total energy              =   -2773.36003264 Ry
     estimated scf accuracy    <       0.00024760 Ry

     total magnetization       =     0.00 Bohr mag/cell
     absolute magnetization    =     0.00 Bohr mag/cell

     iteration #  5     ecut=    60.00 Ry     beta= 0.30
     Davidson diagonalization with overlap
     ethr =  1.67E-07,  avg # of iterations =  1.8

     total cpu time spent up to now is     5042.6 secs

     total energy              =   -2773.36005482 Ry
     estimated scf accuracy    <       0.00001105 Ry

     total magnetization       =     0.00 Bohr mag/cell
     absolute magnetization    =     0.00 Bohr mag/cell

     iteration #  6     ecut=    60.00 Ry     beta= 0.30
     Davidson diagonalization with overlap
     ethr =  7.46E-09,  avg # of iterations =  2.0

     total cpu time spent up to now is     5081.6 secs

     total energy              =   -2773.36005576 Ry
     estimated scf accuracy    <       0.00000238 Ry

     total magnetization       =     0.00 Bohr mag/cell
     absolute magnetization    =     0.00 Bohr mag/cell

     iteration #  7     ecut=    60.00 Ry     beta= 0.30
     Davidson diagonalization with overlap
     ethr =  1.61E-09,  avg # of iterations =  2.0

     total cpu time spent up to now is     5119.5 secs

     total energy              =   -2773.36005573 Ry
     estimated scf accuracy    <       0.00000235 Ry

     total magnetization       =     0.00 Bohr mag/cell
     absolute magnetization    =     0.00 Bohr mag/cell

     iteration #  8     ecut=    60.00 Ry     beta= 0.30
     Davidson diagonalization with overlap
     ethr =  1.59E-09,  avg # of iterations =  1.1

     total cpu time spent up to now is     5151.8 secs

     total energy              =   -2773.36005567 Ry
     estimated scf accuracy    <       0.00000670 Ry

     total magnetization       =     0.00 Bohr mag/cell
     absolute magnetization    =     0.00 Bohr mag/cell

     iteration #  9     ecut=    60.00 Ry     beta= 0.30
