
     Program PWSCF v.7.5 starts on 11Jun2026 at  4: 7:39 

     This program is part of the open-source Quantum ESPRESSO suite
     for quantum simulation of materials; please cite
         "P. Giannozzi et al., J. Phys.:Condens. Matter 21 395502 (2009);
         "P. Giannozzi et al., J. Phys.:Condens. Matter 29 465901 (2017);
         "P. Giannozzi et al., J. Chem. Phys. 152 154105 (2020);
          URL http://www.quantum-espresso.org", 
     in publications or presentations arising from this work. More details at
     http://www.quantum-espresso.org/quote

     Serial multi-threaded version, running on   32 processor cores
     24627 MiB available memory on the printing compute node when the environment starts
 
     Reading input from inputs/mgco.in

     Current dimensions of program PWSCF are:
     Max number of different atomic species (ntypx) = 10
     Max number of k-points (npk) =  40000
     Max angular momentum in pseudopotentials (lmaxx) =  4

     File ./outdir/mgco.update deleted, as requested
     file Mg.pbe-n-kjpaw_psl.0.3.0.UPF: wavefunction(s)  3S renormalized
 
 
     G-vector sticks info
     --------------------
     sticks:   dense  smooth     PW     G-vecs:    dense   smooth      PW
     Sum        4591    2299    661               401045   141831   21841
 
     Using Slab Decomposition
 


     bravais-lattice index     =            0
     lattice parameter (alat)  =      11.7853  a.u.
     unit-cell volume          =    2259.3530 (a.u.)^3
     number of atoms/cell      =           16
     number of atomic types    =            2
     number of electrons       =        47.00
     number of Kohn-Sham states=           29
     kinetic-energy cutoff     =      60.0000  Ry
     charge density cutoff     =     480.0000  Ry
     scf convergence threshold =      1.0E-09
     mixing beta               =       0.3000
     number of iterations used =           12  plain     mixing
     energy convergence thresh.=      1.0E-05
     force convergence thresh. =      1.0E-04
     press convergence thresh. =      5.0E-01
     Exchange-correlation= SLA  PW   PBX  PBC
                           (   1   4   3   4   0   0   0)
     nstep                     =          200


     GPU acceleration is ACTIVE.  1 visible GPUs per MPI rank


     celldm(1)=  11.785343  celldm(2)=   0.000000  celldm(3)=   0.000000
     celldm(4)=   0.000000  celldm(5)=   0.000000  celldm(6)=   0.000000

     crystal axes: (cart. coord. in units of alat)
               a(1) = (   1.000000   0.000000  -0.000000 )  
               a(2) = (  -0.500000   0.866025  -0.000000 )  
               a(3) = (  -0.000000  -0.000000   1.593774 )  

     reciprocal axes: (cart. coord. in units 2 pi/alat)
               b(1) = (  1.000000  0.577350  0.000000 )  
               b(2) = ( -0.000000  1.154701  0.000000 )  
               b(3) = (  0.000000  0.000000  0.627441 )  


     PseudoPot. # 1 for Co read from file:
     /home/x/Workspace/3-hEspesso/pseudo/Co_pbe_v1.2.uspp.F.UPF
     MD5 check sum: 5f91765df6ddd3222702df6e7b74a16d
     Pseudo is Ultrasoft + core correction, Zval = 17.0
     Generated by new atomic code, or converted to UPF format
     Using radial grid of  863 points,  6 beta functions with: 
                l(1) =   0
                l(2) =   0
                l(3) =   1
                l(4) =   1
                l(5) =   2
                l(6) =   2
     Q(r) pseudized with  8 coefficients,  rinner =    1.200   1.200   1.200
                                                       1.200   1.200

     PseudoPot. # 2 for Mg read from file:
     /home/x/Workspace/3-hEspesso/pseudo/Mg.pbe-n-kjpaw_psl.0.3.0.UPF
     MD5 check sum: 24ecedc7f3e3cbe212e682f4413594e4
     Pseudo is Projector augmented-wave + core cor, Zval =  2.0
     Generated using "atomic" code by A. Dal Corso  v.5.0.99 svn rev. 10869
     Shape of augmentation charge: PSQ
     Using radial grid of 1129 points,  4 beta functions with: 
                l(1) =   0
                l(2) =   0
                l(3) =   1
                l(4) =   1
     Q(r) pseudized with 0 coefficients 


     atomic species   valence    mass     pseudopotential
     Co               17.00    58.93320     Co( 1.00)
     Mg                2.00    24.30500     Mg( 1.00)

     No symmetry found



   Cartesian axes

     site n.     atom                  positions (alat units)
         1        Co     tau(   1) = (   0.0000001   0.2886751   0.1992216  )
         2        Mg     tau(   2) = (   0.2444114   0.1475641   0.5850190  )
         3        Mg     tau(   3) = (  -0.0000000   0.2886751   0.9961090  )
         4        Mg     tau(   4) = (   0.2444114   0.1475641   1.4071989  )
         5        Mg     tau(   5) = (  -0.2519181   0.7205804   0.1992218  )
         6        Mg     tau(   6) = (  -0.0000000   0.5708972   0.5850190  )
         7        Mg     tau(   7) = (  -0.2482742   0.7226842   0.9961090  )
         8        Mg     tau(   8) = (  -0.0000000   0.5708972   1.4071989  )
         9        Mg     tau(   9) = (   0.5000000   0.2908899   0.1992218  )
        10        Mg     tau(  10) = (   0.7555886   0.1475641   0.5850190  )
        11        Mg     tau(  11) = (   0.5000000   0.2866824   0.9961090  )
        12        Mg     tau(  12) = (   0.7555885   0.1475641   1.4071989  )
        13        Mg     tau(  13) = (   0.2519180   0.7205804   0.1992218  )
        14        Mg     tau(  14) = (   0.5000000   0.5773503   0.6030538  )
        15        Mg     tau(  15) = (   0.2482742   0.7226842   0.9961090  )
        16        Mg     tau(  16) = (   0.5000000   0.5773503   1.3891641  )

     --------------------------------------------
     DFT-D3 Dispersion Correction (3-body terms):
     --------------------------------------------
       Reference C6 values for interpolation: 

         atom   Coordination number   C6
         Mg         0.000          1366.75
         Mg         0.963           902.54
         Mg         1.950           351.12
         Co         0.000          1065.56
         Co         1.715           373.09
         Co         2.926           296.13
         Co         7.779           236.57

       Values used:

         atom   Coordination number  R0_AB[au]  C6      C8
         Co         5.340            3.243    272.05  23920.12
         Mg         9.111            3.292    351.12  31436.69
         Mg         9.274            3.292    351.12  31436.69
         Mg         9.111            3.292    351.12  31436.69
         Mg         8.856            3.292    351.12  31436.69
         Mg         9.111            3.292    351.12  31436.69
         Mg         9.241            3.292    351.12  31436.69
         Mg         9.111            3.292    351.12  31436.69
         Mg         8.856            3.292    351.12  31436.69
         Mg         9.111            3.292    351.12  31436.69
         Mg         9.241            3.292    351.12  31436.69
         Mg         9.111            3.292    351.12  31436.69
         Mg         8.856            3.292    351.12  31436.69
         Mg         9.456            3.292    351.12  31436.69
         Mg         9.241            3.292    351.12  31436.69
         Mg         9.456            3.292    351.12  31436.69

         Molecular C6 ( Ry / a.u.^6 ) =     88733.87


     number of k points=   144  Marzari-Vanderbilt smearing, width (Ry)=  0.0100

     Number of k-points >= 100: set verbosity='high' to print them.

     Dense  grid:   401045 G-vectors     FFT dimensions: (  90,  90, 135)

     Smooth grid:   141831 G-vectors     FFT dimensions: (  60,  60,  96)

     Estimated max dynamical RAM per process >       2.82 GB

     Initial potential from superposition of free atoms

     starting charge      45.9861, renormalised to      47.0000
     Starting wfcs are   73 randomized atomic wfcs

     total cpu time spent up to now is        5.8 secs

     Self-consistent Calculation

     iteration #  1     ecut=    60.00 Ry     beta= 0.30
     Davidson diagonalization with overlap
     ethr =  1.00E-02,  avg # of iterations =  2.6

     total cpu time spent up to now is       12.9 secs

     total energy              =    -801.66889343 Ry
     estimated scf accuracy    <       3.86607534 Ry

     iteration #  2     ecut=    60.00 Ry     beta= 0.30
     Davidson diagonalization with overlap
     ethr =  8.23E-03,  avg # of iterations =  4.7

     total cpu time spent up to now is       23.2 secs

     total energy              =    -800.07903294 Ry
     estimated scf accuracy    <      67.68459342 Ry

     iteration #  3     ecut=    60.00 Ry     beta= 0.30
     Davidson diagonalization with overlap
     ethr =  8.23E-03,  avg # of iterations =  4.9

     total cpu time spent up to now is       32.1 secs

     total energy              =    -802.82802821 Ry
     estimated scf accuracy    <       3.76200582 Ry

     iteration #  4     ecut=    60.00 Ry     beta= 0.30
     Davidson diagonalization with overlap
     ethr =  8.00E-03,  avg # of iterations =  1.1

     total cpu time spent up to now is       36.2 secs

     total energy              =    -802.89041170 Ry
     estimated scf accuracy    <       0.71607412 Ry

     iteration #  5     ecut=    60.00 Ry     beta= 0.30
     Davidson diagonalization with overlap
     ethr =  1.52E-03,  avg # of iterations =  3.5

     total cpu time spent up to now is       43.8 secs

     total energy              =    -802.82237968 Ry
     estimated scf accuracy    <       4.98553070 Ry

     iteration #  6     ecut=    60.00 Ry     beta= 0.30
     Davidson diagonalization with overlap
     ethr =  1.52E-03,  avg # of iterations =  2.6

     total cpu time spent up to now is       49.8 secs

     total energy              =    -802.97050023 Ry
     estimated scf accuracy    <       0.26621694 Ry

     iteration #  7     ecut=    60.00 Ry     beta= 0.30
     Davidson diagonalization with overlap
     ethr =  5.66E-04,  avg # of iterations =  2.3

     total cpu time spent up to now is       56.0 secs

     total energy              =    -802.99771063 Ry
     estimated scf accuracy    <       0.54207043 Ry

     iteration #  8     ecut=    60.00 Ry     beta= 0.30
     Davidson diagonalization with overlap
     ethr =  5.66E-04,  avg # of iterations =  1.0

     total cpu time spent up to now is       59.5 secs

     total energy              =    -802.99163389 Ry
     estimated scf accuracy    <       0.19861639 Ry

     iteration #  9     ecut=    60.00 Ry     beta= 0.30
     Davidson diagonalization with overlap
     ethr =  4.23E-04,  avg # of iterations =  1.1

     total cpu time spent up to now is       63.3 secs

     total energy              =    -802.99781244 Ry
     estimated scf accuracy    <       0.00056997 Ry

     iteration # 10     ecut=    60.00 Ry     beta= 0.30
     Davidson diagonalization with overlap
     c_bands:  2 eigenvalues not converged
     c_bands:  2 eigenvalues not converged
     c_bands:  2 eigenvalues not converged
     c_bands:  2 eigenvalues not converged
     c_bands:  2 eigenvalues not converged
     c_bands:  2 eigenvalues not converged
     ethr =  1.21E-06,  avg # of iterations =  8.2

     total cpu time spent up to now is       85.0 secs

     total energy              =    -802.99971155 Ry
     estimated scf accuracy    <       0.00215071 Ry

     iteration # 11     ecut=    60.00 Ry     beta= 0.30
     Davidson diagonalization with overlap
     ethr =  1.21E-06,  avg # of iterations =  1.3

     total cpu time spent up to now is       89.6 secs

     total energy              =    -802.99972414 Ry
     estimated scf accuracy    <       0.00101866 Ry

     iteration # 12     ecut=    60.00 Ry     beta= 0.30
     Davidson diagonalization with overlap
     ethr =  1.21E-06,  avg # of iterations =  1.0

     total cpu time spent up to now is       93.1 secs

     total energy              =    -802.99969582 Ry
     estimated scf accuracy    <       0.00144251 Ry

     iteration # 13     ecut=    60.00 Ry     beta= 0.30
     Davidson diagonalization with overlap
     ethr =  1.21E-06,  avg # of iterations =  1.0

     total cpu time spent up to now is       96.6 secs

     total energy              =    -802.99967545 Ry
     estimated scf accuracy    <       0.00059014 Ry

     iteration # 14     ecut=    60.00 Ry     beta= 0.30
     Davidson diagonalization with overlap
     ethr =  1.21E-06,  avg # of iterations =  1.1

     total cpu time spent up to now is      100.5 secs

     total energy              =    -802.99969324 Ry
     estimated scf accuracy    <       0.00000612 Ry

     iteration # 15     ecut=    60.00 Ry     beta= 0.30
     Davidson diagonalization with overlap
     ethr =  1.30E-08,  avg # of iterations =  5.7

     total cpu time spent up to now is      112.4 secs

     total energy              =    -802.99969888 Ry
     estimated scf accuracy    <       0.00001287 Ry

     iteration # 16     ecut=    60.00 Ry     beta= 0.30
     Davidson diagonalization with overlap
     ethr =  1.30E-08,  avg # of iterations =  3.3

     total cpu time spent up to now is      119.6 secs

     total energy              =    -802.99969952 Ry
     estimated scf accuracy    <       0.00002661 Ry

     iteration # 17     ecut=    60.00 Ry     beta= 0.30
     Davidson diagonalization with overlap
     ethr =  1.30E-08,  avg # of iterations =  2.5

     total cpu time spent up to now is      125.5 secs

     total energy              =    -802.99970075 Ry
     estimated scf accuracy    <       0.00000065 Ry

     iteration # 18     ecut=    60.00 Ry     beta= 0.30
     Davidson diagonalization with overlap
     ethr =  1.38E-09,  avg # of iterations =  2.1

     total cpu time spent up to now is      131.5 secs

     total energy              =    -802.99970070 Ry
     estimated scf accuracy    <       0.00000056 Ry

     iteration # 19     ecut=    60.00 Ry     beta= 0.30
     Davidson diagonalization with overlap
     ethr =  1.18E-09,  avg # of iterations =  2.1

     total cpu time spent up to now is      138.0 secs

     total energy              =    -802.99970076 Ry
     estimated scf accuracy    <       0.00000023 Ry

     iteration # 20     ecut=    60.00 Ry     beta= 0.30
     Davidson diagonalization with overlap
     ethr =  4.95E-10,  avg # of iterations =  4.4

     total cpu time spent up to now is      146.1 secs

     total energy              =    -802.99970080 Ry
     estimated scf accuracy    <       0.00000014 Ry

     iteration # 21     ecut=    60.00 Ry     beta= 0.30
     Davidson diagonalization with overlap
     ethr =  2.88E-10,  avg # of iterations =  2.6

     total cpu time spent up to now is      155.2 secs

     total energy              =    -802.99970081 Ry
     estimated scf accuracy    <       0.00000006 Ry

     iteration # 22     ecut=    60.00 Ry     beta= 0.30
     Davidson diagonalization with overlap
     ethr =  1.25E-10,  avg # of iterations =  3.6

     total cpu time spent up to now is      164.9 secs

     total energy              =    -802.99970081 Ry
     estimated scf accuracy    <       0.00000001 Ry

     iteration # 23     ecut=    60.00 Ry     beta= 0.30
     Davidson diagonalization with overlap
     ethr =  2.26E-11,  avg # of iterations =  3.8

     total cpu time spent up to now is      172.9 secs

     End of self-consistent calculation

     Number of k-points >= 100: set verbosity='high' to print the bands.

     the Fermi energy is     4.3037 ev

!    total energy              =    -802.99970082 Ry
     estimated scf accuracy    <          6.1E-11 Ry
     smearing contrib. (-TS)   =       0.00176586 Ry
     internal energy E=F+TS    =    -803.00146668 Ry

     The total energy is F=E-TS. E is the sum of the following terms:
     one-electron contribution =    -360.42338200 Ry
     hartree contribution      =     194.79177296 Ry
     xc contribution           =     -56.77427841 Ry
     ewald contribution        =    -110.69930540 Ry
     DFT-D3 Dispersion         =      -0.33938128 Ry
     one-center paw contrib.   =    -469.55689254 Ry

     convergence has been achieved in  23 iterations

     Forces acting on atoms (cartesian axes, Ry/au):

     atom    1 type  1   force =     0.00000007   -0.00000011   -0.00000058
     atom    2 type  2   force =     0.00023684   -0.00013674   -0.00047123
     atom    3 type  2   force =    -0.00000000    0.00000001   -0.00000003
     atom    4 type  2   force =     0.00023683   -0.00013672    0.00047133
     atom    5 type  2   force =    -0.00066268   -0.00038260    0.00000009
     atom    6 type  2   force =    -0.00000000    0.00027350   -0.00047123
     atom    7 type  2   force =     0.00060056    0.00034674   -0.00000002
     atom    8 type  2   force =     0.00000000    0.00027348    0.00047133
     atom    9 type  2   force =    -0.00000000    0.00076522    0.00000009
     atom   10 type  2   force =    -0.00023685   -0.00013674   -0.00047123
     atom   11 type  2   force =    -0.00000001   -0.00069346   -0.00000001
     atom   12 type  2   force =    -0.00023684   -0.00013673    0.00047132
     atom   13 type  2   force =     0.00066269   -0.00038260    0.00000009
     atom   14 type  2   force =    -0.00000001    0.00000001    0.00129675
     atom   15 type  2   force =    -0.00060057    0.00034674   -0.00000002
     atom   16 type  2   force =    -0.00000001   -0.00000000   -0.00129664

     Total force =     0.002889     Total SCF correction =     0.000005


     Computing stress (Cartesian axis) and pressure

          total   stress  (Ry/bohr**3)                   (kbar)     P=        0.26
   0.00000137   0.00000000   0.00000000            0.20        0.00        0.00
   0.00000000   0.00000137   0.00000000            0.00        0.20        0.00
   0.00000000   0.00000000   0.00000252            0.00        0.00        0.37


     BFGS Geometry Optimization
     Energy error            =      8.9E-06 Ry
     Gradient error          =      1.3E-03 Ry/Bohr
     Cell gradient error     =      3.7E-01 kbar

     number of scf cycles    =   1
     number of bfgs steps    =   0

     enthalpy           new  =    -802.9997008158 Ry

     new trust radius        =       0.0012967477 bohr
     new conv_thr            =       0.0000000010 Ry

     new unit-cell volume =   2259.65011 a.u.^3 (   334.84560 Ang^3 )
     density =      2.10023 g/cm^3

CELL_PARAMETERS (angstrom)
   6.236748584   0.000000009   0.000000001
  -3.118374285   5.401182705  -0.000000007
  -0.000000000  -0.000000013   9.940254179

ATOMIC_POSITIONS (angstrom)
Co               0.0000006820        1.8003940359        1.2425305728
Mg               1.5244580074        0.9202479738        3.6484717028
Mg              -0.0000000569        1.8003942537        6.2126588371
Mg               1.5244580336        0.9202479655        8.7768461875
Mg              -1.5715002907        4.4938765972        1.2425319888
Mg              -0.0000000536        3.5606867639        3.6484716944
Mg              -1.5481060062        4.5073833242        6.2126588224
Mg              -0.0000000537        3.5606867843        8.7768461790
Mg               3.1183742732        1.8146122005        1.2425319838
Mg               4.7122904937        0.9202480024        3.6484717106
Mg               3.1183742470        1.7875987982        6.2126588280
Mg               4.7122904699        0.9202479828        8.7768461748
Mg               1.5715002181        4.4938766272        1.2425319856
Mg               3.1183742627        3.6007884897        3.7618887831
Mg               1.5481059142        4.5073833342        6.2126588216
Mg               3.1183742519        3.6007884756        8.6634291004



     Writing config-only to output data dir ./outdir/mgco.save/ :
     XML data file
     NEW-OLD atomic charge density approx. for the potential
     New effective cutoffs (rho, wfc):  479.95   59.99

     total cpu time spent up to now is      176.9 secs

     Self-consistent Calculation

     iteration #  1     ecut=    60.00 Ry     beta= 0.30
     Davidson diagonalization with overlap
     ethr =  1.00E-06,  avg # of iterations =  2.0

     Threshold (ethr) on eigenvalues was too large:
     Diagonalizing with lowered threshold

     Davidson diagonalization with overlap
     ethr =  1.52E-09,  avg # of iterations =  1.1

     total cpu time spent up to now is      184.8 secs

     total energy              =    -802.99903547 Ry
     estimated scf accuracy    <       0.00000084 Ry

     iteration #  2     ecut=    60.00 Ry     beta= 0.30
     Davidson diagonalization with overlap
     ethr =  1.79E-09,  avg # of iterations =  4.1

     total cpu time spent up to now is      191.8 secs

     total energy              =    -802.99903372 Ry
     estimated scf accuracy    <       0.00008163 Ry

     iteration #  3     ecut=    60.00 Ry     beta= 0.30
     Davidson diagonalization with overlap
     ethr =  1.79E-09,  avg # of iterations =  4.0

     total cpu time spent up to now is      199.4 secs

     total energy              =    -802.99903584 Ry
     estimated scf accuracy    <       0.00000003 Ry

     iteration #  4     ecut=    60.00 Ry     beta= 0.30
     Davidson diagonalization with overlap
     ethr =  7.05E-11,  avg # of iterations =  3.0

     total cpu time spent up to now is      206.3 secs

     total energy              =    -802.99903585 Ry
     estimated scf accuracy    <       0.00000001 Ry

     iteration #  5     ecut=    60.00 Ry     beta= 0.30
     Davidson diagonalization with overlap
     ethr =  3.16E-11,  avg # of iterations =  2.2

     total cpu time spent up to now is      211.4 secs

     total energy              =    -802.99903585 Ry
     estimated scf accuracy    <          6.1E-09 Ry

     iteration #  6     ecut=    60.00 Ry     beta= 0.30
     Davidson diagonalization with overlap
     ethr =  1.30E-11,  avg # of iterations =  3.3

     total cpu time spent up to now is      219.8 secs

     End of self-consistent calculation

     Number of k-points >= 100: set verbosity='high' to print the bands.

     the Fermi energy is     4.3028 ev

!    total energy              =    -802.99903585 Ry
     estimated scf accuracy    <          7.8E-10 Ry
     smearing contrib. (-TS)   =       0.00176516 Ry
     internal energy E=F+TS    =    -803.00080101 Ry

     The total energy is F=E-TS. E is the sum of the following terms:
     one-electron contribution =    -360.43455790 Ry
     hartree contribution      =     194.79558771 Ry
     xc contribution           =     -56.77358794 Ry
     ewald contribution        =    -110.69287745 Ry
     DFT-D3 Dispersion         =      -0.33868113 Ry
     one-center paw contrib.   =    -469.55668430 Ry

     convergence has been achieved in   6 iterations

     Forces acting on atoms (cartesian axes, Ry/au):

     atom    1 type  1   force =    -0.00000012    0.00000004    0.00001514
     atom    2 type  2   force =     0.00608472   -0.00351302    0.00888253
     atom    3 type  2   force =     0.00000000   -0.00000001   -0.00000048
     atom    4 type  2   force =     0.00608475   -0.00351303   -0.00888464
     atom    5 type  2   force =    -0.00068386   -0.00039486   -0.00000160
     atom    6 type  2   force =     0.00000000    0.00702603    0.00888253
     atom    7 type  2   force =     0.00055217    0.00031880   -0.00000046
     atom    8 type  2   force =     0.00000001    0.00702606   -0.00888464
     atom    9 type  2   force =     0.00000004    0.00078968   -0.00000161
     atom   10 type  2   force =    -0.00608471   -0.00351302    0.00888253
     atom   11 type  2   force =     0.00000000   -0.00063760   -0.00000046
     atom   12 type  2   force =    -0.00608474   -0.00351303   -0.00888464
     atom   13 type  2   force =     0.00068389   -0.00039484   -0.00000160
     atom   14 type  2   force =     0.00000000    0.00000000    0.00145755
     atom   15 type  2   force =    -0.00055216    0.00031880   -0.00000046
     atom   16 type  2   force =     0.00000000   -0.00000000   -0.00145967

     Total force =     0.027876     Total SCF correction =     0.000052


     Computing stress (Cartesian axis) and pressure

          total   stress  (Ry/bohr**3)                   (kbar)     P=       16.34
   0.00010844  -0.00000000  -0.00000000           15.95       -0.00       -0.00
  -0.00000000   0.00010844  -0.00000000           -0.00       15.95       -0.00
  -0.00000000  -0.00000000   0.00011632           -0.00       -0.00       17.11

     Energy error            =      6.6E-04 Ry
     Gradient error          =      8.9E-03 Ry/Bohr
     Cell gradient error     =      1.7E+01 kbar

     number of scf cycles    =   2
     number of bfgs steps    =   1

     enthalpy           old  =    -802.9997008158 Ry
     enthalpy           new  =    -802.9990358496 Ry

     CASE: enthalpy          _new > enthalpy          _old

     new trust radius        =       0.0000085769 bohr

     trust_radius < trust_radius_min

     resetting bfgs history

     new conv_thr            =       0.0000000010 Ry

     new unit-cell volume =   2259.65010 a.u.^3 (   334.84560 Ang^3 )
     density =      2.10023 g/cm^3

CELL_PARAMETERS (angstrom)
   6.236748571   0.000000009   0.000000001
  -3.118374278   5.401182694  -0.000000007
  -0.000000000  -0.000000013   9.940254175

ATOMIC_POSITIONS (angstrom)
Co               0.0000006820        1.8003940320        1.2425305724
Mg               1.5244579955        0.9202479767        3.6484717329
Mg              -0.0000000569        1.8003942498        6.2126588349
Mg               1.5244580217        0.9202479685        8.7768461530
Mg              -1.5715002633        4.4938766014        1.2425319883
Mg              -0.0000000536        3.5606867463        3.6484717245
Mg              -1.5481060247        4.5073833019        6.2126588202
Mg              -0.0000000537        3.5606867667        8.7768461445
Mg               3.1183742664        1.8146121688        1.2425319834
Mg               4.7122904921        0.9202480054        3.6484717407
Mg               3.1183742403        1.7875988195        6.2126588257
Mg               4.7122904683        0.9202479858        8.7768461403
Mg               1.5715001906        4.4938766314        1.2425319851
Mg               3.1183742559        3.6007884819        3.7618886954
Mg               1.5481059327        4.5073833119        6.2126588194
Mg               3.1183742452        3.6007884678        8.6634291837



     Writing config-only to output data dir ./outdir/mgco.save/ :
     XML data file
     NEW-OLD atomic charge density approx. for the potential
     New effective cutoffs (rho, wfc):  479.95   59.99

     total cpu time spent up to now is      223.8 secs

     Self-consistent Calculation

     iteration #  1     ecut=    60.00 Ry     beta= 0.30
     Davidson diagonalization with overlap
     ethr =  1.00E-06,  avg # of iterations =  1.0

     Threshold (ethr) on eigenvalues was too large:
     Diagonalizing with lowered threshold

     Davidson diagonalization with overlap
     ethr =  6.99E-11,  avg # of iterations =  1.0

     total cpu time spent up to now is      230.3 secs

     total energy              =    -802.99903584 Ry
     estimated scf accuracy    <       0.00000003 Ry

     iteration #  2     ecut=    60.00 Ry     beta= 0.30
     Davidson diagonalization with overlap
     ethr =  7.30E-11,  avg # of iterations =  4.0

     total cpu time spent up to now is      238.2 secs

     total energy              =    -802.99903578 Ry
     estimated scf accuracy    <       0.00000217 Ry

     iteration #  3     ecut=    60.00 Ry     beta= 0.30
     Davidson diagonalization with overlap
     ethr =  7.30E-11,  avg # of iterations =  4.0

     total cpu time spent up to now is      246.0 secs

     total energy              =    -802.99903585 Ry
     estimated scf accuracy    <       0.00000006 Ry

     iteration #  4     ecut=    60.00 Ry     beta= 0.30
     Davidson diagonalization with overlap
     ethr =  7.30E-11,  avg # of iterations =  1.3

     total cpu time spent up to now is      250.9 secs

     End of self-consistent calculation

     Number of k-points >= 100: set verbosity='high' to print the bands.

     the Fermi energy is     4.3028 ev

!    total energy              =    -802.99903585 Ry
     estimated scf accuracy    <          6.9E-10 Ry
     smearing contrib. (-TS)   =       0.00176521 Ry
     internal energy E=F+TS    =    -803.00080106 Ry

     The total energy is F=E-TS. E is the sum of the following terms:
     one-electron contribution =    -360.43378530 Ry
     hartree contribution      =     194.79476048 Ry
     xc contribution           =     -56.77353018 Ry
     ewald contribution        =    -110.69287777 Ry
     DFT-D3 Dispersion         =      -0.33868114 Ry
     one-center paw contrib.   =    -469.55668715 Ry

     convergence has been achieved in   4 iterations

     Forces acting on atoms (cartesian axes, Ry/au):

     atom    1 type  1   force =    -0.00000005   -0.00000006   -0.00000379
     atom    2 type  2   force =     0.00608498   -0.00351316    0.00888455
     atom    3 type  2   force =    -0.00000000    0.00000001    0.00000039
     atom    4 type  2   force =     0.00608469   -0.00351300   -0.00888374
     atom    5 type  2   force =    -0.00068393   -0.00039489   -0.00000025
     atom    6 type  2   force =     0.00000000    0.00702634    0.00888455
     atom    7 type  2   force =     0.00055229    0.00031887    0.00000035
     atom    8 type  2   force =     0.00000000    0.00702600   -0.00888374
     atom    9 type  2   force =     0.00000003    0.00078975   -0.00000025
     atom   10 type  2   force =    -0.00608498   -0.00351316    0.00888455
     atom   11 type  2   force =    -0.00000000   -0.00063772    0.00000035
     atom   12 type  2   force =    -0.00608469   -0.00351299   -0.00888373
     atom   13 type  2   force =     0.00068395   -0.00039486   -0.00000025
     atom   14 type  2   force =    -0.00000000    0.00000000    0.00145961
     atom   15 type  2   force =    -0.00055229    0.00031887    0.00000035
     atom   16 type  2   force =    -0.00000000    0.00000001   -0.00145895

     Total force =     0.027877     Total SCF correction =     0.000013


     Computing stress (Cartesian axis) and pressure

          total   stress  (Ry/bohr**3)                   (kbar)     P=       16.29
   0.00010808  -0.00000000   0.00000000           15.90       -0.00        0.00
  -0.00000000   0.00010808   0.00000000           -0.00       15.90        0.00
   0.00000000   0.00000000   0.00011595            0.00        0.00       17.06

     Energy error            =      6.6E-04 Ry
     Gradient error          =      8.9E-03 Ry/Bohr
     Cell gradient error     =      1.7E+01 kbar

     number of scf cycles    =   3
     number of bfgs steps    =   1

     enthalpy           old  =    -802.9997008158 Ry
     enthalpy           new  =    -802.9990358498 Ry

     CASE: enthalpy          _new > enthalpy          _old

     new trust radius        =       0.0000085750 bohr

     trust_radius < trust_radius_min

     resetting bfgs history

     Message from routine bfgs:
     history already reset at previous step: stopping
     new conv_thr            =       0.0000000010 Ry

     new unit-cell volume =   2259.65010 a.u.^3 (   334.84560 Ang^3 )
     density =      2.10023 g/cm^3

CELL_PARAMETERS (angstrom)
   6.236748571   0.000000009   0.000000001
  -3.118374278   5.401182694  -0.000000007
  -0.000000000  -0.000000013   9.940254175

ATOMIC_POSITIONS (angstrom)
Co               0.0000006820        1.8003940320        1.2425305724
Mg               1.5244579955        0.9202479767        3.6484717329
Mg              -0.0000000569        1.8003942498        6.2126588349
Mg               1.5244580217        0.9202479685        8.7768461530
Mg              -1.5715002633        4.4938766014        1.2425319883
Mg              -0.0000000536        3.5606867463        3.6484717245
Mg              -1.5481060247        4.5073833019        6.2126588202
Mg              -0.0000000537        3.5606867667        8.7768461445
Mg               3.1183742664        1.8146121688        1.2425319834
Mg               4.7122904921        0.9202480054        3.6484717407
Mg               3.1183742403        1.7875988195        6.2126588257
Mg               4.7122904683        0.9202479858        8.7768461403
Mg               1.5715001906        4.4938766314        1.2425319851
Mg               3.1183742559        3.6007884819        3.7618886954
Mg               1.5481059327        4.5073833119        6.2126588194
Mg               3.1183742452        3.6007884678        8.6634291837



     Writing config-only to output data dir ./outdir/mgco.save/ :
     XML data file
     NEW-OLD atomic charge density approx. for the potential
     New effective cutoffs (rho, wfc):  479.95   59.99

     total cpu time spent up to now is      254.9 secs

     Self-consistent Calculation

     iteration #  1     ecut=    60.00 Ry     beta= 0.30
     Davidson diagonalization with overlap
     ethr =  1.00E-06,  avg # of iterations =  1.0

     Threshold (ethr) on eigenvalues was too large:
     Diagonalizing with lowered threshold

     Davidson diagonalization with overlap
     ethr =  1.49E-09,  avg # of iterations =  1.0

     total cpu time spent up to now is      261.5 secs

     total energy              =    -802.99903552 Ry
     estimated scf accuracy    <       0.00000071 Ry

     iteration #  2     ecut=    60.00 Ry     beta= 0.30
     Davidson diagonalization with overlap
     ethr =  1.51E-09,  avg # of iterations =  4.0

     total cpu time spent up to now is      269.2 secs

     total energy              =    -802.99903398 Ry
     estimated scf accuracy    <       0.00007252 Ry

     iteration #  3     ecut=    60.00 Ry     beta= 0.30
     Davidson diagonalization with overlap
     ethr =  1.51E-09,  avg # of iterations =  4.1

     total cpu time spent up to now is      276.8 secs

     total energy              =    -802.99903585 Ry
     estimated scf accuracy    <          8.4E-09 Ry

     iteration #  4     ecut=    60.00 Ry     beta= 0.30
     Davidson diagonalization with overlap
     ethr =  1.78E-11,  avg # of iterations =  3.6

     total cpu time spent up to now is      283.8 secs

     total energy              =    -802.99903585 Ry
     estimated scf accuracy    <          3.5E-09 Ry

     iteration #  5     ecut=    60.00 Ry     beta= 0.30
     Davidson diagonalization with overlap
     ethr =  7.35E-12,  avg # of iterations =  1.2

     total cpu time spent up to now is      287.7 secs

     total energy              =    -802.99903585 Ry
     estimated scf accuracy    <          1.1E-09 Ry

     iteration #  6     ecut=    60.00 Ry     beta= 0.30
     Davidson diagonalization with overlap
     ethr =  2.37E-12,  avg # of iterations =  3.7

     total cpu time spent up to now is      298.7 secs

     End of self-consistent calculation

     Number of k-points >= 100: set verbosity='high' to print the bands.

     the Fermi energy is     4.3028 ev

!    total energy              =    -802.99903585 Ry
     estimated scf accuracy    <          7.2E-11 Ry
     smearing contrib. (-TS)   =       0.00176508 Ry
     internal energy E=F+TS    =    -803.00080093 Ry

     The total energy is F=E-TS. E is the sum of the following terms:
     one-electron contribution =    -360.43464653 Ry
     hartree contribution      =     194.79568376 Ry
     xc contribution           =     -56.77359308 Ry
     ewald contribution        =    -110.69287777 Ry
     DFT-D3 Dispersion         =      -0.33868114 Ry
     one-center paw contrib.   =    -469.55668617 Ry

     convergence has been achieved in   6 iterations

     Forces acting on atoms (cartesian axes, Ry/au):

     atom    1 type  1   force =    -0.00000012    0.00000005    0.00000033
     atom    2 type  2   force =     0.00608480   -0.00351306    0.00888356
     atom    3 type  2   force =     0.00000001   -0.00000000   -0.00000003
     atom    4 type  2   force =     0.00608483   -0.00351308   -0.00888365
     atom    5 type  2   force =    -0.00068399   -0.00039493    0.00000001
     atom    6 type  2   force =     0.00000001    0.00702611    0.00888356
     atom    7 type  2   force =     0.00055231    0.00031887   -0.00000002
     atom    8 type  2   force =     0.00000000    0.00702614   -0.00888364
     atom    9 type  2   force =     0.00000004    0.00078982    0.00000002
     atom   10 type  2   force =    -0.00608479   -0.00351306    0.00888356
     atom   11 type  2   force =     0.00000000   -0.00063775   -0.00000002
     atom   12 type  2   force =    -0.00608482   -0.00351308   -0.00888364
     atom   13 type  2   force =     0.00068401   -0.00039491    0.00000001
     atom   14 type  2   force =    -0.00000000   -0.00000000    0.00145892
     atom   15 type  2   force =    -0.00055230    0.00031887   -0.00000002
     atom   16 type  2   force =     0.00000000   -0.00000000   -0.00145895

     Total force =     0.027876     Total SCF correction =     0.000005


     Computing stress (Cartesian axis) and pressure

          total   stress  (Ry/bohr**3)                   (kbar)     P=       16.34
   0.00010848  -0.00000000   0.00000000           15.96       -0.00        0.00
  -0.00000000   0.00010848   0.00000000           -0.00       15.96        0.00
   0.00000000   0.00000000   0.00011636            0.00        0.00       17.12

     Message from routine bfgs:
     history already reset at previous step: exiting
     Energy error            =      6.6E-04 Ry
     Gradient error          =      8.9E-03 Ry/Bohr
     Cell gradient error     =      1.7E+01 kbar

     bfgs failed after   4 scf cycles and   1 bfgs steps, convergence not achieved
     (criteria: energy <  1.0E-05 Ry, force <  1.0E-04 Ry/Bohr, cell <  5.0E-01 kbar)

     End of BFGS Geometry Optimization

     Final enthalpy           =    -802.9990358506 Ry

     File ./outdir/mgco.bfgs deleted, as requested
Begin final coordinates
     new unit-cell volume =   2259.65010 a.u.^3 (   334.84560 Ang^3 )
     density =      2.10023 g/cm^3

CELL_PARAMETERS (angstrom)
   6.236748571   0.000000009   0.000000001
  -3.118374278   5.401182694  -0.000000007
  -0.000000000  -0.000000013   9.940254175

ATOMIC_POSITIONS (angstrom)
Co               0.0000006820        1.8003940320        1.2425305724
Mg               1.5244579955        0.9202479767        3.6484717329
Mg              -0.0000000569        1.8003942498        6.2126588349
Mg               1.5244580217        0.9202479685        8.7768461530
Mg              -1.5715002633        4.4938766014        1.2425319883
Mg              -0.0000000536        3.5606867463        3.6484717245
Mg              -1.5481060247        4.5073833019        6.2126588202
Mg              -0.0000000537        3.5606867667        8.7768461445
Mg               3.1183742664        1.8146121688        1.2425319834
Mg               4.7122904921        0.9202480054        3.6484717407
Mg               3.1183742403        1.7875988195        6.2126588257
Mg               4.7122904683        0.9202479858        8.7768461403
Mg               1.5715001906        4.4938766314        1.2425319851
Mg               3.1183742559        3.6007884819        3.7618886954
Mg               1.5481059327        4.5073833119        6.2126588194
Mg               3.1183742452        3.6007884678        8.6634291837
End final coordinates



     Writing config-only to output data dir ./outdir/mgco.save/ :
     XML data file

     Writing all to output data dir ./outdir/mgco.save/ :
     XML data file, charge density, pseudopotentials, collected wavefunctions
 
     init_run     :     25.74s CPU      5.60s WALL (       1 calls)
     electrons    :    349.56s CPU    281.12s WALL (       4 calls)
     update_pot   :      3.70s CPU      0.31s WALL (       3 calls)
     forces       :      6.30s CPU      5.14s WALL (       4 calls)
     force_dftd3  :      0.60s CPU      0.51s WALL (       4 calls)
     stress       :      9.43s CPU      8.07s WALL (       4 calls)
     stres_dftd3  :      0.61s CPU      0.51s WALL (       4 calls)

     Called by init_run:
     wfcinit      :      3.18s CPU      3.45s WALL (       1 calls)
     potinit      :     21.70s CPU      1.27s WALL (       1 calls)
     hinit0       :      0.44s CPU      0.35s WALL (       1 calls)

     Called by electrons:
     c_bands      :    258.94s CPU    247.20s WALL (      42 calls)
     sum_band     :     26.02s CPU     22.41s WALL (      42 calls)
     v_of_rho     :      0.29s CPU      0.25s WALL (      43 calls)
     newd         :      8.00s CPU      7.66s WALL (      43 calls)
     PAW_pot      :     57.09s CPU      3.33s WALL (      46 calls)
     mix_rho      :      0.49s CPU      0.42s WALL (      42 calls)
     energy_dftd3 :      0.61s CPU      0.61s WALL (       4 calls)

     Called by c_bands:
     init_us_2    :      6.65s CPU      5.20s WALL (   13824 calls)
     cegterg      :    244.01s CPU    232.81s WALL (    6048 calls)

     Called by *egterg:
     cdiaghg      :     60.95s CPU     63.81s WALL (   21874 calls)
                                       63.68s GPU  (   21874 calls)
     h_psi        :     72.30s CPU     63.20s WALL (   22882 calls)
     s_psi        :     18.29s CPU     18.41s WALL (   22882 calls)
     g_psi        :      0.41s CPU      0.41s WALL (   16690 calls)

     Called by h_psi:
     h_psi:calbec :      0.62s CPU      0.59s WALL (   22882 calls)
     vloc_psi     :     51.28s CPU     42.61s WALL (   22882 calls)
                                       42.56s GPU  (   22882 calls)
     add_vuspsi   :     19.71s CPU     19.52s WALL (   22882 calls)

     General routines
     calbec       :      0.69s CPU      0.71s WALL (   39154 calls)
     fft          :     16.59s CPU      0.93s WALL (     657 calls)
                                        0.10s GPU  (     614 calls)
     ffts         :      6.48s CPU      0.47s WALL (      85 calls)
                                        0.00s GPU  (      42 calls)
     fftw         :      0.66s CPU     43.57s WALL (   84980 calls)
                                       43.27s GPU  (   84980 calls)
     interpolate  :     23.36s CPU      1.39s WALL (      43 calls)
     davcio       :      0.00s CPU      0.15s WALL (     144 calls)
 
 
     PWSCF        :   6m41.51s CPU   5m 2.84s WALL

 
   This run was terminated on:   4:12:42  11Jun2026            

=------------------------------------------------------------------------------=
   JOB DONE.
=------------------------------------------------------------------------------=
