
     Program PWSCF v.7.5 starts on 14Jun2026 at  1:38:15 

     This program is part of the open-source Quantum ESPRESSO suite
     for quantum simulation of materials; please cite
         "P. Giannozzi et al., J. Phys.:Condens. Matter 21 395502 (2009);
         "P. Giannozzi et al., J. Phys.:Condens. Matter 29 465901 (2017);
         "P. Giannozzi et al., J. Chem. Phys. 152 154105 (2020);
          URL http://www.quantum-espresso.org", 
     in publications or presentations arising from this work. More details at
     http://www.quantum-espresso.org/quote

     Serial multi-threaded version, running on   32 processor cores
     25581 MiB available memory on the printing compute node when the environment starts
 
     Reading input from inputs/mg2nih4_unit.in

     Current dimensions of program PWSCF are:
     Max number of different atomic species (ntypx) = 10
     Max number of k-points (npk) =  40000
     Max angular momentum in pseudopotentials (lmaxx) =  4
     file Mg.pbe-n-kjpaw_psl.0.3.0.UPF: wavefunction(s)  3S renormalized

     gamma-point specific algorithms are used
 
 
     G-vector sticks info
     --------------------
     sticks:   dense  smooth     PW     G-vecs:    dense   smooth      PW
     Sum       43617   17473   4373              6860267  1735677  217231
 
     Using Slab Decomposition
 


     bravais-lattice index     =            1
     lattice parameter (alat)  =      30.2356  a.u.
     unit-cell volume          =   27641.1781 (a.u.)^3
     number of atoms/cell      =            7
     number of atomic types    =            3
     number of electrons       =        26.00
     number of Kohn-Sham states=           17
     kinetic-energy cutoff     =      60.0000  Ry
     charge density cutoff     =     600.0000  Ry
     scf convergence threshold =      1.0E-08
     mixing beta               =       0.3000
     number of iterations used =            8  plain     mixing
     energy convergence thresh.=      1.0E-05
     force convergence thresh. =      1.0E-04
     Exchange-correlation= PBE
                           (   1   4   3   4   0   0   0)
     nstep                     =          200


     GPU acceleration is ACTIVE.  1 visible GPUs per MPI rank


     celldm(1)=  30.235618  celldm(2)=   0.000000  celldm(3)=   0.000000
     celldm(4)=   0.000000  celldm(5)=   0.000000  celldm(6)=   0.000000

     crystal axes: (cart. coord. in units of alat)
               a(1) = (   1.000000   0.000000   0.000000 )  
               a(2) = (   0.000000   1.000000   0.000000 )  
               a(3) = (   0.000000   0.000000   1.000000 )  

     reciprocal axes: (cart. coord. in units 2 pi/alat)
               b(1) = (  1.000000  0.000000  0.000000 )  
               b(2) = (  0.000000  1.000000  0.000000 )  
               b(3) = (  0.000000  0.000000  1.000000 )  


     PseudoPot. # 1 for Ni read from file:
     /home/x/Workspace/3-hEspesso/pseudo/ni_pbe_v1.4.uspp.F.UPF
     MD5 check sum: 1ee80287db30b12d2bc1f57a5b5d6409
     Pseudo is Ultrasoft + core correction, Zval = 18.0
     Generated by new atomic code, or converted to UPF format
     Using radial grid of  865 points,  6 beta functions with: 
                l(1) =   0
                l(2) =   0
                l(3) =   1
                l(4) =   1
                l(5) =   2
                l(6) =   2
     Q(r) pseudized with 10 coefficients,  rinner =    0.980   0.980   0.980
                                                       0.980   0.980

     PseudoPot. # 2 for Mg read from file:
     /home/x/Workspace/3-hEspesso/pseudo/Mg.pbe-n-kjpaw_psl.0.3.0.UPF
     MD5 check sum: 24ecedc7f3e3cbe212e682f4413594e4
     Pseudo is Projector augmented-wave + core cor, Zval =  2.0
     Generated using "atomic" code by A. Dal Corso  v.5.0.99 svn rev. 10869
     Shape of augmentation charge: PSQ
     Using radial grid of 1129 points,  4 beta functions with: 
                l(1) =   0
                l(2) =   0
                l(3) =   1
                l(4) =   1
     Q(r) pseudized with 0 coefficients 


     PseudoPot. # 3 for H  read from file:
     /home/x/Workspace/3-hEspesso/pseudo/H.pbe-rrkjus_psl.1.0.0.UPF
     MD5 check sum: f52b6d4d1c606e5624b1dc7b2218f220
     Pseudo is Ultrasoft, Zval =  1.0
     Generated using "atomic" code by A. Dal Corso  v.5.1
     Using radial grid of  929 points,  2 beta functions with: 
                l(1) =   0
                l(2) =   0
     Q(r) pseudized with 0 coefficients 


     atomic species   valence    mass     pseudopotential
     Ni               18.00    58.69340     Ni( 1.00)
     Mg                2.00    24.30500     Mg( 1.00)
     H                 1.00     1.00794     H ( 1.00)

     Starting magnetic structure 
     atomic species   magnetization
     Ni              0.300
     Mg              0.000
     H               0.000

      8 Sym. Ops. (no inversion) found



   Cartesian axes

     site n.     atom                  positions (alat units)
         1        Ni     tau(   1) = (   0.5000000   0.5000000   0.5000000  )
         2        H      tau(   2) = (   0.5559375   0.5559375   0.5559375  )
         3        H      tau(   3) = (   0.5559375   0.4440625   0.4440625  )
         4        H      tau(   4) = (   0.4440625   0.5559375   0.4440625  )
         5        H      tau(   5) = (   0.4440625   0.4440625   0.5559375  )
         6        Mg     tau(   6) = (   0.6687500   0.5000000   0.5000000  )
         7        Mg     tau(   7) = (   0.3312500   0.5000000   0.5000000  )

     --------------------------------------------
     DFT-D3 Dispersion Correction (3-body terms):
     --------------------------------------------
       Reference C6 values for interpolation: 

         atom   Coordination number   C6
         H          0.912             6.05
         H          0.000            15.18
         Mg         0.000          1366.75
         Mg         0.963           902.54
         Mg         1.950           351.12
         Ni         0.000          1149.49
         Ni         1.794           356.66
         Ni         6.546           257.56
         Ni         6.292           283.75

       Values used:

         atom   Coordination number  R0_AB[au]  C6      C8
         Ni         5.226            3.162    281.49  23587.06
         H          1.193            2.062      6.08     73.56
         H          1.193            2.062      6.08     73.56
         H          1.193            2.062      6.08     73.56
         H          1.193            2.062      6.08     73.56
         Mg         1.466            3.292    577.02  51661.52
         Mg         1.466            3.292    577.02  51661.52

         Molecular C6 ( Ry / a.u.^6 ) =      5433.19


     number of k points=     1  Gaussian smearing, width (Ry)=  0.0050
                       cart. coord. in units 2pi/alat
        k(    1) = (   0.0000000   0.0000000   0.0000000), wk =   1.0000000

     Dense  grid:  3430134 G-vectors     FFT dimensions: ( 240, 240, 240)

     Smooth grid:   867839 G-vectors     FFT dimensions: ( 150, 150, 150)

     Estimated max dynamical RAM per process >      14.27 GB
     Generating pointlists ...
     new r_m :   0.0400 (alat units)  1.2084 (a.u.) for type    1
     new r_m :   0.0568 (alat units)  1.7185 (a.u.) for type    2
     new r_m :   0.0400 (alat units)  1.2084 (a.u.) for type    3

     Initial potential from superposition of free atoms

     starting charge      23.9981, renormalised to      26.0000

     negative rho (up, down):  3.228E-04 1.888E-04
     Starting wfcs are   25 randomized atomic wfcs

     total cpu time spent up to now is       16.0 secs

     Self-consistent Calculation

     iteration #  1     ecut=    60.00 Ry     beta= 0.30
     Davidson diagonalization with overlap
     ethr =  1.00E-02,  avg # of iterations =  5.0

     negative rho (up, down):  7.889E-05 4.705E-05

     total cpu time spent up to now is       21.5 secs

     total energy              =    -392.50197420 Ry
     estimated scf accuracy    <      64.13925940 Ry

     total magnetization       =     1.12 Bohr mag/cell
     absolute magnetization    =     1.18 Bohr mag/cell

     iteration #  2     ecut=    60.00 Ry     beta= 0.30
     Davidson diagonalization with overlap
     ethr =  1.00E-02,  avg # of iterations =  5.5

     negative rho (up, down):  4.983E-05 8.026E-05

     total cpu time spent up to now is       27.0 secs

     total energy              =    -416.40312978 Ry
     estimated scf accuracy    <      30.71275849 Ry

     total magnetization       =     0.00 Bohr mag/cell
     absolute magnetization    =     0.31 Bohr mag/cell

     iteration #  3     ecut=    60.00 Ry     beta= 0.30
     Davidson diagonalization with overlap
     ethr =  1.00E-02,  avg # of iterations =  2.0

     negative rho (up, down):  1.185E-04 1.995E-04

     total cpu time spent up to now is       31.8 secs

     total energy              =    -414.94386553 Ry
     estimated scf accuracy    <      10.93700955 Ry

     total magnetization       =    -0.00 Bohr mag/cell
     absolute magnetization    =     0.32 Bohr mag/cell

     iteration #  4     ecut=    60.00 Ry     beta= 0.30
     Davidson diagonalization with overlap
     ethr =  1.00E-02,  avg # of iterations =  3.0

     negative rho (up, down):  2.185E-04 4.229E-04

     total cpu time spent up to now is       36.9 secs

     total energy              =    -414.95033688 Ry
     estimated scf accuracy    <       3.80266940 Ry

     total magnetization       =     0.00 Bohr mag/cell
     absolute magnetization    =     0.51 Bohr mag/cell

     iteration #  5     ecut=    60.00 Ry     beta= 0.30
     Davidson diagonalization with overlap
     ethr =  1.00E-02,  avg # of iterations =  2.0

     negative rho (up, down):  2.906E-04 4.992E-04

     total cpu time spent up to now is       41.9 secs

     total energy              =    -413.41285355 Ry
     estimated scf accuracy    <       3.78722601 Ry

     total magnetization       =     0.00 Bohr mag/cell
     absolute magnetization    =     0.33 Bohr mag/cell

     iteration #  6     ecut=    60.00 Ry     beta= 0.30
     Davidson diagonalization with overlap
     ethr =  1.00E-02,  avg # of iterations =  6.0

     negative rho (up, down):  1.850E-04 2.861E-04

     total cpu time spent up to now is       47.2 secs

     total energy              =    -416.75705633 Ry
     estimated scf accuracy    <      64.50865648 Ry

     total magnetization       =     0.00 Bohr mag/cell
     absolute magnetization    =     0.26 Bohr mag/cell

     iteration #  7     ecut=    60.00 Ry     beta= 0.30
     Davidson diagonalization with overlap
     ethr =  1.00E-02,  avg # of iterations =  1.0

     negative rho (up, down):  2.627E-04 3.910E-04

     total cpu time spent up to now is       51.8 secs

     total energy              =    -414.95807441 Ry
     estimated scf accuracy    <      55.04565170 Ry

     total magnetization       =     0.85 Bohr mag/cell
     absolute magnetization    =     0.92 Bohr mag/cell

     iteration #  8     ecut=    60.00 Ry     beta= 0.30
     Davidson diagonalization with overlap
     ethr =  1.00E-02,  avg # of iterations =  2.5

     negative rho (up, down):  5.440E-04 1.376E-03

     total cpu time spent up to now is       56.4 secs

     total energy              =    -414.83973080 Ry
     estimated scf accuracy    <      26.35929584 Ry

     total magnetization       =     0.62 Bohr mag/cell
     absolute magnetization    =     1.39 Bohr mag/cell

     iteration #  9     ecut=    60.00 Ry     beta= 0.30
     Davidson diagonalization with overlap
     ethr =  1.00E-02,  avg # of iterations =  2.0

     negative rho (up, down):  1.417E-03 2.839E-03

     total cpu time spent up to now is       61.0 secs

     total energy              =    -414.87797490 Ry
     estimated scf accuracy    <      14.79563619 Ry

     total magnetization       =     1.84 Bohr mag/cell
     absolute magnetization    =     1.99 Bohr mag/cell

     iteration # 10     ecut=    60.00 Ry     beta= 0.30
     Davidson diagonalization with overlap
     ethr =  1.00E-02,  avg # of iterations =  1.5

     negative rho (up, down):  2.527E-03 5.087E-03

     total cpu time spent up to now is       65.5 secs

     total energy              =    -415.42620861 Ry
     estimated scf accuracy    <      12.20708091 Ry

     total magnetization       =     1.75 Bohr mag/cell
     absolute magnetization    =     1.87 Bohr mag/cell

     iteration # 11     ecut=    60.00 Ry     beta= 0.30
     Davidson diagonalization with overlap
     ethr =  1.00E-02,  avg # of iterations =  1.0

     negative rho (up, down):  5.964E-03 7.869E-03

     total cpu time spent up to now is       70.1 secs

     total energy              =    -415.02119239 Ry
     estimated scf accuracy    <      25.93126026 Ry

     total magnetization       =     2.00 Bohr mag/cell
     absolute magnetization    =     2.59 Bohr mag/cell

     iteration # 12     ecut=    60.00 Ry     beta= 0.30
     Davidson diagonalization with overlap
     ethr =  1.00E-02,  avg # of iterations =  1.5

     negative rho (up, down):  5.350E-03 7.249E-03

     total cpu time spent up to now is       74.6 secs

     total energy              =    -413.53877991 Ry
     estimated scf accuracy    <      13.49671353 Ry

     total magnetization       =     2.00 Bohr mag/cell
     absolute magnetization    =     2.54 Bohr mag/cell

     iteration # 13     ecut=    60.00 Ry     beta= 0.30
     Davidson diagonalization with overlap
     ethr =  1.00E-02,  avg # of iterations =  3.5

     negative rho (up, down):  1.400E-02 2.538E-02

     total cpu time spent up to now is       79.3 secs

     total energy              =    -414.29554762 Ry
     estimated scf accuracy    <       0.60993320 Ry

     total magnetization       =     0.00 Bohr mag/cell
     absolute magnetization    =     0.57 Bohr mag/cell

     iteration # 14     ecut=    60.00 Ry     beta= 0.30
     Davidson diagonalization with overlap
     ethr =  2.35E-03,  avg # of iterations =  1.5

     negative rho (up, down):  2.863E-02 1.072E-01

     total cpu time spent up to now is       84.0 secs

     total energy              =    -414.24733108 Ry
     estimated scf accuracy    <       0.35965378 Ry

     total magnetization       =     0.00 Bohr mag/cell
     absolute magnetization    =     0.44 Bohr mag/cell

     iteration # 15     ecut=    60.00 Ry     beta= 0.30
     Davidson diagonalization with overlap
     ethr =  1.38E-03,  avg # of iterations =  2.5

     negative rho (up, down):  2.197E-02 1.068E-01

     total cpu time spent up to now is       88.8 secs

     total energy              =    -414.39317303 Ry
     estimated scf accuracy    <       0.34590707 Ry

     total magnetization       =     0.01 Bohr mag/cell
     absolute magnetization    =     0.47 Bohr mag/cell

     iteration # 16     ecut=    60.00 Ry     beta= 0.30
     Davidson diagonalization with overlap
     ethr =  1.33E-03,  avg # of iterations =  3.5

     negative rho (up, down):  6.042E-03 3.996E-02

     total cpu time spent up to now is       93.8 secs

     total energy              =    -414.89550349 Ry
     estimated scf accuracy    <       2.30182299 Ry

     total magnetization       =     2.00 Bohr mag/cell
     absolute magnetization    =     2.05 Bohr mag/cell

     iteration # 17     ecut=    60.00 Ry     beta= 0.30
     Davidson diagonalization with overlap
     ethr =  1.33E-03,  avg # of iterations =  3.5

     negative rho (up, down):  1.626E-03 7.099E-03

     total cpu time spent up to now is       98.5 secs

     total energy              =    -414.91309405 Ry
     estimated scf accuracy    <       4.23949809 Ry

     total magnetization       =    -0.00 Bohr mag/cell
     absolute magnetization    =     0.16 Bohr mag/cell

     iteration # 18     ecut=    60.00 Ry     beta= 0.30
     Davidson diagonalization with overlap
     ethr =  1.33E-03,  avg # of iterations =  2.0

     negative rho (up, down):  1.039E-03 3.978E-03

     total cpu time spent up to now is      103.3 secs

     total energy              =    -414.81402267 Ry
     estimated scf accuracy    <       2.33807688 Ry

     total magnetization       =     0.00 Bohr mag/cell
     absolute magnetization    =     0.19 Bohr mag/cell

     iteration # 19     ecut=    60.00 Ry     beta= 0.30
     Davidson diagonalization with overlap
     ethr =  1.33E-03,  avg # of iterations =  1.0

     negative rho (up, down):  9.299E-04 3.364E-03

     total cpu time spent up to now is      107.9 secs

     total energy              =    -414.80955819 Ry
     estimated scf accuracy    <       1.18688340 Ry

     total magnetization       =     0.56 Bohr mag/cell
     absolute magnetization    =     0.57 Bohr mag/cell

     iteration # 20     ecut=    60.00 Ry     beta= 0.30
     Davidson diagonalization with overlap
     ethr =  1.33E-03,  avg # of iterations =  1.0

     negative rho (up, down):  8.807E-04 2.524E-03

     total cpu time spent up to now is      112.5 secs

     total energy              =    -414.79277846 Ry
     estimated scf accuracy    <       0.63757425 Ry

     total magnetization       =     1.62 Bohr mag/cell
     absolute magnetization    =     1.63 Bohr mag/cell

     iteration # 21     ecut=    60.00 Ry     beta= 0.30
     Davidson diagonalization with overlap
     ethr =  1.33E-03,  avg # of iterations =  1.0

     negative rho (up, down):  5.933E-04 6.865E-04

     total cpu time spent up to now is      117.1 secs

     total energy              =    -414.78290500 Ry
     estimated scf accuracy    <       0.26112366 Ry

     total magnetization       =     2.00 Bohr mag/cell
     absolute magnetization    =     2.00 Bohr mag/cell

     iteration # 22     ecut=    60.00 Ry     beta= 0.30
     Davidson diagonalization with overlap
     ethr =  1.00E-03,  avg # of iterations =  1.0

     negative rho (up, down):  1.170E-03 5.179E-03

     total cpu time spent up to now is      121.6 secs

     total energy              =    -414.80233845 Ry
     estimated scf accuracy    <       0.18005683 Ry

     total magnetization       =     2.00 Bohr mag/cell
     absolute magnetization    =     2.00 Bohr mag/cell

     iteration # 23     ecut=    60.00 Ry     beta= 0.30
     Davidson diagonalization with overlap
     ethr =  6.93E-04,  avg # of iterations =  1.0

     negative rho (up, down):  1.465E-03 6.530E-03

     total cpu time spent up to now is      126.2 secs

     total energy              =    -414.80752056 Ry
     estimated scf accuracy    <       0.27615130 Ry

     total magnetization       =     2.00 Bohr mag/cell
     absolute magnetization    =     2.01 Bohr mag/cell

     iteration # 24     ecut=    60.00 Ry     beta= 0.30
     Davidson diagonalization with overlap
     ethr =  6.93E-04,  avg # of iterations =  1.0

     negative rho (up, down):  1.049E-03 4.581E-03

     total cpu time spent up to now is      130.7 secs

     total energy              =    -414.76701473 Ry
     estimated scf accuracy    <       0.28395921 Ry

     total magnetization       =     2.00 Bohr mag/cell
     absolute magnetization    =     2.01 Bohr mag/cell

     iteration # 25     ecut=    60.00 Ry     beta= 0.30
     Davidson diagonalization with overlap
     ethr =  6.93E-04,  avg # of iterations =  1.0

     negative rho (up, down):  9.936E-04 5.309E-03

     total cpu time spent up to now is      135.2 secs

     total energy              =    -414.78496563 Ry
     estimated scf accuracy    <       0.01210613 Ry

     total magnetization       =     2.67 Bohr mag/cell
     absolute magnetization    =     2.68 Bohr mag/cell

     iteration # 26     ecut=    60.00 Ry     beta= 0.30
     Davidson diagonalization with overlap
     ethr =  4.66E-05,  avg # of iterations =  4.0

     negative rho (up, down):  1.003E-03 5.218E-03

     total cpu time spent up to now is      140.4 secs

     total energy              =    -414.82509950 Ry
     estimated scf accuracy    <       0.74770981 Ry

     total magnetization       =     2.36 Bohr mag/cell
     absolute magnetization    =     2.38 Bohr mag/cell

     iteration # 27     ecut=    60.00 Ry     beta= 0.30
     Davidson diagonalization with overlap
     ethr =  4.66E-05,  avg # of iterations =  1.0

     negative rho (up, down):  1.175E-03 2.763E-03

     total cpu time spent up to now is      145.0 secs

     total energy              =    -414.75228042 Ry
     estimated scf accuracy    <       0.75727233 Ry

     total magnetization       =     2.29 Bohr mag/cell
     absolute magnetization    =     2.31 Bohr mag/cell

     iteration # 28     ecut=    60.00 Ry     beta= 0.30
     Davidson diagonalization with overlap
     ethr =  4.66E-05,  avg # of iterations =  4.0

     negative rho (up, down):  8.374E-04 3.027E-03

     total cpu time spent up to now is      150.1 secs

     total energy              =    -414.77937441 Ry
     estimated scf accuracy    <       0.01835153 Ry

     total magnetization       =     2.13 Bohr mag/cell
     absolute magnetization    =     2.15 Bohr mag/cell

     iteration # 29     ecut=    60.00 Ry     beta= 0.30
     Davidson diagonalization with overlap
     ethr =  4.66E-05,  avg # of iterations =  2.0

     negative rho (up, down):  6.152E-04 1.472E-03

     total cpu time spent up to now is      154.7 secs

     total energy              =    -414.78154139 Ry
     estimated scf accuracy    <       0.00334264 Ry

     total magnetization       =     2.31 Bohr mag/cell
     absolute magnetization    =     2.33 Bohr mag/cell

     iteration # 30     ecut=    60.00 Ry     beta= 0.30
     Davidson diagonalization with overlap
     ethr =  1.29E-05,  avg # of iterations =  2.0

     negative rho (up, down):  6.254E-04 1.527E-03

     total cpu time spent up to now is      159.4 secs

     total energy              =    -414.77929901 Ry
     estimated scf accuracy    <       0.11646153 Ry

     total magnetization       =     2.36 Bohr mag/cell
     absolute magnetization    =     2.38 Bohr mag/cell

     iteration # 31     ecut=    60.00 Ry     beta= 0.30
     Davidson diagonalization with overlap
     ethr =  1.29E-05,  avg # of iterations =  1.5

     negative rho (up, down):  6.219E-04 1.428E-03

     total cpu time spent up to now is      163.9 secs

     total energy              =    -414.78131436 Ry
     estimated scf accuracy    <       0.00140238 Ry

     total magnetization       =     2.09 Bohr mag/cell
     absolute magnetization    =     2.11 Bohr mag/cell

     iteration # 32     ecut=    60.00 Ry     beta= 0.30
     Davidson diagonalization with overlap
     ethr =  5.39E-06,  avg # of iterations =  1.0

     negative rho (up, down):  6.208E-04 1.392E-03

     total cpu time spent up to now is      168.4 secs

     total energy              =    -414.78109608 Ry
     estimated scf accuracy    <       0.00296034 Ry

     total magnetization       =     2.14 Bohr mag/cell
     absolute magnetization    =     2.16 Bohr mag/cell

     iteration # 33     ecut=    60.00 Ry     beta= 0.30
     Davidson diagonalization with overlap
     ethr =  5.39E-06,  avg # of iterations =  1.0

     negative rho (up, down):  6.219E-04 1.305E-03

     total cpu time spent up to now is      173.0 secs

     total energy              =    -414.78127552 Ry
     estimated scf accuracy    <       0.00082908 Ry

     total magnetization       =     2.13 Bohr mag/cell
     absolute magnetization    =     2.16 Bohr mag/cell

     iteration # 34     ecut=    60.00 Ry     beta= 0.30
     Davidson diagonalization with overlap
     ethr =  3.19E-06,  avg # of iterations =  1.5

     negative rho (up, down):  6.275E-04 1.242E-03

     total cpu time spent up to now is      177.6 secs

     total energy              =    -414.78145719 Ry
     estimated scf accuracy    <       0.00730182 Ry

     total magnetization       =     2.07 Bohr mag/cell
     absolute magnetization    =     2.10 Bohr mag/cell

     iteration # 35     ecut=    60.00 Ry     beta= 0.30
     Davidson diagonalization with overlap
     ethr =  3.19E-06,  avg # of iterations =  1.0

     negative rho (up, down):  6.231E-04 1.178E-03

     total cpu time spent up to now is      182.1 secs

     total energy              =    -414.78157150 Ry
     estimated scf accuracy    <       0.00876754 Ry

     total magnetization       =     2.07 Bohr mag/cell
     absolute magnetization    =     2.09 Bohr mag/cell

     iteration # 36     ecut=    60.00 Ry     beta= 0.30
     Davidson diagonalization with overlap
     ethr =  3.19E-06,  avg # of iterations =  1.0

     negative rho (up, down):  5.948E-04 1.097E-03

     total cpu time spent up to now is      186.6 secs

     total energy              =    -414.78120734 Ry
     estimated scf accuracy    <       0.00975890 Ry

     total magnetization       =     2.05 Bohr mag/cell
     absolute magnetization    =     2.08 Bohr mag/cell

     iteration # 37     ecut=    60.00 Ry     beta= 0.30
     Davidson diagonalization with overlap
     ethr =  3.19E-06,  avg # of iterations =  2.0

     negative rho (up, down):  5.966E-04 1.108E-03

     total cpu time spent up to now is      191.3 secs

     total energy              =    -414.78205372 Ry
     estimated scf accuracy    <       0.00291792 Ry

     total magnetization       =     2.03 Bohr mag/cell
     absolute magnetization    =     2.05 Bohr mag/cell

     iteration # 38     ecut=    60.00 Ry     beta= 0.30
     Davidson diagonalization with overlap
     ethr =  3.19E-06,  avg # of iterations =  1.0

     negative rho (up, down):  6.151E-04 1.139E-03

     total cpu time spent up to now is      195.8 secs

     total energy              =    -414.78243862 Ry
     estimated scf accuracy    <       0.00531183 Ry

     total magnetization       =     2.01 Bohr mag/cell
     absolute magnetization    =     2.04 Bohr mag/cell

     iteration # 39     ecut=    60.00 Ry     beta= 0.30
     Davidson diagonalization with overlap
     ethr =  3.19E-06,  avg # of iterations =  2.0

     negative rho (up, down):  6.367E-04 1.122E-03

     total cpu time spent up to now is      200.3 secs

     total energy              =    -414.78263400 Ry
     estimated scf accuracy    <       0.00540868 Ry

     total magnetization       =     2.00 Bohr mag/cell
     absolute magnetization    =     2.03 Bohr mag/cell

     iteration # 40     ecut=    60.00 Ry     beta= 0.30
     Davidson diagonalization with overlap
     ethr =  3.19E-06,  avg # of iterations =  2.0

     negative rho (up, down):  6.248E-04 1.136E-03

     total cpu time spent up to now is      205.0 secs

     total energy              =    -414.78282708 Ry
     estimated scf accuracy    <       0.00122801 Ry

     total magnetization       =     2.00 Bohr mag/cell
     absolute magnetization    =     2.02 Bohr mag/cell

     iteration # 41     ecut=    60.00 Ry     beta= 0.30
     Davidson diagonalization with overlap
     ethr =  3.19E-06,  avg # of iterations =  1.0

     negative rho (up, down):  6.240E-04 1.144E-03

     total cpu time spent up to now is      209.5 secs

     total energy              =    -414.78294721 Ry
     estimated scf accuracy    <       0.00176729 Ry

     total magnetization       =     2.00 Bohr mag/cell
     absolute magnetization    =     2.02 Bohr mag/cell

     iteration # 42     ecut=    60.00 Ry     beta= 0.30
     Davidson diagonalization with overlap
     ethr =  3.19E-06,  avg # of iterations =  1.5

     negative rho (up, down):  6.183E-04 1.150E-03

     total cpu time spent up to now is      214.0 secs

     total energy              =    -414.78305912 Ry
     estimated scf accuracy    <       0.00090436 Ry

     total magnetization       =     2.00 Bohr mag/cell
     absolute magnetization    =     2.02 Bohr mag/cell

     iteration # 43     ecut=    60.00 Ry     beta= 0.30
     Davidson diagonalization with overlap
     ethr =  3.19E-06,  avg # of iterations =  1.0

     negative rho (up, down):  6.218E-04 1.150E-03

     total cpu time spent up to now is      218.5 secs

     total energy              =    -414.78314180 Ry
     estimated scf accuracy    <       0.00107853 Ry

     total magnetization       =     2.00 Bohr mag/cell
     absolute magnetization    =     2.02 Bohr mag/cell

     iteration # 44     ecut=    60.00 Ry     beta= 0.30
     Davidson diagonalization with overlap
     ethr =  3.19E-06,  avg # of iterations =  2.5

     negative rho (up, down):  6.082E-04 1.160E-03

     total cpu time spent up to now is      223.1 secs

     total energy              =    -414.78341169 Ry
     estimated scf accuracy    <       0.00030588 Ry

     total magnetization       =     2.00 Bohr mag/cell
     absolute magnetization    =     2.02 Bohr mag/cell

     iteration # 45     ecut=    60.00 Ry     beta= 0.30
     Davidson diagonalization with overlap
     ethr =  1.18E-06,  avg # of iterations =  2.5

     negative rho (up, down):  5.926E-04 1.172E-03

     total cpu time spent up to now is      228.0 secs

     total energy              =    -414.78349483 Ry
     estimated scf accuracy    <       0.00012678 Ry

     total magnetization       =     2.00 Bohr mag/cell
     absolute magnetization    =     2.01 Bohr mag/cell

     iteration # 46     ecut=    60.00 Ry     beta= 0.30
     Davidson diagonalization with overlap
     ethr =  4.88E-07,  avg # of iterations =  3.0

     negative rho (up, down):  5.838E-04 1.187E-03

     total cpu time spent up to now is      232.7 secs

     total energy              =    -414.78347430 Ry
     estimated scf accuracy    <       0.00009231 Ry

     total magnetization       =     2.00 Bohr mag/cell
     absolute magnetization    =     2.01 Bohr mag/cell

     iteration # 47     ecut=    60.00 Ry     beta= 0.30
     Davidson diagonalization with overlap
     ethr =  3.55E-07,  avg # of iterations =  2.5

     negative rho (up, down):  5.620E-04 1.194E-03

     total cpu time spent up to now is      237.5 secs

     total energy              =    -414.78351419 Ry
     estimated scf accuracy    <       0.00003106 Ry

     total magnetization       =     2.00 Bohr mag/cell
     absolute magnetization    =     2.01 Bohr mag/cell

     iteration # 48     ecut=    60.00 Ry     beta= 0.30
     Davidson diagonalization with overlap
     ethr =  1.19E-07,  avg # of iterations =  2.5

     negative rho (up, down):  5.563E-04 1.201E-03

     total cpu time spent up to now is      242.4 secs

     total energy              =    -414.78354217 Ry
     estimated scf accuracy    <       0.00003601 Ry

     total magnetization       =     2.00 Bohr mag/cell
     absolute magnetization    =     2.01 Bohr mag/cell

     iteration # 49     ecut=    60.00 Ry     beta= 0.30
     Davidson diagonalization with overlap
     ethr =  1.19E-07,  avg # of iterations =  2.0

     negative rho (up, down):  5.513E-04 1.207E-03

     total cpu time spent up to now is      247.1 secs

     total energy              =    -414.78354725 Ry
     estimated scf accuracy    <       0.00001154 Ry

     total magnetization       =     2.00 Bohr mag/cell
     absolute magnetization    =     2.01 Bohr mag/cell

     iteration # 50     ecut=    60.00 Ry     beta= 0.30
     Davidson diagonalization with overlap
     ethr =  4.44E-08,  avg # of iterations =  6.0

     negative rho (up, down):  5.471E-04 1.212E-03

     total cpu time spent up to now is      251.8 secs

     total energy              =    -414.78354997 Ry
     estimated scf accuracy    <       0.00000033 Ry

     total magnetization       =     2.00 Bohr mag/cell
     absolute magnetization    =     2.01 Bohr mag/cell

     iteration # 51     ecut=    60.00 Ry     beta= 0.30
     Davidson diagonalization with overlap
     ethr =  1.28E-09,  avg # of iterations =  6.5

     negative rho (up, down):  5.438E-04 1.215E-03

     total cpu time spent up to now is      257.1 secs

     total energy              =    -414.78355106 Ry
     estimated scf accuracy    <       0.00000066 Ry

     total magnetization       =     2.00 Bohr mag/cell
     absolute magnetization    =     2.01 Bohr mag/cell

     iteration # 52     ecut=    60.00 Ry     beta= 0.30
     Davidson diagonalization with overlap
     ethr =  1.28E-09,  avg # of iterations =  2.5

     negative rho (up, down):  5.419E-04 1.218E-03

     total cpu time spent up to now is      261.9 secs

     total energy              =    -414.78355122 Ry
     estimated scf accuracy    <       0.00000057 Ry

     total magnetization       =     2.00 Bohr mag/cell
     absolute magnetization    =     2.01 Bohr mag/cell

     iteration # 53     ecut=    60.00 Ry     beta= 0.30
     Davidson diagonalization with overlap
     ethr =  1.28E-09,  avg # of iterations =  2.5

     negative rho (up, down):  5.404E-04 1.220E-03

     total cpu time spent up to now is      266.7 secs

     total energy              =    -414.78355166 Ry
     estimated scf accuracy    <       0.00000003 Ry

     total magnetization       =     2.00 Bohr mag/cell
     absolute magnetization    =     2.01 Bohr mag/cell

     iteration # 54     ecut=    60.00 Ry     beta= 0.30
     Davidson diagonalization with overlap
     ethr =  1.21E-10,  avg # of iterations =  6.0

     negative rho (up, down):  5.394E-04 1.221E-03

     total cpu time spent up to now is      272.0 secs

     total energy              =    -414.78355188 Ry
     estimated scf accuracy    <       0.00000002 Ry

     total magnetization       =     2.00 Bohr mag/cell
     absolute magnetization    =     2.01 Bohr mag/cell

     iteration # 55     ecut=    60.00 Ry     beta= 0.30
     Davidson diagonalization with overlap
     ethr =  8.24E-11,  avg # of iterations =  3.5

     negative rho (up, down):  5.387E-04 1.222E-03

     total cpu time spent up to now is      276.9 secs

     total energy              =    -414.78355162 Ry
     estimated scf accuracy    <       0.00000002 Ry

     total magnetization       =     2.00 Bohr mag/cell
     absolute magnetization    =     2.01 Bohr mag/cell

     iteration # 56     ecut=    60.00 Ry     beta= 0.30
     Davidson diagonalization with overlap
     ethr =  8.24E-11,  avg # of iterations =  3.5

     negative rho (up, down):  5.382E-04 1.222E-03

     total cpu time spent up to now is      281.6 secs

     total energy              =    -414.78355157 Ry
     estimated scf accuracy    <       0.00000002 Ry

     total magnetization       =     2.00 Bohr mag/cell
     absolute magnetization    =     2.01 Bohr mag/cell

     iteration # 57     ecut=    60.00 Ry     beta= 0.30
     Davidson diagonalization with overlap
     ethr =  8.24E-11,  avg # of iterations =  3.0

     negative rho (up, down):  5.379E-04 1.223E-03

     total cpu time spent up to now is      286.3 secs

     total energy              =    -414.78355151 Ry
     estimated scf accuracy    <       0.00000002 Ry

     total magnetization       =     2.00 Bohr mag/cell
     absolute magnetization    =     2.01 Bohr mag/cell

     iteration # 58     ecut=    60.00 Ry     beta= 0.30
     Davidson diagonalization with overlap
     ethr =  7.33E-11,  avg # of iterations =  2.5

     negative rho (up, down):  5.377E-04 1.223E-03

     total cpu time spent up to now is      291.0 secs

     total energy              =    -414.78355124 Ry
     estimated scf accuracy    <       0.00000002 Ry

     total magnetization       =     2.00 Bohr mag/cell
     absolute magnetization    =     2.01 Bohr mag/cell

     iteration # 59     ecut=    60.00 Ry     beta= 0.30
     Davidson diagonalization with overlap
     ethr =  6.57E-11,  avg # of iterations =  3.5

     negative rho (up, down):  5.375E-04 1.223E-03

     total cpu time spent up to now is      296.0 secs

     total energy              =    -414.78355134 Ry
     estimated scf accuracy    <       0.00000002 Ry

     total magnetization       =     2.00 Bohr mag/cell
     absolute magnetization    =     2.01 Bohr mag/cell

     iteration # 60     ecut=    60.00 Ry     beta= 0.30
     Davidson diagonalization with overlap
     ethr =  6.57E-11,  avg # of iterations =  1.0

     negative rho (up, down):  5.374E-04 1.223E-03

     total cpu time spent up to now is      300.5 secs

     total energy              =    -414.78355143 Ry
     estimated scf accuracy    <       0.00000002 Ry

     total magnetization       =     2.00 Bohr mag/cell
     absolute magnetization    =     2.01 Bohr mag/cell

     iteration # 61     ecut=    60.00 Ry     beta= 0.30
     Davidson diagonalization with overlap
     ethr =  6.57E-11,  avg # of iterations =  3.5

     negative rho (up, down):  5.374E-04 1.223E-03

     total cpu time spent up to now is      305.4 secs

     total energy              =    -414.78355121 Ry
     estimated scf accuracy    <       0.00000003 Ry

     total magnetization       =     2.00 Bohr mag/cell
     absolute magnetization    =     2.01 Bohr mag/cell

     iteration # 62     ecut=    60.00 Ry     beta= 0.30
     Davidson diagonalization with overlap
     ethr =  6.57E-11,  avg # of iterations =  3.5

     negative rho (up, down):  5.373E-04 1.224E-03

     total cpu time spent up to now is      310.2 secs

     total energy              =    -414.78355118 Ry
     estimated scf accuracy    <       0.00000002 Ry

     total magnetization       =     2.00 Bohr mag/cell
     absolute magnetization    =     2.01 Bohr mag/cell

     iteration # 63     ecut=    60.00 Ry     beta= 0.30
     Davidson diagonalization with overlap
     ethr =  6.06E-11,  avg # of iterations =  2.5

     negative rho (up, down):  5.373E-04 1.224E-03

     total cpu time spent up to now is      315.0 secs

     total energy              =    -414.78355100 Ry
     estimated scf accuracy    <       0.00000001 Ry

     total magnetization       =     2.00 Bohr mag/cell
     absolute magnetization    =     2.01 Bohr mag/cell

     iteration # 64     ecut=    60.00 Ry     beta= 0.30
     Davidson diagonalization with overlap
     ethr =  4.53E-11,  avg # of iterations =  4.0

     negative rho (up, down):  5.372E-04 1.224E-03
 
     Magnetic moment per site  (integrated on atomic sphere of radius R)
     atom   1 (R=0.040)  charge= 13.9452  magn=  0.6911
     atom   2 (R=0.040)  charge=  0.7315  magn=  0.0420
     atom   3 (R=0.040)  charge=  0.7315  magn=  0.0420
     atom   4 (R=0.040)  charge=  0.7316  magn=  0.0413
     atom   5 (R=0.040)  charge=  0.7316  magn=  0.0413
     atom   6 (R=0.057)  charge=  0.2474  magn=  0.0351
     atom   7 (R=0.057)  charge=  0.2474  magn=  0.0327

     total cpu time spent up to now is      319.7 secs

     End of self-consistent calculation

 ------ SPIN UP ------------


          k = 0.0000 0.0000 0.0000 (108616 PWs)   bands (ev):

  -107.8802 -68.5753 -68.0909 -68.0866  -9.5680  -8.0201  -7.9480  -7.9449
    -6.2278  -5.7811  -5.6737  -4.6106  -4.6071  -4.2343  -3.4210  -1.4547
    -1.4513

 ------ SPIN DOWN ----------


          k = 0.0000 0.0000 0.0000 (108616 PWs)   bands (ev):

  -106.8281 -67.2882 -67.2038 -67.2035  -9.2532  -7.6642  -7.2440  -7.2430
    -5.6246  -5.1548  -5.1348  -3.8166  -3.7934  -3.7927  -2.9341  -1.1546
    -1.1469

     the Fermi energy is    -3.8221 ev

!    total energy              =    -414.78355115 Ry
     estimated scf accuracy    <          9.3E-09 Ry
     smearing contrib. (-TS)   =      -0.00375086 Ry
     internal energy E=F+TS    =    -414.77980030 Ry

     The total energy is F=E-TS. E is the sum of the following terms:
     one-electron contribution =    -666.00355555 Ry
     hartree contribution      =     330.91799705 Ry
     xc contribution           =     -40.99174134 Ry
     ewald contribution        =      23.86827832 Ry
     DFT-D3 Dispersion         =      -0.01231634 Ry
     one-center paw contrib.   =     -62.55846244 Ry

     total magnetization       =     2.00 Bohr mag/cell
     absolute magnetization    =     2.01 Bohr mag/cell

     convergence has been achieved in  64 iterations

     negative rho (up, down):  5.372E-04 1.224E-03

     Forces acting on atoms (cartesian axes, Ry/au):

     atom    1 type  1   force =     0.00000000    0.00000000    0.00000000
     atom    2 type  3   force =     0.00990571    0.00720402    0.00720402
     atom    3 type  3   force =     0.00990571   -0.00720402   -0.00720402
     atom    4 type  3   force =    -0.00990571    0.00720402   -0.00720402
     atom    5 type  3   force =    -0.00990571   -0.00720402    0.00720402
     atom    6 type  2   force =    -0.04092525   -0.00000000    0.00000000
     atom    7 type  2   force =     0.04092525    0.00000000    0.00000000

     Total force =     0.064478     Total SCF correction =     0.000109

     BFGS Geometry Optimization
     Energy error            =      4.2E-03 Ry
     Gradient error          =      4.1E-02 Ry/Bohr

     number of scf cycles    =   1
     number of bfgs steps    =   0

     energy             new  =    -414.7835511516 Ry

     new trust radius        =       0.0409252543 bohr
     new conv_thr            =       0.0000000100 Ry


ATOMIC_POSITIONS (angstrom)
Ni               8.0000000000        8.0000000000        8.0000000000
H                8.9002418743        8.8988122057        8.8988122057
H                8.9002418743        7.1011877943        7.1011877943
H                7.0997581257        8.8988122057        7.1011877943
H                7.0997581257        7.1011877943        8.8988122057
Mg              10.6783432881        8.0000000000        8.0000000000
Mg               5.3216567119        8.0000000000        8.0000000000



     Writing config-only to output data dir ./outdir/mg2nih4_unit.save/ :
     XML data file
     NEW-OLD atomic charge density approx. for the potential

     negative rho (up, down):  7.360E-04 9.446E-04
     Generating pointlists ...

     total cpu time spent up to now is      334.4 secs

     Self-consistent Calculation

     iteration #  1     ecut=    60.00 Ry     beta= 0.30
     Davidson diagonalization with overlap
     ethr =  1.00E-06,  avg # of iterations =  3.0

     negative rho (up, down):  7.325E-04 1.139E-03

     total cpu time spent up to now is      339.5 secs

     total energy              =    -414.78215644 Ry
     estimated scf accuracy    <       0.01473212 Ry

     total magnetization       =     2.00 Bohr mag/cell
     absolute magnetization    =     2.01 Bohr mag/cell

     iteration #  2     ecut=    60.00 Ry     beta= 0.30
     Davidson diagonalization with overlap
     ethr =  5.67E-05,  avg # of iterations =  3.5

     negative rho (up, down):  7.217E-04 1.375E-03

     total cpu time spent up to now is      344.3 secs

     total energy              =    -414.77645646 Ry
     estimated scf accuracy    <       0.42757811 Ry

     total magnetization       =     2.00 Bohr mag/cell
     absolute magnetization    =     2.03 Bohr mag/cell

     iteration #  3     ecut=    60.00 Ry     beta= 0.30
     Davidson diagonalization with overlap
     ethr =  5.67E-05,  avg # of iterations =  2.0

     negative rho (up, down):  6.616E-04 1.317E-03

     total cpu time spent up to now is      349.0 secs

     total energy              =    -414.78723027 Ry
     estimated scf accuracy    <       0.00413187 Ry

     total magnetization       =     2.00 Bohr mag/cell
     absolute magnetization    =     2.01 Bohr mag/cell

     iteration #  4     ecut=    60.00 Ry     beta= 0.30
     Davidson diagonalization with overlap
     ethr =  1.59E-05,  avg # of iterations =  3.0

     negative rho (up, down):  6.288E-04 1.212E-03

     total cpu time spent up to now is      353.9 secs

     total energy              =    -414.78782446 Ry
     estimated scf accuracy    <       0.00678460 Ry

     total magnetization       =     2.00 Bohr mag/cell
     absolute magnetization    =     2.01 Bohr mag/cell

     iteration #  5     ecut=    60.00 Ry     beta= 0.30
     Davidson diagonalization with overlap
     ethr =  1.59E-05,  avg # of iterations =  1.0

     negative rho (up, down):  6.010E-04 1.167E-03

     total cpu time spent up to now is      358.3 secs

     total energy              =    -414.78769525 Ry
     estimated scf accuracy    <       0.00563052 Ry

     total magnetization       =     2.00 Bohr mag/cell
     absolute magnetization    =     2.01 Bohr mag/cell

     iteration #  6     ecut=    60.00 Ry     beta= 0.30
     Davidson diagonalization with overlap
     ethr =  1.59E-05,  avg # of iterations =  1.0

     negative rho (up, down):  5.893E-04 1.161E-03

     total cpu time spent up to now is      362.7 secs

     total energy              =    -414.78775693 Ry
     estimated scf accuracy    <       0.00033410 Ry

     total magnetization       =     2.00 Bohr mag/cell
     absolute magnetization    =     2.01 Bohr mag/cell

     iteration #  7     ecut=    60.00 Ry     beta= 0.30
     Davidson diagonalization with overlap
     ethr =  1.28E-06,  avg # of iterations =  1.0

     negative rho (up, down):  5.517E-04 1.185E-03

     total cpu time spent up to now is      367.2 secs

     total energy              =    -414.78779248 Ry
     estimated scf accuracy    <       0.00003991 Ry

     total magnetization       =     2.00 Bohr mag/cell
     absolute magnetization    =     2.01 Bohr mag/cell

     iteration #  8     ecut=    60.00 Ry     beta= 0.30
     Davidson diagonalization with overlap
     ethr =  1.53E-07,  avg # of iterations =  2.5

     negative rho (up, down):  5.497E-04 1.179E-03

     total cpu time spent up to now is      371.9 secs

     total energy              =    -414.78780921 Ry
     estimated scf accuracy    <       0.00007373 Ry

     total magnetization       =     2.00 Bohr mag/cell
     absolute magnetization    =     2.01 Bohr mag/cell

     iteration #  9     ecut=    60.00 Ry     beta= 0.30
     Davidson diagonalization with overlap
     ethr =  1.53E-07,  avg # of iterations =  1.0

     negative rho (up, down):  5.490E-04 1.174E-03

     total cpu time spent up to now is      376.4 secs

     total energy              =    -414.78780923 Ry
     estimated scf accuracy    <       0.00008795 Ry

     total magnetization       =     2.00 Bohr mag/cell
     absolute magnetization    =     2.01 Bohr mag/cell

     iteration # 10     ecut=    60.00 Ry     beta= 0.30
     Davidson diagonalization with overlap
     ethr =  1.53E-07,  avg # of iterations =  1.0

     negative rho (up, down):  5.494E-04 1.170E-03

     total cpu time spent up to now is      380.8 secs

     total energy              =    -414.78781373 Ry
     estimated scf accuracy    <       0.00009561 Ry

     total magnetization       =     2.00 Bohr mag/cell
     absolute magnetization    =     2.01 Bohr mag/cell

     iteration # 11     ecut=    60.00 Ry     beta= 0.30
     Davidson diagonalization with overlap
     ethr =  1.53E-07,  avg # of iterations =  1.5

     negative rho (up, down):  5.481E-04 1.176E-03

     total cpu time spent up to now is      385.4 secs

     total energy              =    -414.78781885 Ry
     estimated scf accuracy    <       0.00002962 Ry

     total magnetization       =     2.00 Bohr mag/cell
     absolute magnetization    =     2.01 Bohr mag/cell

     iteration # 12     ecut=    60.00 Ry     beta= 0.30
     Davidson diagonalization with overlap
     ethr =  1.14E-07,  avg # of iterations =  2.5

     negative rho (up, down):  5.501E-04 1.174E-03

     total cpu time spent up to now is      390.1 secs

     total energy              =    -414.78783749 Ry
     estimated scf accuracy    <       0.00002305 Ry

     total magnetization       =     2.00 Bohr mag/cell
     absolute magnetization    =     2.01 Bohr mag/cell

     iteration # 13     ecut=    60.00 Ry     beta= 0.30
     Davidson diagonalization with overlap
     ethr =  8.87E-08,  avg # of iterations =  1.0

     negative rho (up, down):  5.542E-04 1.170E-03

     total cpu time spent up to now is      394.6 secs

     total energy              =    -414.78782529 Ry
     estimated scf accuracy    <       0.00001075 Ry

     total magnetization       =     2.00 Bohr mag/cell
     absolute magnetization    =     2.01 Bohr mag/cell

     iteration # 14     ecut=    60.00 Ry     beta= 0.30
     Davidson diagonalization with overlap
     ethr =  4.13E-08,  avg # of iterations =  4.0

     negative rho (up, down):  5.573E-04 1.162E-03

     total cpu time spent up to now is      399.4 secs

     total energy              =    -414.78784462 Ry
     estimated scf accuracy    <       0.00000045 Ry

     total magnetization       =     2.00 Bohr mag/cell
     absolute magnetization    =     2.01 Bohr mag/cell

     iteration # 15     ecut=    60.00 Ry     beta= 0.30
     Davidson diagonalization with overlap
     ethr =  1.72E-09,  avg # of iterations =  6.0

     negative rho (up, down):  5.594E-04 1.156E-03

     total cpu time spent up to now is      405.0 secs

     total energy              =    -414.78784518 Ry
     estimated scf accuracy    <       0.00000024 Ry

     total magnetization       =     2.00 Bohr mag/cell
     absolute magnetization    =     2.01 Bohr mag/cell

     iteration # 16     ecut=    60.00 Ry     beta= 0.30
     Davidson diagonalization with overlap
     ethr =  9.07E-10,  avg # of iterations =  2.5

     negative rho (up, down):  5.608E-04 1.151E-03

     total cpu time spent up to now is      409.7 secs

     total energy              =    -414.78784536 Ry
     estimated scf accuracy    <       0.00000029 Ry

     total magnetization       =     2.00 Bohr mag/cell
     absolute magnetization    =     2.01 Bohr mag/cell

     iteration # 17     ecut=    60.00 Ry     beta= 0.30
     Davidson diagonalization with overlap
     ethr =  9.07E-10,  avg # of iterations =  2.5

     negative rho (up, down):  5.618E-04 1.149E-03

     total cpu time spent up to now is      414.3 secs

     total energy              =    -414.78784544 Ry
     estimated scf accuracy    <       0.00000015 Ry

     total magnetization       =     2.00 Bohr mag/cell
     absolute magnetization    =     2.01 Bohr mag/cell

     iteration # 18     ecut=    60.00 Ry     beta= 0.30
     Davidson diagonalization with overlap
     ethr =  5.59E-10,  avg # of iterations =  1.0

     negative rho (up, down):  5.624E-04 1.147E-03

     total cpu time spent up to now is      418.8 secs

     total energy              =    -414.78784545 Ry
     estimated scf accuracy    <       0.00000001 Ry

     total magnetization       =     2.00 Bohr mag/cell
     absolute magnetization    =     2.01 Bohr mag/cell

     iteration # 19     ecut=    60.00 Ry     beta= 0.30
     Davidson diagonalization with overlap
     ethr =  5.32E-11,  avg # of iterations =  4.0

     negative rho (up, down):  5.642E-04 1.144E-03
 
     Magnetic moment per site  (integrated on atomic sphere of radius R)
     atom   1 (R=0.040)  charge= 13.9485  magn=  0.6305
     atom   2 (R=0.040)  charge=  0.7295  magn=  0.0364
     atom   3 (R=0.040)  charge=  0.7295  magn=  0.0364
     atom   4 (R=0.040)  charge=  0.7295  magn=  0.0356
     atom   5 (R=0.040)  charge=  0.7295  magn=  0.0356
     atom   6 (R=0.057)  charge=  0.2461  magn=  0.0451
     atom   7 (R=0.057)  charge=  0.2462  magn=  0.0425

     total cpu time spent up to now is      423.9 secs

     End of self-consistent calculation

 ------ SPIN UP ------------


          k = 0.0000 0.0000 0.0000 (108616 PWs)   bands (ev):

  -107.6598 -68.3317 -67.8876 -67.8819  -9.4644  -7.9019  -7.7747  -7.7704
    -6.0411  -5.6018  -5.5821  -4.4858  -4.4805  -4.2901  -3.4403  -1.4754
    -1.4715

 ------ SPIN DOWN ----------


          k = 0.0000 0.0000 0.0000 (108616 PWs)   bands (ev):

  -106.7025 -67.1422 -67.0884 -67.0881  -9.1901  -7.5940  -7.1491  -7.1479
    -5.4850  -5.0628  -5.0323  -3.7383  -3.7373  -3.7351  -2.8554  -1.1068
    -1.0970

     the Fermi energy is    -3.7576 ev

!    total energy              =    -414.78784546 Ry
     estimated scf accuracy    <          3.5E-09 Ry
     smearing contrib. (-TS)   =      -0.00385510 Ry
     internal energy E=F+TS    =    -414.78399036 Ry

     The total energy is F=E-TS. E is the sum of the following terms:
     one-electron contribution =    -666.29888621 Ry
     hartree contribution      =     331.19263882 Ry
     xc contribution           =     -40.99997659 Ry
     ewald contribution        =      23.89141547 Ry
     DFT-D3 Dispersion         =      -0.01178770 Ry
     one-center paw contrib.   =     -62.55739416 Ry

     total magnetization       =     2.00 Bohr mag/cell
     absolute magnetization    =     2.01 Bohr mag/cell

     convergence has been achieved in  19 iterations

     negative rho (up, down):  5.642E-04 1.144E-03

     Forces acting on atoms (cartesian axes, Ry/au):

     atom    1 type  1   force =     0.00000000    0.00000000    0.00000000
     atom    2 type  3   force =     0.00849786    0.00726896    0.00726896
     atom    3 type  3   force =     0.00849786   -0.00726896   -0.00726896
     atom    4 type  3   force =    -0.00849786    0.00726896   -0.00726896
     atom    5 type  3   force =    -0.00849786   -0.00726896    0.00726896
     atom    6 type  2   force =    -0.04540200    0.00000000    0.00000000
     atom    7 type  2   force =     0.04540200    0.00000000    0.00000000

     Total force =     0.069529     Total SCF correction =     0.000023
     Energy error            =      4.3E-03 Ry
     Gradient error          =      4.5E-02 Ry/Bohr

     number of scf cycles    =   2
     number of bfgs steps    =   1

     energy             old  =    -414.7835511516 Ry
     energy             new  =    -414.7878454609 Ry

     CASE: energy            _new < energy            _old


     WARNING: bfgs curvature condition failed, Theta= 0.744
     new trust radius        =       0.0296462816 bohr
     new conv_thr            =       0.0000000100 Ry


ATOMIC_POSITIONS (angstrom)
Ni               8.0000000000        8.0000000000        8.0000000000
H                8.9144004537        8.9035898756        8.9035898756
H                8.9144004537        7.0964101244        7.0964101244
H                7.0855995463        8.9035898756        7.0964101244
H                7.0855995463        7.0964101244        8.9035898756
Mg              10.6720251454        8.0000000000        8.0000000000
Mg               5.3279748546        8.0000000000        8.0000000000



     Writing config-only to output data dir ./outdir/mg2nih4_unit.save/ :
     XML data file
     NEW-OLD atomic charge density approx. for the potential

     negative rho (up, down):  7.126E-04 9.045E-04
     Generating pointlists ...
     new r_m :   0.0560 (alat units)  1.6939 (a.u.) for type    2

     total cpu time spent up to now is      437.9 secs

     Self-consistent Calculation

     iteration #  1     ecut=    60.00 Ry     beta= 0.30
     Davidson diagonalization with overlap
     ethr =  1.00E-06,  avg # of iterations =  4.0

     negative rho (up, down):  7.486E-04 1.127E-03

     total cpu time spent up to now is      443.2 secs

     total energy              =    -414.78975133 Ry
     estimated scf accuracy    <       0.00130040 Ry

     total magnetization       =     2.00 Bohr mag/cell
     absolute magnetization    =     2.01 Bohr mag/cell

     iteration #  2     ecut=    60.00 Ry     beta= 0.30
     Davidson diagonalization with overlap
     ethr =  5.00E-06,  avg # of iterations =  3.5

     negative rho (up, down):  7.039E-04 1.268E-03

     total cpu time spent up to now is      448.0 secs

     total energy              =    -414.78744745 Ry
     estimated scf accuracy    <       0.12526934 Ry

     total magnetization       =     2.00 Bohr mag/cell
     absolute magnetization    =     2.02 Bohr mag/cell

     iteration #  3     ecut=    60.00 Ry     beta= 0.30
     Davidson diagonalization with overlap
     ethr =  5.00E-06,  avg # of iterations =  2.5

     negative rho (up, down):  6.348E-04 1.213E-03

     total cpu time spent up to now is      452.8 secs

     total energy              =    -414.79018703 Ry
     estimated scf accuracy    <       0.00030890 Ry

     total magnetization       =     2.00 Bohr mag/cell
     absolute magnetization    =     2.01 Bohr mag/cell

     iteration #  4     ecut=    60.00 Ry     beta= 0.30
     Davidson diagonalization with overlap
     ethr =  1.19E-06,  avg # of iterations =  2.0

     negative rho (up, down):  5.999E-04 1.171E-03

     total cpu time spent up to now is      457.4 secs

     total energy              =    -414.79018761 Ry
     estimated scf accuracy    <       0.00155866 Ry

     total magnetization       =     2.00 Bohr mag/cell
     absolute magnetization    =     2.01 Bohr mag/cell

     iteration #  5     ecut=    60.00 Ry     beta= 0.30
     Davidson diagonalization with overlap
     ethr =  1.19E-06,  avg # of iterations =  1.0

     negative rho (up, down):  5.843E-04 1.149E-03

     total cpu time spent up to now is      461.8 secs

     total energy              =    -414.79018822 Ry
     estimated scf accuracy    <       0.00038233 Ry

     total magnetization       =     2.00 Bohr mag/cell
     absolute magnetization    =     2.01 Bohr mag/cell

     iteration #  6     ecut=    60.00 Ry     beta= 0.30
     Davidson diagonalization with overlap
     ethr =  1.19E-06,  avg # of iterations =  1.0

     negative rho (up, down):  5.751E-04 1.143E-03

     total cpu time spent up to now is      466.2 secs

     total energy              =    -414.79019898 Ry
     estimated scf accuracy    <       0.00001103 Ry

     total magnetization       =     2.00 Bohr mag/cell
     absolute magnetization    =     2.02 Bohr mag/cell

     iteration #  7     ecut=    60.00 Ry     beta= 0.30
     Davidson diagonalization with overlap
     ethr =  4.24E-08,  avg # of iterations =  2.0

     negative rho (up, down):  5.706E-04 1.137E-03

     total cpu time spent up to now is      470.8 secs

     total energy              =    -414.79020205 Ry
     estimated scf accuracy    <       0.00000659 Ry

     total magnetization       =     2.00 Bohr mag/cell
     absolute magnetization    =     2.02 Bohr mag/cell

     iteration #  8     ecut=    60.00 Ry     beta= 0.30
     Davidson diagonalization with overlap
     ethr =  2.53E-08,  avg # of iterations =  2.0

     negative rho (up, down):  5.682E-04 1.134E-03

     total cpu time spent up to now is      475.5 secs

     total energy              =    -414.79020449 Ry
     estimated scf accuracy    <       0.00000544 Ry

     total magnetization       =     2.00 Bohr mag/cell
     absolute magnetization    =     2.02 Bohr mag/cell

     iteration #  9     ecut=    60.00 Ry     beta= 0.30
     Davidson diagonalization with overlap
     ethr =  2.09E-08,  avg # of iterations =  2.0

     negative rho (up, down):  5.673E-04 1.133E-03

     total cpu time spent up to now is      480.1 secs

     total energy              =    -414.79020609 Ry
     estimated scf accuracy    <       0.00000431 Ry

     total magnetization       =     2.00 Bohr mag/cell
     absolute magnetization    =     2.02 Bohr mag/cell

     iteration # 10     ecut=    60.00 Ry     beta= 0.30
     Davidson diagonalization with overlap
     ethr =  1.66E-08,  avg # of iterations =  3.5

     negative rho (up, down):  5.695E-04 1.129E-03

     total cpu time spent up to now is      484.9 secs

     total energy              =    -414.79020568 Ry
     estimated scf accuracy    <       0.00000407 Ry

     total magnetization       =     2.00 Bohr mag/cell
     absolute magnetization    =     2.02 Bohr mag/cell

     iteration # 11     ecut=    60.00 Ry     beta= 0.30
     Davidson diagonalization with overlap
     ethr =  1.57E-08,  avg # of iterations =  4.0

     negative rho (up, down):  5.713E-04 1.123E-03

     total cpu time spent up to now is      489.7 secs

     total energy              =    -414.79021476 Ry
     estimated scf accuracy    <       0.00000133 Ry

     total magnetization       =     2.00 Bohr mag/cell
     absolute magnetization    =     2.02 Bohr mag/cell

     iteration # 12     ecut=    60.00 Ry     beta= 0.30
     Davidson diagonalization with overlap
     ethr =  5.13E-09,  avg # of iterations =  1.5

     negative rho (up, down):  5.725E-04 1.121E-03

     total cpu time spent up to now is      494.2 secs

     total energy              =    -414.79021270 Ry
     estimated scf accuracy    <       0.00000054 Ry

     total magnetization       =     2.00 Bohr mag/cell
     absolute magnetization    =     2.02 Bohr mag/cell

     iteration # 13     ecut=    60.00 Ry     beta= 0.30
     Davidson diagonalization with overlap
     ethr =  2.06E-09,  avg # of iterations =  5.5

     negative rho (up, down):  5.742E-04 1.116E-03

     total cpu time spent up to now is      499.6 secs

     total energy              =    -414.79021530 Ry
     estimated scf accuracy    <       0.00000034 Ry

     total magnetization       =     2.00 Bohr mag/cell
     absolute magnetization    =     2.02 Bohr mag/cell

     iteration # 14     ecut=    60.00 Ry     beta= 0.30
     Davidson diagonalization with overlap
     ethr =  1.29E-09,  avg # of iterations =  2.0

     negative rho (up, down):  5.753E-04 1.113E-03

     total cpu time spent up to now is      504.1 secs

     total energy              =    -414.79021524 Ry
     estimated scf accuracy    <       0.00000015 Ry

     total magnetization       =     2.00 Bohr mag/cell
     absolute magnetization    =     2.02 Bohr mag/cell

     iteration # 15     ecut=    60.00 Ry     beta= 0.30
     Davidson diagonalization with overlap
     ethr =  5.79E-10,  avg # of iterations =  4.0

     negative rho (up, down):  5.760E-04 1.111E-03

     total cpu time spent up to now is      508.9 secs

     total energy              =    -414.79021540 Ry
     estimated scf accuracy    <       0.00000007 Ry

     total magnetization       =     2.00 Bohr mag/cell
     absolute magnetization    =     2.02 Bohr mag/cell

     iteration # 16     ecut=    60.00 Ry     beta= 0.30
     Davidson diagonalization with overlap
     ethr =  2.59E-10,  avg # of iterations =  2.5

     negative rho (up, down):  5.776E-04 1.107E-03
 
     Magnetic moment per site  (integrated on atomic sphere of radius R)
     atom   1 (R=0.040)  charge= 13.9507  magn=  0.5998
     atom   2 (R=0.040)  charge=  0.7246  magn=  0.0331
     atom   3 (R=0.040)  charge=  0.7246  magn=  0.0331
     atom   4 (R=0.040)  charge=  0.7246  magn=  0.0326
     atom   5 (R=0.040)  charge=  0.7246  magn=  0.0326
     atom   6 (R=0.056)  charge=  0.2319  magn=  0.0472
     atom   7 (R=0.056)  charge=  0.2320  magn=  0.0463

     total cpu time spent up to now is      513.5 secs

     End of self-consistent calculation

 ------ SPIN UP ------------


          k = 0.0000 0.0000 0.0000 (108616 PWs)   bands (ev):

  -107.5196 -68.1827 -67.7534 -67.7491  -9.3814  -7.8175  -7.6481  -7.6450
    -5.9119  -5.5203  -5.4809  -4.4169  -4.4130  -4.3219  -3.4611  -1.4889
    -1.4876

 ------ SPIN DOWN ----------


          k = 0.0000 0.0000 0.0000 (108616 PWs)   bands (ev):

  -106.6103 -67.0394 -67.0017 -67.0009  -9.1307  -7.5373  -7.0649  -7.0645
    -5.3801  -5.0084  -4.9409  -3.7043  -3.7037  -3.6860  -2.8193  -1.0793
    -1.0753

     the Fermi energy is    -3.7190 ev

!    total energy              =    -414.79021544 Ry
     estimated scf accuracy    <          6.3E-09 Ry
     smearing contrib. (-TS)   =      -0.00379948 Ry
     internal energy E=F+TS    =    -414.78641596 Ry

     The total energy is F=E-TS. E is the sum of the following terms:
     one-electron contribution =    -665.75620321 Ry
     hartree contribution      =     331.00695642 Ry
     xc contribution           =     -40.99810335 Ry
     ewald contribution        =      23.52895340 Ry
     DFT-D3 Dispersion         =      -0.01147831 Ry
     one-center paw contrib.   =     -62.55654091 Ry

     total magnetization       =     2.00 Bohr mag/cell
     absolute magnetization    =     2.02 Bohr mag/cell

     convergence has been achieved in  16 iterations

     negative rho (up, down):  5.776E-04 1.107E-03

     Forces acting on atoms (cartesian axes, Ry/au):

     atom    1 type  1   force =     0.00000000    0.00000000    0.00000000
     atom    2 type  3   force =     0.00642625    0.00525821    0.00525821
     atom    3 type  3   force =     0.00642625   -0.00525821   -0.00525821
     atom    4 type  3   force =    -0.00642625    0.00525821   -0.00525821
     atom    5 type  3   force =    -0.00642625   -0.00525821    0.00525821
     atom    6 type  2   force =    -0.04881006   -0.00000000    0.00000000
     atom    7 type  2   force =     0.04881006    0.00000000   -0.00000000

     Total force =     0.071772     Total SCF correction =     0.000020
     Energy error            =      2.4E-03 Ry
     Gradient error          =      4.9E-02 Ry/Bohr

     number of scf cycles    =   3
     number of bfgs steps    =   2

     energy             old  =    -414.7878454609 Ry
     energy             new  =    -414.7902154392 Ry

     CASE: energy            _new < energy            _old


     WARNING: bfgs curvature condition failed, Theta= 0.902
     new trust radius        =       0.0326109097 bohr
     new conv_thr            =       0.0000000100 Ry


ATOMIC_POSITIONS (angstrom)
Ni               8.0000000000        8.0000000000        8.0000000000
H                8.9304352940        8.9081002097        8.9081002097
H                8.9304352940        7.0918997903        7.0918997903
H                7.0695647060        8.9081002097        7.0918997903
H                7.0695647060        7.0918997903        8.9081002097
Mg              10.6645568450        8.0000000000        8.0000000000
Mg               5.3354431550        8.0000000000        8.0000000000



     Writing config-only to output data dir ./outdir/mg2nih4_unit.save/ :
     XML data file
     NEW-OLD atomic charge density approx. for the potential

     negative rho (up, down):  7.081E-04 8.908E-04
     Generating pointlists ...

     total cpu time spent up to now is      527.4 secs

     Self-consistent Calculation

     iteration #  1     ecut=    60.00 Ry     beta= 0.30
     Davidson diagonalization with overlap
     ethr =  1.00E-06,  avg # of iterations =  4.5

     negative rho (up, down):  6.868E-04 1.040E-03

     total cpu time spent up to now is      532.6 secs

     total energy              =    -414.79211781 Ry
     estimated scf accuracy    <       0.00138214 Ry

     total magnetization       =     2.00 Bohr mag/cell
     absolute magnetization    =     2.02 Bohr mag/cell

     iteration #  2     ecut=    60.00 Ry     beta= 0.30
     Davidson diagonalization with overlap
     ethr =  5.32E-06,  avg # of iterations =  3.5

     negative rho (up, down):  6.720E-04 1.217E-03

     total cpu time spent up to now is      537.5 secs

     total energy              =    -414.78949355 Ry
     estimated scf accuracy    <       0.13927887 Ry

     total magnetization       =     2.00 Bohr mag/cell
     absolute magnetization    =     2.02 Bohr mag/cell

     iteration #  3     ecut=    60.00 Ry     beta= 0.30
     Davidson diagonalization with overlap
     ethr =  5.32E-06,  avg # of iterations =  2.5

     negative rho (up, down):  6.250E-04 1.164E-03

     total cpu time spent up to now is      542.2 secs

     total energy              =    -414.79257311 Ry
     estimated scf accuracy    <       0.00044321 Ry

     total magnetization       =     2.00 Bohr mag/cell
     absolute magnetization    =     2.02 Bohr mag/cell

     iteration #  4     ecut=    60.00 Ry     beta= 0.30
     Davidson diagonalization with overlap
     ethr =  1.70E-06,  avg # of iterations =  2.0

     negative rho (up, down):  5.980E-04 1.129E-03

     total cpu time spent up to now is      546.7 secs

     total energy              =    -414.79257437 Ry
     estimated scf accuracy    <       0.00157954 Ry

     total magnetization       =     2.00 Bohr mag/cell
     absolute magnetization    =     2.02 Bohr mag/cell

     iteration #  5     ecut=    60.00 Ry     beta= 0.30
     Davidson diagonalization with overlap
     ethr =  1.70E-06,  avg # of iterations =  1.0

     negative rho (up, down):  5.890E-04 1.107E-03

     total cpu time spent up to now is      551.1 secs

     total energy              =    -414.79257493 Ry
     estimated scf accuracy    <       0.00049883 Ry

     total magnetization       =     2.00 Bohr mag/cell
     absolute magnetization    =     2.02 Bohr mag/cell

     iteration #  6     ecut=    60.00 Ry     beta= 0.30
     Davidson diagonalization with overlap
     ethr =  1.70E-06,  avg # of iterations =  1.0

     negative rho (up, down):  5.825E-04 1.104E-03

     total cpu time spent up to now is      555.5 secs

     total energy              =    -414.79258910 Ry
     estimated scf accuracy    <       0.00003061 Ry

     total magnetization       =     2.00 Bohr mag/cell
     absolute magnetization    =     2.02 Bohr mag/cell

     iteration #  7     ecut=    60.00 Ry     beta= 0.30
     Davidson diagonalization with overlap
     ethr =  1.18E-07,  avg # of iterations =  2.0

     negative rho (up, down):  5.818E-04 1.097E-03

     total cpu time spent up to now is      560.1 secs

     total energy              =    -414.79259296 Ry
     estimated scf accuracy    <       0.00001288 Ry

     total magnetization       =     2.00 Bohr mag/cell
     absolute magnetization    =     2.02 Bohr mag/cell

     iteration #  8     ecut=    60.00 Ry     beta= 0.30
     Davidson diagonalization with overlap
     ethr =  4.95E-08,  avg # of iterations =  1.0

     negative rho (up, down):  5.812E-04 1.093E-03

     total cpu time spent up to now is      564.6 secs

     total energy              =    -414.79259467 Ry
     estimated scf accuracy    <       0.00001202 Ry

     total magnetization       =     2.00 Bohr mag/cell
     absolute magnetization    =     2.02 Bohr mag/cell

     iteration #  9     ecut=    60.00 Ry     beta= 0.30
     Davidson diagonalization with overlap
     ethr =  4.62E-08,  avg # of iterations =  1.0

     negative rho (up, down):  5.811E-04 1.092E-03

     total cpu time spent up to now is      569.1 secs

     total energy              =    -414.79259866 Ry
     estimated scf accuracy    <       0.00001729 Ry

     total magnetization       =     2.00 Bohr mag/cell
     absolute magnetization    =     2.02 Bohr mag/cell

     iteration # 10     ecut=    60.00 Ry     beta= 0.30
     Davidson diagonalization with overlap
     ethr =  4.62E-08,  avg # of iterations =  2.0

     negative rho (up, down):  5.835E-04 1.097E-03

     total cpu time spent up to now is      573.7 secs

     total energy              =    -414.79258319 Ry
     estimated scf accuracy    <       0.00002029 Ry

     total magnetization       =     2.00 Bohr mag/cell
     absolute magnetization    =     2.02 Bohr mag/cell

     iteration # 11     ecut=    60.00 Ry     beta= 0.30
     Davidson diagonalization with overlap
     ethr =  4.62E-08,  avg # of iterations =  4.0

     negative rho (up, down):  5.864E-04 1.084E-03

     total cpu time spent up to now is      578.4 secs

     total energy              =    -414.79261271 Ry
     estimated scf accuracy    <       0.00005060 Ry

     total magnetization       =     2.00 Bohr mag/cell
     absolute magnetization    =     2.02 Bohr mag/cell

     iteration # 12     ecut=    60.00 Ry     beta= 0.30
     Davidson diagonalization with overlap
     ethr =  4.62E-08,  avg # of iterations =  2.0

     negative rho (up, down):  5.912E-04 1.095E-03

     total cpu time spent up to now is      583.0 secs

     total energy              =    -414.79255138 Ry
     estimated scf accuracy    <       0.00006116 Ry

     total magnetization       =     2.00 Bohr mag/cell
     absolute magnetization    =     2.02 Bohr mag/cell

     iteration # 13     ecut=    60.00 Ry     beta= 0.30
     Davidson diagonalization with overlap
     ethr =  4.62E-08,  avg # of iterations =  4.5

     negative rho (up, down):  5.982E-04 1.087E-03

     total cpu time spent up to now is      588.0 secs

     total energy              =    -414.79260189 Ry
     estimated scf accuracy    <       0.00013334 Ry

     total magnetization       =     2.00 Bohr mag/cell
     absolute magnetization    =     2.02 Bohr mag/cell

     iteration # 14     ecut=    60.00 Ry     beta= 0.30
     Davidson diagonalization with overlap
     ethr =  4.62E-08,  avg # of iterations =  4.0

     negative rho (up, down):  6.025E-04 1.066E-03

     total cpu time spent up to now is      592.9 secs

     total energy              =    -414.79261549 Ry
     estimated scf accuracy    <       0.00008634 Ry

     total magnetization       =     2.00 Bohr mag/cell
     absolute magnetization    =     2.03 Bohr mag/cell

     iteration # 15     ecut=    60.00 Ry     beta= 0.30
     Davidson diagonalization with overlap
     ethr =  4.62E-08,  avg # of iterations =  3.0

     negative rho (up, down):  6.054E-04 1.059E-03

     total cpu time spent up to now is      597.7 secs

     total energy              =    -414.79262201 Ry
     estimated scf accuracy    <       0.00008415 Ry

     total magnetization       =     2.00 Bohr mag/cell
     absolute magnetization    =     2.02 Bohr mag/cell

     iteration # 16     ecut=    60.00 Ry     beta= 0.30
     Davidson diagonalization with overlap
     ethr =  4.62E-08,  avg # of iterations =  1.0

     negative rho (up, down):  6.086E-04 1.047E-03

     total cpu time spent up to now is      602.2 secs

     total energy              =    -414.79258898 Ry
     estimated scf accuracy    <       0.00005480 Ry

     total magnetization       =     2.00 Bohr mag/cell
     absolute magnetization    =     2.02 Bohr mag/cell

     iteration # 17     ecut=    60.00 Ry     beta= 0.30
     Davidson diagonalization with overlap
     ethr =  4.62E-08,  avg # of iterations =  4.0

     negative rho (up, down):  6.057E-04 1.051E-03

     total cpu time spent up to now is      606.9 secs

     total energy              =    -414.79261953 Ry
     estimated scf accuracy    <       0.00000402 Ry

     total magnetization       =     2.00 Bohr mag/cell
     absolute magnetization    =     2.02 Bohr mag/cell

     iteration # 18     ecut=    60.00 Ry     beta= 0.30
     Davidson diagonalization with overlap
     ethr =  1.55E-08,  avg # of iterations =  2.5

     negative rho (up, down):  6.026E-04 1.056E-03

     total cpu time spent up to now is      611.5 secs

     total energy              =    -414.79262134 Ry
     estimated scf accuracy    <       0.00000210 Ry

     total magnetization       =     2.00 Bohr mag/cell
     absolute magnetization    =     2.02 Bohr mag/cell

     iteration # 19     ecut=    60.00 Ry     beta= 0.30
     Davidson diagonalization with overlap
     ethr =  8.07E-09,  avg # of iterations =  2.0

     negative rho (up, down):  5.994E-04 1.060E-03

     total cpu time spent up to now is      616.0 secs

     total energy              =    -414.79262187 Ry
     estimated scf accuracy    <       0.00000136 Ry

     total magnetization       =     2.00 Bohr mag/cell
     absolute magnetization    =     2.02 Bohr mag/cell

     iteration # 20     ecut=    60.00 Ry     beta= 0.30
     Davidson diagonalization with overlap
     ethr =  5.25E-09,  avg # of iterations =  1.5

     negative rho (up, down):  5.994E-04 1.062E-03

     total cpu time spent up to now is      620.6 secs

     total energy              =    -414.79262214 Ry
     estimated scf accuracy    <       0.00000127 Ry

     total magnetization       =     2.00 Bohr mag/cell
     absolute magnetization    =     2.02 Bohr mag/cell

     iteration # 21     ecut=    60.00 Ry     beta= 0.30
     Davidson diagonalization with overlap
     ethr =  4.89E-09,  avg # of iterations =  2.5

     negative rho (up, down):  5.994E-04 1.063E-03

     total cpu time spent up to now is      625.3 secs

     total energy              =    -414.79262256 Ry
     estimated scf accuracy    <       0.00000044 Ry

     total magnetization       =     2.00 Bohr mag/cell
     absolute magnetization    =     2.02 Bohr mag/cell

     iteration # 22     ecut=    60.00 Ry     beta= 0.30
     Davidson diagonalization with overlap
     ethr =  1.68E-09,  avg # of iterations =  4.0

     negative rho (up, down):  6.002E-04 1.064E-03

     total cpu time spent up to now is      630.2 secs

     total energy              =    -414.79262191 Ry
     estimated scf accuracy    <       0.00000006 Ry

     total magnetization       =     2.00 Bohr mag/cell
     absolute magnetization    =     2.02 Bohr mag/cell

     iteration # 23     ecut=    60.00 Ry     beta= 0.30
     Davidson diagonalization with overlap
     ethr =  2.26E-10,  avg # of iterations =  9.0

     negative rho (up, down):  6.015E-04 1.063E-03

     total cpu time spent up to now is      635.5 secs

     total energy              =    -414.79262388 Ry
     estimated scf accuracy    <       0.00000001 Ry

     total magnetization       =     2.00 Bohr mag/cell
     absolute magnetization    =     2.02 Bohr mag/cell

     iteration # 24     ecut=    60.00 Ry     beta= 0.30
     Davidson diagonalization with overlap
     ethr =  4.41E-11,  avg # of iterations =  6.5

     negative rho (up, down):  6.053E-04 1.057E-03
 
     Magnetic moment per site  (integrated on atomic sphere of radius R)
     atom   1 (R=0.040)  charge= 13.9539  magn=  0.5463
     atom   2 (R=0.040)  charge=  0.7199  magn=  0.0291
     atom   3 (R=0.040)  charge=  0.7199  magn=  0.0291
     atom   4 (R=0.040)  charge=  0.7199  magn=  0.0291
     atom   5 (R=0.040)  charge=  0.7199  magn=  0.0291
     atom   6 (R=0.056)  charge=  0.2306  magn=  0.0544
     atom   7 (R=0.056)  charge=  0.2306  magn=  0.0545

     total cpu time spent up to now is      640.8 secs

     End of self-consistent calculation

 ------ SPIN UP ------------


          k = 0.0000 0.0000 0.0000 (108616 PWs)   bands (ev):

  -107.3247 -67.9715 -67.5688 -67.5685  -9.2798  -7.7180  -7.4861  -7.4859
    -5.7361  -5.4322  -5.3211  -4.3695  -4.3125  -4.3124  -3.4841  -1.5084
    -1.5081

 ------ SPIN DOWN ----------


          k = 0.0000 0.0000 0.0000 (108616 PWs)   bands (ev):

  -106.4985 -66.9065 -66.9000 -66.8998  -9.0587  -7.4724  -6.9650  -6.9649
    -5.2456  -4.9409  -4.8303  -3.6559  -3.6559  -3.6132  -2.7606  -1.0381
    -1.0374

     the Fermi energy is    -3.6646 ev

!    total energy              =    -414.79262406 Ry
     estimated scf accuracy    <          5.0E-09 Ry
     smearing contrib. (-TS)   =      -0.00357343 Ry
     internal energy E=F+TS    =    -414.78905063 Ry

     The total energy is F=E-TS. E is the sum of the following terms:
     one-electron contribution =    -665.25797781 Ry
     hartree contribution      =     330.86987783 Ry
     xc contribution           =     -40.99966632 Ry
     ewald contribution        =      23.16521044 Ry
     DFT-D3 Dispersion         =      -0.01116419 Ry
     one-center paw contrib.   =     -62.55533058 Ry

     total magnetization       =     2.00 Bohr mag/cell
     absolute magnetization    =     2.02 Bohr mag/cell

     convergence has been achieved in  24 iterations

     negative rho (up, down):  6.053E-04 1.057E-03

     Forces acting on atoms (cartesian axes, Ry/au):

     atom    1 type  1   force =     0.00000000    0.00000000    0.00000000
     atom    2 type  3   force =     0.00460603    0.00360782    0.00360782
     atom    3 type  3   force =     0.00460603   -0.00360782   -0.00360782
     atom    4 type  3   force =    -0.00460603    0.00360782   -0.00360782
     atom    5 type  3   force =    -0.00460603   -0.00360782    0.00360782
     atom    6 type  2   force =    -0.05366630    0.00000000    0.00000000
     atom    7 type  2   force =     0.05366630    0.00000000    0.00000000

     Total force =     0.077131     Total SCF correction =     0.000070
     Energy error            =      2.4E-03 Ry
     Gradient error          =      5.4E-02 Ry/Bohr

     number of scf cycles    =   4
     number of bfgs steps    =   3

     energy             old  =    -414.7902154392 Ry
     energy             new  =    -414.7926240589 Ry

     CASE: energy            _new < energy            _old

     new trust radius        =       0.0489163646 bohr
     new conv_thr            =       0.0000000100 Ry


ATOMIC_POSITIONS (angstrom)
Ni               8.0000000000        8.0000000000        8.0000000000
H                8.9550290900        8.9138098703        8.9138098703
H                8.9550290900        7.0861901297        7.0861901297
H                7.0449709100        8.9138098703        7.0861901297
H                7.0449709100        7.0861901297        8.9138098703
Mg              10.6526639122        8.0000000000        8.0000000000
Mg               5.3473360878        8.0000000000        8.0000000000



     Writing config-only to output data dir ./outdir/mg2nih4_unit.save/ :
     XML data file
     NEW-OLD atomic charge density approx. for the potential

     negative rho (up, down):  7.105E-04 9.116E-04
     Generating pointlists ...
     new r_m :   0.0550 (alat units)  1.6631 (a.u.) for type    2

     total cpu time spent up to now is      654.8 secs

     Self-consistent Calculation

     iteration #  1     ecut=    60.00 Ry     beta= 0.30
     Davidson diagonalization with overlap
     ethr =  1.00E-06,  avg # of iterations =  5.0

     negative rho (up, down):  1.218E-03 1.526E-03

     total cpu time spent up to now is      659.9 secs

     total energy              =    -414.79532649 Ry
     estimated scf accuracy    <       0.00195914 Ry

     total magnetization       =     2.00 Bohr mag/cell
     absolute magnetization    =     2.02 Bohr mag/cell

     iteration #  2     ecut=    60.00 Ry     beta= 0.30
     Davidson diagonalization with overlap
     ethr =  7.54E-06,  avg # of iterations =  3.0

     negative rho (up, down):  1.002E-03 1.509E-03

     total cpu time spent up to now is      664.8 secs

     total energy              =    -414.79165027 Ry
     estimated scf accuracy    <       0.17393792 Ry

     total magnetization       =     2.02 Bohr mag/cell
     absolute magnetization    =     2.05 Bohr mag/cell

     iteration #  3     ecut=    60.00 Ry     beta= 0.30
     Davidson diagonalization with overlap
     ethr =  7.54E-06,  avg # of iterations =  2.5

     negative rho (up, down):  8.215E-04 1.310E-03

     total cpu time spent up to now is      669.5 secs

     total energy              =    -414.79593703 Ry
     estimated scf accuracy    <       0.00076002 Ry

     total magnetization       =     2.00 Bohr mag/cell
     absolute magnetization    =     2.02 Bohr mag/cell

     iteration #  4     ecut=    60.00 Ry     beta= 0.30
     Davidson diagonalization with overlap
     ethr =  2.92E-06,  avg # of iterations =  1.5

     negative rho (up, down):  7.259E-04 1.200E-03

     total cpu time spent up to now is      674.0 secs

     total energy              =    -414.79595154 Ry
     estimated scf accuracy    <       0.00177926 Ry

     total magnetization       =     2.00 Bohr mag/cell
     absolute magnetization    =     2.02 Bohr mag/cell

     iteration #  5     ecut=    60.00 Ry     beta= 0.30
     Davidson diagonalization with overlap
     ethr =  2.92E-06,  avg # of iterations =  1.0

     negative rho (up, down):  6.727E-04 1.130E-03

     total cpu time spent up to now is      678.4 secs

     total energy              =    -414.79595669 Ry
     estimated scf accuracy    <       0.00082253 Ry

     total magnetization       =     2.00 Bohr mag/cell
     absolute magnetization    =     2.03 Bohr mag/cell

     iteration #  6     ecut=    60.00 Ry     beta= 0.30
     Davidson diagonalization with overlap
     ethr =  2.92E-06,  avg # of iterations =  1.0

     negative rho (up, down):  6.463E-04 1.099E-03

     total cpu time spent up to now is      682.8 secs

     total energy              =    -414.79597994 Ry
     estimated scf accuracy    <       0.00016959 Ry

     total magnetization       =     2.00 Bohr mag/cell
     absolute magnetization    =     2.03 Bohr mag/cell

     iteration #  7     ecut=    60.00 Ry     beta= 0.30
     Davidson diagonalization with overlap
     ethr =  6.52E-07,  avg # of iterations =  1.5

     negative rho (up, down):  6.303E-04 1.074E-03

     total cpu time spent up to now is      687.3 secs

     total energy              =    -414.79599187 Ry
     estimated scf accuracy    <       0.00005289 Ry

     total magnetization       =     2.01 Bohr mag/cell
     absolute magnetization    =     2.03 Bohr mag/cell

     iteration #  8     ecut=    60.00 Ry     beta= 0.30
     Davidson diagonalization with overlap
     ethr =  2.03E-07,  avg # of iterations =  1.0

     negative rho (up, down):  6.241E-04 1.069E-03

     total cpu time spent up to now is      691.7 secs

     total energy              =    -414.79600740 Ry
     estimated scf accuracy    <       0.00004815 Ry

     total magnetization       =     2.01 Bohr mag/cell
     absolute magnetization    =     2.03 Bohr mag/cell

     iteration #  9     ecut=    60.00 Ry     beta= 0.30
     Davidson diagonalization with overlap
     ethr =  1.85E-07,  avg # of iterations =  2.5

     negative rho (up, down):  6.223E-04 1.071E-03

     total cpu time spent up to now is      696.4 secs

     total energy              =    -414.79601878 Ry
     estimated scf accuracy    <       0.00005548 Ry

     total magnetization       =     2.01 Bohr mag/cell
     absolute magnetization    =     2.04 Bohr mag/cell

     iteration # 10     ecut=    60.00 Ry     beta= 0.30
     Davidson diagonalization with overlap
     ethr =  1.85E-07,  avg # of iterations =  3.5

     negative rho (up, down):  6.237E-04 1.073E-03

     total cpu time spent up to now is      701.1 secs

     total energy              =    -414.79605936 Ry
     estimated scf accuracy    <       0.00001068 Ry

     total magnetization       =     2.02 Bohr mag/cell
     absolute magnetization    =     2.06 Bohr mag/cell

     iteration # 11     ecut=    60.00 Ry     beta= 0.30
     Davidson diagonalization with overlap
     ethr =  4.11E-08,  avg # of iterations =  4.0

     negative rho (up, down):  6.259E-04 1.064E-03

     total cpu time spent up to now is      706.1 secs

     total energy              =    -414.79608352 Ry
     estimated scf accuracy    <       0.00001893 Ry

     total magnetization       =     2.04 Bohr mag/cell
     absolute magnetization    =     2.07 Bohr mag/cell

     iteration # 12     ecut=    60.00 Ry     beta= 0.30
     Davidson diagonalization with overlap
     ethr =  4.11E-08,  avg # of iterations =  1.0

     negative rho (up, down):  6.276E-04 1.061E-03

     total cpu time spent up to now is      710.5 secs

     total energy              =    -414.79608051 Ry
     estimated scf accuracy    <       0.00000650 Ry

     total magnetization       =     2.04 Bohr mag/cell
     absolute magnetization    =     2.07 Bohr mag/cell

     iteration # 13     ecut=    60.00 Ry     beta= 0.30
     Davidson diagonalization with overlap
     ethr =  2.50E-08,  avg # of iterations =  3.5

     negative rho (up, down):  6.300E-04 1.055E-03

     total cpu time spent up to now is      715.2 secs

     total energy              =    -414.79608584 Ry
     estimated scf accuracy    <       0.00000228 Ry

     total magnetization       =     2.04 Bohr mag/cell
     absolute magnetization    =     2.08 Bohr mag/cell

     iteration # 14     ecut=    60.00 Ry     beta= 0.30
     Davidson diagonalization with overlap
     ethr =  8.76E-09,  avg # of iterations =  1.5

     negative rho (up, down):  6.317E-04 1.048E-03

     total cpu time spent up to now is      719.8 secs

     total energy              =    -414.79608553 Ry
     estimated scf accuracy    <       0.00000120 Ry

     total magnetization       =     2.04 Bohr mag/cell
     absolute magnetization    =     2.08 Bohr mag/cell

     iteration # 15     ecut=    60.00 Ry     beta= 0.30
     Davidson diagonalization with overlap
     ethr =  4.63E-09,  avg # of iterations =  4.5

     negative rho (up, down):  6.332E-04 1.049E-03

     total cpu time spent up to now is      724.7 secs

     total energy              =    -414.79608485 Ry
     estimated scf accuracy    <       0.00000223 Ry

     total magnetization       =     2.04 Bohr mag/cell
     absolute magnetization    =     2.08 Bohr mag/cell

     iteration # 16     ecut=    60.00 Ry     beta= 0.30
     Davidson diagonalization with overlap
     ethr =  4.63E-09,  avg # of iterations =  3.5

     negative rho (up, down):  6.346E-04 1.045E-03

     total cpu time spent up to now is      729.6 secs

     total energy              =    -414.79608606 Ry
     estimated scf accuracy    <       0.00000134 Ry

     total magnetization       =     2.05 Bohr mag/cell
     absolute magnetization    =     2.08 Bohr mag/cell

     iteration # 17     ecut=    60.00 Ry     beta= 0.30
     Davidson diagonalization with overlap
     ethr =  4.63E-09,  avg # of iterations =  2.0

     negative rho (up, down):  6.354E-04 1.044E-03

     total cpu time spent up to now is      734.1 secs

     total energy              =    -414.79608634 Ry
     estimated scf accuracy    <       0.00000004 Ry

     total magnetization       =     2.04 Bohr mag/cell
     absolute magnetization    =     2.08 Bohr mag/cell

     iteration # 18     ecut=    60.00 Ry     beta= 0.30
     Davidson diagonalization with overlap
     ethr =  1.38E-10,  avg # of iterations =  5.0

     negative rho (up, down):  6.361E-04 1.043E-03

     total cpu time spent up to now is      739.1 secs

     total energy              =    -414.79608638 Ry
     estimated scf accuracy    <       0.00000001 Ry

     total magnetization       =     2.04 Bohr mag/cell
     absolute magnetization    =     2.08 Bohr mag/cell

     iteration # 19     ecut=    60.00 Ry     beta= 0.30
     Davidson diagonalization with overlap
     ethr =  5.51E-11,  avg # of iterations =  2.0

     negative rho (up, down):  6.366E-04 1.042E-03

     total cpu time spent up to now is      743.7 secs

     total energy              =    -414.79608634 Ry
     estimated scf accuracy    <       0.00000004 Ry

     total magnetization       =     2.04 Bohr mag/cell
     absolute magnetization    =     2.08 Bohr mag/cell

     iteration # 20     ecut=    60.00 Ry     beta= 0.30
     Davidson diagonalization with overlap
     ethr =  5.51E-11,  avg # of iterations =  2.5

     negative rho (up, down):  6.377E-04 1.040E-03
 
     Magnetic moment per site  (integrated on atomic sphere of radius R)
     atom   1 (R=0.040)  charge= 13.9584  magn=  0.4817
     atom   2 (R=0.040)  charge=  0.7140  magn=  0.0259
     atom   3 (R=0.040)  charge=  0.7140  magn=  0.0259
     atom   4 (R=0.040)  charge=  0.7140  magn=  0.0259
     atom   5 (R=0.040)  charge=  0.7140  magn=  0.0259
     atom   6 (R=0.055)  charge=  0.2134  magn=  0.0611
     atom   7 (R=0.055)  charge=  0.2134  magn=  0.0611

     total cpu time spent up to now is      748.5 secs

     End of self-consistent calculation

 ------ SPIN UP ------------


          k = 0.0000 0.0000 0.0000 (108616 PWs)   bands (ev):

  -107.0956 -67.7304 -67.3509 -67.3508  -9.1741  -7.6235  -7.3069  -7.3068
    -5.5308  -5.3217  -5.1334  -4.4233  -4.2054  -4.2054  -3.5115  -1.5341
    -1.5341

 ------ SPIN DOWN ----------


          k = 0.0000 0.0000 0.0000 (108616 PWs)   bands (ev):

  -106.3691 -66.7819 -66.7819 -66.7550  -8.9793  -7.4069  -6.8503  -6.8503
    -5.0897  -4.8557  -4.7009  -3.6068  -3.6068  -3.4963  -2.6670  -0.9778
    -0.9778

     the Fermi energy is    -3.6087 ev

!    total energy              =    -414.79608634 Ry
     estimated scf accuracy    <          4.5E-09 Ry
     smearing contrib. (-TS)   =      -0.00309394 Ry
     internal energy E=F+TS    =    -414.79299240 Ry

     The total energy is F=E-TS. E is the sum of the following terms:
     one-electron contribution =    -664.52765520 Ry
     hartree contribution      =     330.63453094 Ry
     xc contribution           =     -41.00694292 Ry
     ewald contribution        =      22.67206956 Ry
     DFT-D3 Dispersion         =      -0.01080407 Ry
     one-center paw contrib.   =     -62.55419070 Ry

     total magnetization       =     2.04 Bohr mag/cell
     absolute magnetization    =     2.08 Bohr mag/cell

     convergence has been achieved in  20 iterations

     negative rho (up, down):  6.377E-04 1.040E-03

     Forces acting on atoms (cartesian axes, Ry/au):

     atom    1 type  1   force =     0.00000000    0.00000000    0.00000000
     atom    2 type  3   force =     0.00279577    0.00101204    0.00101204
     atom    3 type  3   force =     0.00279577   -0.00101204   -0.00101204
     atom    4 type  3   force =    -0.00279577    0.00101204   -0.00101204
     atom    5 type  3   force =    -0.00279577   -0.00101204    0.00101204
     atom    6 type  2   force =    -0.05896866    0.00000000    0.00000000
     atom    7 type  2   force =     0.05896866    0.00000000    0.00000000

     Total force =     0.083631     Total SCF correction =     0.000024
     Energy error            =      3.5E-03 Ry
     Gradient error          =      5.9E-02 Ry/Bohr

     number of scf cycles    =   5
     number of bfgs steps    =   4

     energy             old  =    -414.7926240589 Ry
     energy             new  =    -414.7960863399 Ry

     CASE: energy            _new < energy            _old

     new trust radius        =       0.0733745469 bohr
     new conv_thr            =       0.0000000100 Ry


ATOMIC_POSITIONS (angstrom)
Ni               8.0000000000        8.0000000000        8.0000000000
H                8.9925852017        8.9207799055        8.9207799055
H                8.9925852017        7.0792200945        7.0792200945
H                7.0074147983        8.9207799055        7.0792200945
H                7.0074147983        7.0792200945        8.9207799055
Mg              10.6339942515        8.0000000000        8.0000000000
Mg               5.3660057485        8.0000000000        8.0000000000



     Writing config-only to output data dir ./outdir/mg2nih4_unit.save/ :
     XML data file
     NEW-OLD atomic charge density approx. for the potential

     negative rho (up, down):  7.172E-04 9.142E-04
     Generating pointlists ...
     new r_m :   0.0540 (alat units)  1.6332 (a.u.) for type    2

     total cpu time spent up to now is      762.4 secs

     Self-consistent Calculation

     iteration #  1     ecut=    60.00 Ry     beta= 0.30
     Davidson diagonalization with overlap
     ethr =  1.00E-06,  avg # of iterations =  6.0

     negative rho (up, down):  7.622E-04 1.072E-03

     total cpu time spent up to now is      767.8 secs

     total energy              =    -414.80042735 Ry
     estimated scf accuracy    <       0.00097910 Ry

     total magnetization       =     2.03 Bohr mag/cell
     absolute magnetization    =     2.07 Bohr mag/cell

     iteration #  2     ecut=    60.00 Ry     beta= 0.30
     Davidson diagonalization with overlap
     ethr =  3.77E-06,  avg # of iterations =  1.5

     negative rho (up, down):  7.139E-04 1.056E-03

     total cpu time spent up to now is      772.2 secs

     total energy              =    -414.80032288 Ry
     estimated scf accuracy    <       0.00097746 Ry

     total magnetization       =     2.07 Bohr mag/cell
     absolute magnetization    =     2.10 Bohr mag/cell

     iteration #  3     ecut=    60.00 Ry     beta= 0.30
     Davidson diagonalization with overlap
     ethr =  3.76E-06,  avg # of iterations =  1.0

     negative rho (up, down):  6.665E-04 1.058E-03

     total cpu time spent up to now is      776.5 secs

     total energy              =    -414.80037455 Ry
     estimated scf accuracy    <       0.00097630 Ry

     total magnetization       =     2.01 Bohr mag/cell
     absolute magnetization    =     2.05 Bohr mag/cell

     iteration #  4     ecut=    60.00 Ry     beta= 0.30
     Davidson diagonalization with overlap
     ethr =  3.76E-06,  avg # of iterations =  1.0

     negative rho (up, down):  6.463E-04 1.063E-03

     total cpu time spent up to now is      780.9 secs

     total energy              =    -414.80042795 Ry
     estimated scf accuracy    <       0.00003390 Ry

     total magnetization       =     2.03 Bohr mag/cell
     absolute magnetization    =     2.07 Bohr mag/cell

     iteration #  5     ecut=    60.00 Ry     beta= 0.30
     Davidson diagonalization with overlap
     ethr =  1.30E-07,  avg # of iterations =  2.0

     negative rho (up, down):  6.364E-04 1.063E-03

     total cpu time spent up to now is      785.5 secs

     total energy              =    -414.80043595 Ry
     estimated scf accuracy    <       0.00002808 Ry

     total magnetization       =     2.05 Bohr mag/cell
     absolute magnetization    =     2.08 Bohr mag/cell

     iteration #  6     ecut=    60.00 Ry     beta= 0.30
     Davidson diagonalization with overlap
     ethr =  1.08E-07,  avg # of iterations =  1.0

     negative rho (up, down):  6.299E-04 1.066E-03

     total cpu time spent up to now is      790.0 secs

     total energy              =    -414.80043813 Ry
     estimated scf accuracy    <       0.00000162 Ry

     total magnetization       =     2.04 Bohr mag/cell
     absolute magnetization    =     2.08 Bohr mag/cell

     iteration #  7     ecut=    60.00 Ry     beta= 0.30
     Davidson diagonalization with overlap
     ethr =  6.22E-09,  avg # of iterations =  4.5

     negative rho (up, down):  6.265E-04 1.067E-03

     total cpu time spent up to now is      794.7 secs

     total energy              =    -414.80043877 Ry
     estimated scf accuracy    <       0.00000025 Ry

     total magnetization       =     2.04 Bohr mag/cell
     absolute magnetization    =     2.08 Bohr mag/cell

     iteration #  8     ecut=    60.00 Ry     beta= 0.30
     Davidson diagonalization with overlap
     ethr =  9.67E-10,  avg # of iterations =  4.0

     negative rho (up, down):  6.248E-04 1.067E-03

     total cpu time spent up to now is      799.6 secs

     total energy              =    -414.80043895 Ry
     estimated scf accuracy    <       0.00000009 Ry

     total magnetization       =     2.04 Bohr mag/cell
     absolute magnetization    =     2.08 Bohr mag/cell

     iteration #  9     ecut=    60.00 Ry     beta= 0.30
     Davidson diagonalization with overlap
     ethr =  3.46E-10,  avg # of iterations =  2.0

     negative rho (up, down):  6.238E-04 1.068E-03

     total cpu time spent up to now is      804.2 secs

     total energy              =    -414.80043902 Ry
     estimated scf accuracy    <       0.00000006 Ry

     total magnetization       =     2.04 Bohr mag/cell
     absolute magnetization    =     2.08 Bohr mag/cell

     iteration # 10     ecut=    60.00 Ry     beta= 0.30
     Davidson diagonalization with overlap
     ethr =  2.42E-10,  avg # of iterations =  2.0

     negative rho (up, down):  6.227E-04 1.070E-03
 
     Magnetic moment per site  (integrated on atomic sphere of radius R)
     atom   1 (R=0.040)  charge= 13.9625  magn=  0.4877
     atom   2 (R=0.040)  charge=  0.7069  magn=  0.0244
     atom   3 (R=0.040)  charge=  0.7069  magn=  0.0244
     atom   4 (R=0.040)  charge=  0.7069  magn=  0.0245
     atom   5 (R=0.040)  charge=  0.7069  magn=  0.0245
     atom   6 (R=0.054)  charge=  0.2003  magn=  0.0573
     atom   7 (R=0.054)  charge=  0.2003  magn=  0.0573

     total cpu time spent up to now is      808.7 secs

     End of self-consistent calculation

 ------ SPIN UP ------------


          k = 0.0000 0.0000 0.0000 (108616 PWs)   bands (ev):

  -107.0238 -67.6820 -67.2696 -67.2695  -9.1493  -7.6198  -7.2412  -7.2412
    -5.4545  -5.2511  -5.0565  -4.3857  -4.2293  -4.2293  -3.5194  -1.5319
    -1.5319

 ------ SPIN DOWN ----------


          k = 0.0000 0.0000 0.0000 (108616 PWs)   bands (ev):

  -106.2883 -66.6952 -66.6952 -66.6913  -8.9611  -7.4090  -6.7943  -6.7943
    -5.0175  -4.7912  -4.6204  -3.6167  -3.6167  -3.4366  -2.6478  -0.9740
    -0.9740

     the Fermi energy is    -3.6180 ev

!    total energy              =    -414.80043906 Ry
     estimated scf accuracy    <          3.9E-09 Ry
     smearing contrib. (-TS)   =      -0.00299379 Ry
     internal energy E=F+TS    =    -414.79744527 Ry

     The total energy is F=E-TS. E is the sum of the following terms:
     one-electron contribution =    -663.31427544 Ry
     hartree contribution      =     330.07905447 Ry
     xc contribution           =     -41.01114619 Ry
     ewald contribution        =      22.01574332 Ry
     DFT-D3 Dispersion         =      -0.01052130 Ry
     one-center paw contrib.   =     -62.55630012 Ry

     total magnetization       =     2.04 Bohr mag/cell
     absolute magnetization    =     2.08 Bohr mag/cell

     convergence has been achieved in  10 iterations

     negative rho (up, down):  6.227E-04 1.070E-03

     Forces acting on atoms (cartesian axes, Ry/au):

     atom    1 type  1   force =     0.00000000    0.00000000    0.00000000
     atom    2 type  3   force =    -0.00043184   -0.00353699   -0.00353699
     atom    3 type  3   force =    -0.00043184    0.00353699    0.00353699
     atom    4 type  3   force =     0.00043184   -0.00353699    0.00353699
     atom    5 type  3   force =     0.00043184    0.00353699   -0.00353699
     atom    6 type  2   force =    -0.05786095    0.00000000    0.00000000
     atom    7 type  2   force =     0.05786095    0.00000000    0.00000000

     Total force =     0.082442     Total SCF correction =     0.000025
     Energy error            =      4.4E-03 Ry
     Gradient error          =      5.8E-02 Ry/Bohr

     number of scf cycles    =   6
     number of bfgs steps    =   5

     energy             old  =    -414.7960863399 Ry
     energy             new  =    -414.8004390621 Ry

     CASE: energy            _new < energy            _old

     new trust radius        =       0.1100618204 bohr
     new conv_thr            =       0.0000000100 Ry


ATOMIC_POSITIONS (angstrom)
Ni               8.0000000000        8.0000000000        8.0000000000
H                9.0499910875        8.9277340039        8.9277340039
H                9.0499910875        7.0722659961        7.0722659961
H                6.9500089125        8.9277340039        7.0722659961
H                6.9500089125        7.0722659961        8.9277340039
Mg              10.6044267453        8.0000000000        8.0000000000
Mg               5.3955732547        8.0000000000        8.0000000000



     Writing config-only to output data dir ./outdir/mg2nih4_unit.save/ :
     XML data file
     NEW-OLD atomic charge density approx. for the potential

     negative rho (up, down):  7.106E-04 9.353E-04
     Generating pointlists ...
     new r_m :   0.0524 (alat units)  1.5856 (a.u.) for type    2

     total cpu time spent up to now is      822.6 secs

     Self-consistent Calculation

     iteration #  1     ecut=    60.00 Ry     beta= 0.30
     Davidson diagonalization with overlap
     ethr =  1.00E-06,  avg # of iterations =  6.0

     negative rho (up, down):  7.102E-04 1.081E-03

     total cpu time spent up to now is      827.9 secs

     total energy              =    -414.80464387 Ry
     estimated scf accuracy    <       0.00237130 Ry

     total magnetization       =     2.01 Bohr mag/cell
     absolute magnetization    =     2.05 Bohr mag/cell

     iteration #  2     ecut=    60.00 Ry     beta= 0.30
     Davidson diagonalization with overlap
     ethr =  9.12E-06,  avg # of iterations =  2.0

     negative rho (up, down):  6.749E-04 1.079E-03

     total cpu time spent up to now is      832.5 secs

     total energy              =    -414.80439571 Ry
     estimated scf accuracy    <       0.00262718 Ry

     total magnetization       =     2.05 Bohr mag/cell
     absolute magnetization    =     2.08 Bohr mag/cell

     iteration #  3     ecut=    60.00 Ry     beta= 0.30
     Davidson diagonalization with overlap
     ethr =  9.12E-06,  avg # of iterations =  1.0

     negative rho (up, down):  6.299E-04 1.087E-03

     total cpu time spent up to now is      836.9 secs

     total energy              =    -414.80456419 Ry
     estimated scf accuracy    <       0.00165169 Ry

     total magnetization       =     2.00 Bohr mag/cell
     absolute magnetization    =     2.04 Bohr mag/cell

     iteration #  4     ecut=    60.00 Ry     beta= 0.30
     Davidson diagonalization with overlap
     ethr =  6.35E-06,  avg # of iterations =  1.0

     negative rho (up, down):  6.120E-04 1.094E-03

     total cpu time spent up to now is      841.3 secs

     total energy              =    -414.80465149 Ry
     estimated scf accuracy    <       0.00009695 Ry

     total magnetization       =     2.01 Bohr mag/cell
     absolute magnetization    =     2.04 Bohr mag/cell

     iteration #  5     ecut=    60.00 Ry     beta= 0.30
     Davidson diagonalization with overlap
     ethr =  3.73E-07,  avg # of iterations =  2.0

     negative rho (up, down):  6.051E-04 1.097E-03

     total cpu time spent up to now is      845.9 secs

     total energy              =    -414.80466912 Ry
     estimated scf accuracy    <       0.00005322 Ry

     total magnetization       =     2.02 Bohr mag/cell
     absolute magnetization    =     2.05 Bohr mag/cell

     iteration #  6     ecut=    60.00 Ry     beta= 0.30
     Davidson diagonalization with overlap
     ethr =  2.05E-07,  avg # of iterations =  1.0

     negative rho (up, down):  5.993E-04 1.102E-03

     total cpu time spent up to now is      850.3 secs

     total energy              =    -414.80467377 Ry
     estimated scf accuracy    <       0.00000196 Ry

     total magnetization       =     2.01 Bohr mag/cell
     absolute magnetization    =     2.05 Bohr mag/cell

     iteration #  7     ecut=    60.00 Ry     beta= 0.30
     Davidson diagonalization with overlap
     ethr =  7.55E-09,  avg # of iterations =  5.5

     negative rho (up, down):  5.971E-04 1.103E-03

     total cpu time spent up to now is      855.3 secs

     total energy              =    -414.80467480 Ry
     estimated scf accuracy    <       0.00000023 Ry

     total magnetization       =     2.01 Bohr mag/cell
     absolute magnetization    =     2.05 Bohr mag/cell

     iteration #  8     ecut=    60.00 Ry     beta= 0.30
     Davidson diagonalization with overlap
     ethr =  9.01E-10,  avg # of iterations =  2.0

     negative rho (up, down):  5.960E-04 1.104E-03

     total cpu time spent up to now is      859.9 secs

     total energy              =    -414.80467489 Ry
     estimated scf accuracy    <       0.00000010 Ry

     total magnetization       =     2.01 Bohr mag/cell
     absolute magnetization    =     2.05 Bohr mag/cell

     iteration #  9     ecut=    60.00 Ry     beta= 0.30
     Davidson diagonalization with overlap
     ethr =  3.94E-10,  avg # of iterations =  3.5

     negative rho (up, down):  5.954E-04 1.105E-03

     total cpu time spent up to now is      864.7 secs

     total energy              =    -414.80467495 Ry
     estimated scf accuracy    <       0.00000003 Ry

     total magnetization       =     2.01 Bohr mag/cell
     absolute magnetization    =     2.05 Bohr mag/cell

     iteration # 10     ecut=    60.00 Ry     beta= 0.30
     Davidson diagonalization with overlap
     ethr =  1.01E-10,  avg # of iterations =  3.5

     negative rho (up, down):  5.947E-04 1.109E-03
 
     Magnetic moment per site  (integrated on atomic sphere of radius R)
     atom   1 (R=0.040)  charge= 13.9700  magn=  0.4989
     atom   2 (R=0.040)  charge=  0.7005  magn=  0.0221
     atom   3 (R=0.040)  charge=  0.7005  magn=  0.0221
     atom   4 (R=0.040)  charge=  0.7005  magn=  0.0221
     atom   5 (R=0.040)  charge=  0.7005  magn=  0.0221
     atom   6 (R=0.052)  charge=  0.1814  magn=  0.0501
     atom   7 (R=0.052)  charge=  0.1814  magn=  0.0501

     total cpu time spent up to now is      869.7 secs

     End of self-consistent calculation

 ------ SPIN UP ------------


          k = 0.0000 0.0000 0.0000 (108616 PWs)   bands (ev):

  -106.9288 -67.6248 -67.1603 -67.1603  -9.1363  -7.6485  -7.1683  -7.1682
    -5.3578  -5.1421  -4.9556  -4.3130  -4.2706  -4.2706  -3.5137  -1.5226
    -1.5226

 ------ SPIN DOWN ----------


          k = 0.0000 0.0000 0.0000 (108616 PWs)   bands (ev):

  -106.1764 -66.6095 -66.5734 -66.5734  -8.9570  -7.4465  -6.7370  -6.7370
    -4.9249  -4.6929  -4.5116  -3.6335  -3.6335  -3.3527  -2.6179  -0.9764
    -0.9764

     the Fermi energy is    -3.6339 ev

!    total energy              =    -414.80467500 Ry
     estimated scf accuracy    <          2.3E-09 Ry
     smearing contrib. (-TS)   =      -0.00288315 Ry
     internal energy E=F+TS    =    -414.80179185 Ry

     The total energy is F=E-TS. E is the sum of the following terms:
     one-electron contribution =    -661.80004072 Ry
     hartree contribution      =     329.39224123 Ry
     xc contribution           =     -41.02673909 Ry
     ewald contribution        =      21.20411484 Ry
     DFT-D3 Dispersion         =      -0.01039258 Ry
     one-center paw contrib.   =     -62.56097553 Ry

     total magnetization       =     2.01 Bohr mag/cell
     absolute magnetization    =     2.05 Bohr mag/cell

     convergence has been achieved in  10 iterations

     negative rho (up, down):  5.947E-04 1.109E-03

     Forces acting on atoms (cartesian axes, Ry/au):

     atom    1 type  1   force =     0.00000000    0.00000000    0.00000000
     atom    2 type  3   force =    -0.00581296   -0.00770224   -0.00770224
     atom    3 type  3   force =    -0.00581296    0.00770224    0.00770224
     atom    4 type  3   force =     0.00581296   -0.00770224    0.00770224
     atom    5 type  3   force =     0.00581296    0.00770224   -0.00770224
     atom    6 type  2   force =    -0.05192436    0.00000000    0.00000000
     atom    7 type  2   force =     0.05192436    0.00000000    0.00000000

     Total force =     0.077473     Total SCF correction =     0.000055
     Energy error            =      4.2E-03 Ry
     Gradient error          =      5.2E-02 Ry/Bohr

     number of scf cycles    =   7
     number of bfgs steps    =   6

     energy             old  =    -414.8004390621 Ry
     energy             new  =    -414.8046749987 Ry

     CASE: energy            _new < energy            _old

     new trust radius        =       0.0860774976 bohr
     new conv_thr            =       0.0000000100 Ry


ATOMIC_POSITIONS (angstrom)
Ni               8.0000000000        8.0000000000        8.0000000000
H                9.0955237217        8.9286296903        8.9286296903
H                9.0955237217        7.0713703097        7.0713703097
H                6.9044762783        8.9286296903        7.0713703097
H                6.9044762783        7.0713703097        8.9286296903
Mg              10.5793831613        8.0000000000        8.0000000000
Mg               5.4206168387        8.0000000000        8.0000000000



     Writing config-only to output data dir ./outdir/mg2nih4_unit.save/ :
     XML data file
     NEW-OLD atomic charge density approx. for the potential

     negative rho (up, down):  6.977E-04 9.809E-04
     Generating pointlists ...
     new r_m :   0.0511 (alat units)  1.5446 (a.u.) for type    2

     total cpu time spent up to now is      883.6 secs

     Self-consistent Calculation

     iteration #  1     ecut=    60.00 Ry     beta= 0.30
     Davidson diagonalization with overlap
     ethr =  1.00E-06,  avg # of iterations =  6.0

     negative rho (up, down):  9.605E-04 1.472E-03

     total cpu time spent up to now is      888.8 secs

     total energy              =    -414.80631856 Ry
     estimated scf accuracy    <       0.00156439 Ry

     total magnetization       =     2.00 Bohr mag/cell
     absolute magnetization    =     2.04 Bohr mag/cell

     iteration #  2     ecut=    60.00 Ry     beta= 0.30
     Davidson diagonalization with overlap
     ethr =  6.02E-06,  avg # of iterations =  2.0

     negative rho (up, down):  8.084E-04 1.333E-03

     total cpu time spent up to now is      893.4 secs

     total energy              =    -414.80617952 Ry
     estimated scf accuracy    <       0.00175840 Ry

     total magnetization       =     2.01 Bohr mag/cell
     absolute magnetization    =     2.05 Bohr mag/cell

     iteration #  3     ecut=    60.00 Ry     beta= 0.30
     Davidson diagonalization with overlap
     ethr =  6.02E-06,  avg # of iterations =  1.0

     negative rho (up, down):  6.917E-04 1.257E-03

     total cpu time spent up to now is      897.8 secs

     total energy              =    -414.80629198 Ry
     estimated scf accuracy    <       0.00083687 Ry

     total magnetization       =     2.00 Bohr mag/cell
     absolute magnetization    =     2.03 Bohr mag/cell

     iteration #  4     ecut=    60.00 Ry     beta= 0.30
     Davidson diagonalization with overlap
     ethr =  3.22E-06,  avg # of iterations =  2.0

     negative rho (up, down):  6.381E-04 1.215E-03

     total cpu time spent up to now is      902.3 secs

     total energy              =    -414.80635380 Ry
     estimated scf accuracy    <       0.00003454 Ry

     total magnetization       =     2.00 Bohr mag/cell
     absolute magnetization    =     2.04 Bohr mag/cell

     iteration #  5     ecut=    60.00 Ry     beta= 0.30
     Davidson diagonalization with overlap
     ethr =  1.33E-07,  avg # of iterations =  2.0

     negative rho (up, down):  6.067E-04 1.184E-03

     total cpu time spent up to now is      907.0 secs

     total energy              =    -414.80636147 Ry
     estimated scf accuracy    <       0.00001196 Ry

     total magnetization       =     2.00 Bohr mag/cell
     absolute magnetization    =     2.04 Bohr mag/cell

     iteration #  6     ecut=    60.00 Ry     beta= 0.30
     Davidson diagonalization with overlap
     ethr =  4.60E-08,  avg # of iterations =  2.0

     negative rho (up, down):  5.889E-04 1.168E-03

     total cpu time spent up to now is      911.4 secs

     total energy              =    -414.80636323 Ry
     estimated scf accuracy    <       0.00000120 Ry

     total magnetization       =     2.00 Bohr mag/cell
     absolute magnetization    =     2.04 Bohr mag/cell

     iteration #  7     ecut=    60.00 Ry     beta= 0.30
     Davidson diagonalization with overlap
     ethr =  4.63E-09,  avg # of iterations =  5.0

     negative rho (up, down):  5.783E-04 1.157E-03

     total cpu time spent up to now is      916.5 secs

     total energy              =    -414.80636419 Ry
     estimated scf accuracy    <       0.00000040 Ry

     total magnetization       =     2.00 Bohr mag/cell
     absolute magnetization    =     2.04 Bohr mag/cell

     iteration #  8     ecut=    60.00 Ry     beta= 0.30
     Davidson diagonalization with overlap
     ethr =  1.53E-09,  avg # of iterations =  2.0

     negative rho (up, down):  5.722E-04 1.150E-03

     total cpu time spent up to now is      921.1 secs

     total energy              =    -414.80636442 Ry
     estimated scf accuracy    <       0.00000016 Ry

     total magnetization       =     2.00 Bohr mag/cell
     absolute magnetization    =     2.04 Bohr mag/cell

     iteration #  9     ecut=    60.00 Ry     beta= 0.30
     Davidson diagonalization with overlap
     ethr =  6.11E-10,  avg # of iterations =  3.5

     negative rho (up, down):  5.687E-04 1.147E-03

     total cpu time spent up to now is      926.0 secs

     total energy              =    -414.80636455 Ry
     estimated scf accuracy    <       0.00000009 Ry

     total magnetization       =     2.00 Bohr mag/cell
     absolute magnetization    =     2.04 Bohr mag/cell

     iteration # 10     ecut=    60.00 Ry     beta= 0.30
     Davidson diagonalization with overlap
     ethr =  3.32E-10,  avg # of iterations =  2.0

     negative rho (up, down):  5.644E-04 1.144E-03
 
     Magnetic moment per site  (integrated on atomic sphere of radius R)
     atom   1 (R=0.040)  charge= 13.9766  magn=  0.5130
     atom   2 (R=0.040)  charge=  0.6996  magn=  0.0205
     atom   3 (R=0.040)  charge=  0.6996  magn=  0.0205
     atom   4 (R=0.040)  charge=  0.6996  magn=  0.0205
     atom   5 (R=0.040)  charge=  0.6996  magn=  0.0205
     atom   6 (R=0.051)  charge=  0.1668  magn=  0.0444
     atom   7 (R=0.051)  charge=  0.1668  magn=  0.0444

     total cpu time spent up to now is      930.4 secs

     End of self-consistent calculation

 ------ SPIN UP ------------


          k = 0.0000 0.0000 0.0000 (108616 PWs)   bands (ev):

  -106.8667 -67.5974 -67.0850 -67.0850  -9.1525  -7.7005  -7.1363  -7.1363
    -5.2992  -5.0597  -4.8868  -4.3064  -4.3064  -4.2482  -3.4990  -1.5133
    -1.5133

 ------ SPIN DOWN ----------


          k = 0.0000 0.0000 0.0000 (108616 PWs)   bands (ev):

  -106.0930 -66.5574 -66.4794 -66.4794  -8.9770  -7.5034  -6.7146  -6.7146
    -4.8640  -4.6103  -4.4316  -3.6442  -3.6442  -3.2801  -2.5811  -0.9773
    -0.9773

     the Fermi energy is    -3.6442 ev

!    total energy              =    -414.80636468 Ry
     estimated scf accuracy    <          6.9E-09 Ry
     smearing contrib. (-TS)   =      -0.00283572 Ry
     internal energy E=F+TS    =    -414.80352897 Ry

     The total energy is F=E-TS. E is the sum of the following terms:
     one-electron contribution =    -660.97210910 Ry
     hartree contribution      =     329.02964023 Ry
     xc contribution           =     -41.05009973 Ry
     ewald contribution        =      20.76555689 Ry
     DFT-D3 Dispersion         =      -0.01037134 Ry
     one-center paw contrib.   =     -62.56614591 Ry

     total magnetization       =     2.00 Bohr mag/cell
     absolute magnetization    =     2.04 Bohr mag/cell

     convergence has been achieved in  10 iterations

     negative rho (up, down):  5.644E-04 1.144E-03

     Forces acting on atoms (cartesian axes, Ry/au):

     atom    1 type  1   force =     0.00000000    0.00000000    0.00000000
     atom    2 type  3   force =    -0.01023824   -0.00863938   -0.00863938
     atom    3 type  3   force =    -0.01023824    0.00863938    0.00863938
     atom    4 type  3   force =     0.01023824   -0.00863938    0.00863938
     atom    5 type  3   force =     0.01023824    0.00863938   -0.00863938
     atom    6 type  2   force =    -0.04396598    0.00000000   -0.00000000
     atom    7 type  2   force =     0.04396598    0.00000000   -0.00000000

     Total force =     0.069874     Total SCF correction =     0.000017
     Energy error            =      1.7E-03 Ry
     Gradient error          =      4.4E-02 Ry/Bohr

     number of scf cycles    =   8
     number of bfgs steps    =   7

     energy             old  =    -414.8046749987 Ry
     energy             new  =    -414.8063646835 Ry

     CASE: energy            _new < energy            _old

     new trust radius        =       0.0236095987 bohr
     new conv_thr            =       0.0000000100 Ry


ATOMIC_POSITIONS (angstrom)
Ni               8.0000000000        8.0000000000        8.0000000000
H                9.1061097610        8.9239378169        8.9239378169
H                9.1061097610        7.0760621831        7.0760621831
H                6.8938902390        8.9239378169        7.0760621831
H                6.8938902390        7.0760621831        8.9239378169
Mg              10.5716352624        8.0000000000        8.0000000000
Mg               5.4283647376        8.0000000000        8.0000000000



     Writing config-only to output data dir ./outdir/mg2nih4_unit.save/ :
     XML data file
     NEW-OLD atomic charge density approx. for the potential

     negative rho (up, down):  6.710E-04 9.303E-04
     Generating pointlists ...

     total cpu time spent up to now is      944.3 secs

     Self-consistent Calculation

     iteration #  1     ecut=    60.00 Ry     beta= 0.30
     Davidson diagonalization with overlap
     ethr =  1.00E-06,  avg # of iterations =  3.0

     negative rho (up, down):  6.649E-04 1.078E-03

     total cpu time spent up to now is      948.9 secs

     total energy              =    -414.80730181 Ry
     estimated scf accuracy    <       0.00014085 Ry

     total magnetization       =     2.00 Bohr mag/cell
     absolute magnetization    =     2.03 Bohr mag/cell

     iteration #  2     ecut=    60.00 Ry     beta= 0.30
     Davidson diagonalization with overlap
     ethr =  5.42E-07,  avg # of iterations =  2.0

     negative rho (up, down):  6.385E-04 1.085E-03

     total cpu time spent up to now is      953.6 secs

     total energy              =    -414.80729041 Ry
     estimated scf accuracy    <       0.00048536 Ry

     total magnetization       =     2.01 Bohr mag/cell
     absolute magnetization    =     2.04 Bohr mag/cell

     iteration #  3     ecut=    60.00 Ry     beta= 0.30
     Davidson diagonalization with overlap
     ethr =  5.42E-07,  avg # of iterations =  2.0

     negative rho (up, down):  5.855E-04 1.129E-03

     total cpu time spent up to now is      958.1 secs

     total energy              =    -414.80731889 Ry
     estimated scf accuracy    <       0.00002745 Ry

     total magnetization       =     2.00 Bohr mag/cell
     absolute magnetization    =     2.04 Bohr mag/cell

     iteration #  4     ecut=    60.00 Ry     beta= 0.30
     Davidson diagonalization with overlap
     ethr =  1.06E-07,  avg # of iterations =  2.0

     negative rho (up, down):  5.754E-04 1.129E-03

     total cpu time spent up to now is      962.9 secs

     total energy              =    -414.80732326 Ry
     estimated scf accuracy    <       0.00001647 Ry

     total magnetization       =     2.00 Bohr mag/cell
     absolute magnetization    =     2.04 Bohr mag/cell

     iteration #  5     ecut=    60.00 Ry     beta= 0.30
     Davidson diagonalization with overlap
     ethr =  6.33E-08,  avg # of iterations =  1.0

     negative rho (up, down):  5.641E-04 1.141E-03

     total cpu time spent up to now is      967.4 secs

     total energy              =    -414.80732345 Ry
     estimated scf accuracy    <       0.00000256 Ry

     total magnetization       =     2.00 Bohr mag/cell
     absolute magnetization    =     2.04 Bohr mag/cell

     iteration #  6     ecut=    60.00 Ry     beta= 0.30
     Davidson diagonalization with overlap
     ethr =  9.84E-09,  avg # of iterations =  2.0

     negative rho (up, down):  5.603E-04 1.145E-03

     total cpu time spent up to now is      972.0 secs

     total energy              =    -414.80732370 Ry
     estimated scf accuracy    <       0.00000030 Ry

     total magnetization       =     2.00 Bohr mag/cell
     absolute magnetization    =     2.04 Bohr mag/cell

     iteration #  7     ecut=    60.00 Ry     beta= 0.30
     Davidson diagonalization with overlap
     ethr =  1.14E-09,  avg # of iterations =  5.0

     negative rho (up, down):  5.587E-04 1.146E-03

     total cpu time spent up to now is      977.1 secs

     total energy              =    -414.80732379 Ry
     estimated scf accuracy    <       0.00000012 Ry

     total magnetization       =     2.00 Bohr mag/cell
     absolute magnetization    =     2.04 Bohr mag/cell

     iteration #  8     ecut=    60.00 Ry     beta= 0.30
     Davidson diagonalization with overlap
     ethr =  4.53E-10,  avg # of iterations =  5.0

     negative rho (up, down):  5.577E-04 1.148E-03

     total cpu time spent up to now is      981.8 secs

     total energy              =    -414.80732383 Ry
     estimated scf accuracy    <       0.00000002 Ry

     total magnetization       =     2.00 Bohr mag/cell
     absolute magnetization    =     2.04 Bohr mag/cell

     iteration #  9     ecut=    60.00 Ry     beta= 0.30
     Davidson diagonalization with overlap
     ethr =  5.88E-11,  avg # of iterations =  3.5

     negative rho (up, down):  5.569E-04 1.150E-03

     total cpu time spent up to now is      986.8 secs

     total energy              =    -414.80732385 Ry
     estimated scf accuracy    <       0.00000002 Ry

     total magnetization       =     2.00 Bohr mag/cell
     absolute magnetization    =     2.04 Bohr mag/cell

     iteration # 10     ecut=    60.00 Ry     beta= 0.30
     Davidson diagonalization with overlap
     ethr =  5.88E-11,  avg # of iterations =  2.0

     negative rho (up, down):  5.564E-04 1.153E-03
 
     Magnetic moment per site  (integrated on atomic sphere of radius R)
     atom   1 (R=0.040)  charge= 13.9781  magn=  0.5146
     atom   2 (R=0.040)  charge=  0.7020  magn=  0.0202
     atom   3 (R=0.040)  charge=  0.7020  magn=  0.0202
     atom   4 (R=0.040)  charge=  0.7020  magn=  0.0202
     atom   5 (R=0.040)  charge=  0.7020  magn=  0.0202
     atom   6 (R=0.051)  charge=  0.1680  magn=  0.0442
     atom   7 (R=0.051)  charge=  0.1680  magn=  0.0442

     total cpu time spent up to now is      991.3 secs

     End of self-consistent calculation

 ------ SPIN UP ------------


          k = 0.0000 0.0000 0.0000 (108616 PWs)   bands (ev):

  -106.8510 -67.5906 -67.0659 -67.0659  -9.1785  -7.7307  -7.1425  -7.1425
    -5.2843  -5.0394  -4.8703  -4.3062  -4.3062  -4.2314  -3.4944  -1.5096
    -1.5096

 ------ SPIN DOWN ----------


          k = 0.0000 0.0000 0.0000 (108616 PWs)   bands (ev):

  -106.0746 -66.5482 -66.4577 -66.4577  -9.0030  -7.5343  -6.7226  -6.7226
    -4.8499  -4.5902  -4.4135  -3.6401  -3.6401  -3.2606  -2.5697  -0.9750
    -0.9750

     the Fermi energy is    -3.6402 ev

!    total energy              =    -414.80732386 Ry
     estimated scf accuracy    <          9.7E-10 Ry
     smearing contrib. (-TS)   =      -0.00283518 Ry
     internal energy E=F+TS    =    -414.80448868 Ry

     The total energy is F=E-TS. E is the sum of the following terms:
     one-electron contribution =    -661.13615954 Ry
     hartree contribution      =     329.12514387 Ry
     xc contribution           =     -41.06299501 Ry
     ewald contribution        =      20.84795856 Ry
     DFT-D3 Dispersion         =      -0.01037924 Ry
     one-center paw contrib.   =     -62.56805732 Ry

     total magnetization       =     2.00 Bohr mag/cell
     absolute magnetization    =     2.04 Bohr mag/cell

     convergence has been achieved in  10 iterations

     negative rho (up, down):  5.564E-04 1.153E-03

     Forces acting on atoms (cartesian axes, Ry/au):

     atom    1 type  1   force =     0.00000000    0.00000000    0.00000000
     atom    2 type  3   force =    -0.01130312   -0.00757851   -0.00757851
     atom    3 type  3   force =    -0.01130312    0.00757851    0.00757851
     atom    4 type  3   force =     0.01130312   -0.00757851    0.00757851
     atom    5 type  3   force =     0.01130312    0.00757851   -0.00757851
     atom    6 type  2   force =    -0.04096269    0.00000000    0.00000000
     atom    7 type  2   force =     0.04096269    0.00000000    0.00000000

     Total force =     0.065775     Total SCF correction =     0.000010
     Energy error            =      9.6E-04 Ry
     Gradient error          =      4.1E-02 Ry/Bohr

     number of scf cycles    =   9
     number of bfgs steps    =   8

     energy             old  =    -414.8063646835 Ry
     energy             new  =    -414.8073238595 Ry

     CASE: energy            _new < energy            _old

     new trust radius        =       0.0259705585 bohr
     new conv_thr            =       0.0000000096 Ry


ATOMIC_POSITIONS (angstrom)
Ni               8.0000000000        8.0000000000        8.0000000000
H                9.1107748334        8.9147970316        8.9147970316
H                9.1107748334        7.0852029684        7.0852029684
H                6.8892251666        8.9147970316        7.0852029684
H                6.8892251666        7.0852029684        8.9147970316
Mg              10.5652733394        8.0000000000        8.0000000000
Mg               5.4347266606        8.0000000000        8.0000000000



     Writing config-only to output data dir ./outdir/mg2nih4_unit.save/ :
     XML data file
     NEW-OLD atomic charge density approx. for the potential

     negative rho (up, down):  6.640E-04 9.328E-04
     Generating pointlists ...
     new r_m :   0.0502 (alat units)  1.5174 (a.u.) for type    2

     total cpu time spent up to now is     1005.3 secs

     Self-consistent Calculation

     iteration #  1     ecut=    60.00 Ry     beta= 0.30
     Davidson diagonalization with overlap
     ethr =  1.00E-06,  avg # of iterations =  3.0

     negative rho (up, down):  6.165E-04 1.056E-03

     total cpu time spent up to now is     1009.9 secs

     total energy              =    -414.80873095 Ry
     estimated scf accuracy    <       0.00020008 Ry

     total magnetization       =     2.00 Bohr mag/cell
     absolute magnetization    =     2.03 Bohr mag/cell

     iteration #  2     ecut=    60.00 Ry     beta= 0.30
     Davidson diagonalization with overlap
     ethr =  7.70E-07,  avg # of iterations =  3.5

     negative rho (up, down):  6.077E-04 1.076E-03

     total cpu time spent up to now is     1014.6 secs

     total energy              =    -414.80870202 Ry
     estimated scf accuracy    <       0.00102686 Ry

     total magnetization       =     2.02 Bohr mag/cell
     absolute magnetization    =     2.05 Bohr mag/cell

     iteration #  3     ecut=    60.00 Ry     beta= 0.30
     Davidson diagonalization with overlap
     ethr =  7.70E-07,  avg # of iterations =  2.0

     negative rho (up, down):  5.695E-04 1.117E-03

     total cpu time spent up to now is     1019.3 secs

     total energy              =    -414.80877124 Ry
     estimated scf accuracy    <       0.00002405 Ry

     total magnetization       =     2.00 Bohr mag/cell
     absolute magnetization    =     2.04 Bohr mag/cell

     iteration #  4     ecut=    60.00 Ry     beta= 0.30
     Davidson diagonalization with overlap
     ethr =  9.25E-08,  avg # of iterations =  3.5

     negative rho (up, down):  5.645E-04 1.125E-03

     total cpu time spent up to now is     1024.3 secs

     total energy              =    -414.80877441 Ry
     estimated scf accuracy    <       0.00002665 Ry

     total magnetization       =     2.00 Bohr mag/cell
     absolute magnetization    =     2.04 Bohr mag/cell

     iteration #  5     ecut=    60.00 Ry     beta= 0.30
     Davidson diagonalization with overlap
     ethr =  9.25E-08,  avg # of iterations =  1.0

     negative rho (up, down):  5.560E-04 1.139E-03

     total cpu time spent up to now is     1028.9 secs

     total energy              =    -414.80877587 Ry
     estimated scf accuracy    <       0.00000159 Ry

     total magnetization       =     2.00 Bohr mag/cell
     absolute magnetization    =     2.04 Bohr mag/cell

     iteration #  6     ecut=    60.00 Ry     beta= 0.30
     Davidson diagonalization with overlap
     ethr =  6.11E-09,  avg # of iterations =  2.5

     negative rho (up, down):  5.535E-04 1.146E-03

     total cpu time spent up to now is     1033.7 secs

     total energy              =    -414.80877617 Ry
     estimated scf accuracy    <       0.00000034 Ry

     total magnetization       =     2.00 Bohr mag/cell
     absolute magnetization    =     2.04 Bohr mag/cell

     iteration #  7     ecut=    60.00 Ry     beta= 0.30
     Davidson diagonalization with overlap
     ethr =  1.29E-09,  avg # of iterations =  3.5

     negative rho (up, down):  5.512E-04 1.151E-03

     total cpu time spent up to now is     1038.6 secs

     total energy              =    -414.80877624 Ry
     estimated scf accuracy    <       0.00000022 Ry

     total magnetization       =     2.00 Bohr mag/cell
     absolute magnetization    =     2.04 Bohr mag/cell

     iteration #  8     ecut=    60.00 Ry     beta= 0.30
     Davidson diagonalization with overlap
     ethr =  8.57E-10,  avg # of iterations =  2.0

     negative rho (up, down):  5.511E-04 1.154E-03

     total cpu time spent up to now is     1043.4 secs

     total energy              =    -414.80877627 Ry
     estimated scf accuracy    <       0.00000001 Ry

     total magnetization       =     2.00 Bohr mag/cell
     absolute magnetization    =     2.04 Bohr mag/cell

     iteration #  9     ecut=    60.00 Ry     beta= 0.30
     Davidson diagonalization with overlap
     ethr =  5.37E-11,  avg # of iterations =  5.5

     negative rho (up, down):  5.514E-04 1.155E-03

     total cpu time spent up to now is     1048.8 secs

     total energy              =    -414.80877630 Ry
     estimated scf accuracy    <       0.00000003 Ry

     total magnetization       =     2.00 Bohr mag/cell
     absolute magnetization    =     2.04 Bohr mag/cell

     iteration # 10     ecut=    60.00 Ry     beta= 0.30
     Davidson diagonalization with overlap
     ethr =  5.37E-11,  avg # of iterations =  1.5

     negative rho (up, down):  5.516E-04 1.156E-03

     total cpu time spent up to now is     1053.4 secs

     total energy              =    -414.80877632 Ry
     estimated scf accuracy    <       0.00000001 Ry

     total magnetization       =     2.00 Bohr mag/cell
     absolute magnetization    =     2.04 Bohr mag/cell

     iteration # 11     ecut=    60.00 Ry     beta= 0.30
     Davidson diagonalization with overlap
     ethr =  4.66E-11,  avg # of iterations =  3.0

     negative rho (up, down):  5.517E-04 1.157E-03

     total cpu time spent up to now is     1058.2 secs

     total energy              =    -414.80877632 Ry
     estimated scf accuracy    <       0.00000001 Ry

     total magnetization       =     2.00 Bohr mag/cell
     absolute magnetization    =     2.04 Bohr mag/cell

     iteration # 12     ecut=    60.00 Ry     beta= 0.30
     Davidson diagonalization with overlap
     ethr =  4.25E-11,  avg # of iterations =  1.0

     negative rho (up, down):  5.521E-04 1.158E-03
 
     Magnetic moment per site  (integrated on atomic sphere of radius R)
     atom   1 (R=0.040)  charge= 13.9787  magn=  0.5113
     atom   2 (R=0.040)  charge=  0.7066  magn=  0.0203
     atom   3 (R=0.040)  charge=  0.7066  magn=  0.0203
     atom   4 (R=0.040)  charge=  0.7066  magn=  0.0203
     atom   5 (R=0.040)  charge=  0.7066  magn=  0.0203
     atom   6 (R=0.050)  charge=  0.1576  magn=  0.0414
     atom   7 (R=0.050)  charge=  0.1576  magn=  0.0414

     total cpu time spent up to now is     1062.6 secs

     End of self-consistent calculation

 ------ SPIN UP ------------


          k = 0.0000 0.0000 0.0000 (108616 PWs)   bands (ev):

  -106.8396 -67.5842 -67.0529 -67.0529  -9.2218  -7.7689  -7.1629  -7.1629
    -5.2726  -5.0274  -4.8602  -4.2917  -4.2917  -4.2225  -3.4925  -1.5056
    -1.5056

 ------ SPIN DOWN ----------


          k = 0.0000 0.0000 0.0000 (108616 PWs)   bands (ev):

  -106.0680 -66.5475 -66.4488 -66.4488  -9.0451  -7.5721  -6.7434  -6.7434
    -4.8422  -4.5811  -4.4057  -3.6286  -3.6286  -3.2482  -2.5622  -0.9698
    -0.9698

     the Fermi energy is    -3.6287 ev

!    total energy              =    -414.80877632 Ry
     estimated scf accuracy    <          3.6E-10 Ry
     smearing contrib. (-TS)   =      -0.00284645 Ry
     internal energy E=F+TS    =    -414.80592987 Ry

     The total energy is F=E-TS. E is the sum of the following terms:
     one-electron contribution =    -661.72273561 Ry
     hartree contribution      =     329.42696310 Ry
     xc contribution           =     -41.07893641 Ry
     ewald contribution        =      21.14897107 Ry
     DFT-D3 Dispersion         =      -0.01039380 Ry
     one-center paw contrib.   =     -62.56979822 Ry

     total magnetization       =     2.00 Bohr mag/cell
     absolute magnetization    =     2.04 Bohr mag/cell

     convergence has been achieved in  12 iterations

     negative rho (up, down):  5.521E-04 1.158E-03

     Forces acting on atoms (cartesian axes, Ry/au):

     atom    1 type  1   force =     0.00000000    0.00000000    0.00000000
     atom    2 type  3   force =    -0.01192270   -0.00552597   -0.00552597
     atom    3 type  3   force =    -0.01192270    0.00552597    0.00552597
     atom    4 type  3   force =     0.01192270   -0.00552597    0.00552597
     atom    5 type  3   force =     0.01192270    0.00552597   -0.00552597
     atom    6 type  2   force =    -0.03826847    0.00000000    0.00000000
     atom    7 type  2   force =     0.03826847    0.00000000   -0.00000000

     Total force =     0.061171     Total SCF correction =     0.000006
     Energy error            =      1.5E-03 Ry
     Gradient error          =      3.8E-02 Ry/Bohr

     number of scf cycles    =  10
     number of bfgs steps    =   9

     energy             old  =    -414.8073238595 Ry
     energy             new  =    -414.8087763214 Ry

     CASE: energy            _new < energy            _old

     new trust radius        =       0.0389558378 bohr
     new conv_thr            =       0.0000000100 Ry


ATOMIC_POSITIONS (angstrom)
Ni               8.0000000000        8.0000000000        8.0000000000
H                9.1082751565        8.9003279103        8.9003279103
H                9.1082751565        7.0996720897        7.0996720897
H                6.8917248435        8.9003279103        7.0996720897
H                6.8917248435        7.0996720897        8.9003279103
Mg              10.5603683225        8.0000000000        8.0000000000
Mg               5.4396316775        8.0000000000        8.0000000000



     Writing config-only to output data dir ./outdir/mg2nih4_unit.save/ :
     XML data file
     NEW-OLD atomic charge density approx. for the potential

     negative rho (up, down):  6.715E-04 9.378E-04
     Generating pointlists ...

     total cpu time spent up to now is     1076.5 secs

     Self-consistent Calculation

     iteration #  1     ecut=    60.00 Ry     beta= 0.30
     Davidson diagonalization with overlap
     ethr =  1.00E-06,  avg # of iterations =  4.0

     negative rho (up, down):  6.834E-04 1.108E-03

     total cpu time spent up to now is     1081.5 secs

     total energy              =    -414.81041098 Ry
     estimated scf accuracy    <       0.00045299 Ry

     total magnetization       =     2.01 Bohr mag/cell
     absolute magnetization    =     2.04 Bohr mag/cell

     iteration #  2     ecut=    60.00 Ry     beta= 0.30
     Davidson diagonalization with overlap
     ethr =  1.74E-06,  avg # of iterations =  3.0

     negative rho (up, down):  6.493E-04 1.117E-03

     total cpu time spent up to now is     1086.4 secs

     total energy              =    -414.81029694 Ry
     estimated scf accuracy    <       0.00333323 Ry

     total magnetization       =     2.09 Bohr mag/cell
     absolute magnetization    =     2.12 Bohr mag/cell

     iteration #  3     ecut=    60.00 Ry     beta= 0.30
     Davidson diagonalization with overlap
     ethr =  1.74E-06,  avg # of iterations =  2.0

     negative rho (up, down):  5.939E-04 1.139E-03

     total cpu time spent up to now is     1091.2 secs

     total energy              =    -414.81050102 Ry
     estimated scf accuracy    <       0.00006162 Ry

     total magnetization       =     2.01 Bohr mag/cell
     absolute magnetization    =     2.05 Bohr mag/cell

     iteration #  4     ecut=    60.00 Ry     beta= 0.30
     Davidson diagonalization with overlap
     ethr =  2.37E-07,  avg # of iterations =  2.5

     negative rho (up, down):  5.795E-04 1.138E-03

     total cpu time spent up to now is     1096.2 secs

     total energy              =    -414.81051070 Ry
     estimated scf accuracy    <       0.00003017 Ry

     total magnetization       =     2.02 Bohr mag/cell
     absolute magnetization    =     2.05 Bohr mag/cell

     iteration #  5     ecut=    60.00 Ry     beta= 0.30
     Davidson diagonalization with overlap
     ethr =  1.16E-07,  avg # of iterations =  1.0

     negative rho (up, down):  5.611E-04 1.154E-03

     total cpu time spent up to now is     1100.7 secs

     total energy              =    -414.81050790 Ry
     estimated scf accuracy    <       0.00001192 Ry

     total magnetization       =     2.02 Bohr mag/cell
     absolute magnetization    =     2.05 Bohr mag/cell

     iteration #  6     ecut=    60.00 Ry     beta= 0.30
     Davidson diagonalization with overlap
     ethr =  4.59E-08,  avg # of iterations =  2.5

     negative rho (up, down):  5.558E-04 1.157E-03

     total cpu time spent up to now is     1105.6 secs

     total energy              =    -414.81050945 Ry
     estimated scf accuracy    <       0.00001172 Ry

     total magnetization       =     2.02 Bohr mag/cell
     absolute magnetization    =     2.05 Bohr mag/cell

     iteration #  7     ecut=    60.00 Ry     beta= 0.30
     Davidson diagonalization with overlap
     ethr =  4.51E-08,  avg # of iterations =  2.0

     negative rho (up, down):  5.521E-04 1.159E-03

     total cpu time spent up to now is     1110.2 secs

     total energy              =    -414.81051089 Ry
     estimated scf accuracy    <       0.00000061 Ry

     total magnetization       =     2.02 Bohr mag/cell
     absolute magnetization    =     2.05 Bohr mag/cell

     iteration #  8     ecut=    60.00 Ry     beta= 0.30
     Davidson diagonalization with overlap
     ethr =  2.33E-09,  avg # of iterations =  2.0

     negative rho (up, down):  5.505E-04 1.160E-03

     total cpu time spent up to now is     1115.1 secs

     total energy              =    -414.81051092 Ry
     estimated scf accuracy    <       0.00000081 Ry

     total magnetization       =     2.02 Bohr mag/cell
     absolute magnetization    =     2.05 Bohr mag/cell

     iteration #  9     ecut=    60.00 Ry     beta= 0.30
     Davidson diagonalization with overlap
     ethr =  2.33E-09,  avg # of iterations =  1.0

     negative rho (up, down):  5.498E-04 1.161E-03

     total cpu time spent up to now is     1119.7 secs

     total energy              =    -414.81051095 Ry
     estimated scf accuracy    <       0.00000018 Ry

     total magnetization       =     2.02 Bohr mag/cell
     absolute magnetization    =     2.05 Bohr mag/cell

     iteration # 10     ecut=    60.00 Ry     beta= 0.30
     Davidson diagonalization with overlap
     ethr =  6.86E-10,  avg # of iterations =  3.0

     negative rho (up, down):  5.493E-04 1.161E-03

     total cpu time spent up to now is     1124.4 secs

     total energy              =    -414.81051097 Ry
     estimated scf accuracy    <       0.00000013 Ry

     total magnetization       =     2.02 Bohr mag/cell
     absolute magnetization    =     2.05 Bohr mag/cell

     iteration # 11     ecut=    60.00 Ry     beta= 0.30
     Davidson diagonalization with overlap
     ethr =  5.17E-10,  avg # of iterations =  1.5

     negative rho (up, down):  5.493E-04 1.162E-03

     total cpu time spent up to now is     1129.0 secs

     total energy              =    -414.81051099 Ry
     estimated scf accuracy    <       0.00000002 Ry

     total magnetization       =     2.02 Bohr mag/cell
     absolute magnetization    =     2.05 Bohr mag/cell

     iteration # 12     ecut=    60.00 Ry     beta= 0.30
     Davidson diagonalization with overlap
     ethr =  5.80E-11,  avg # of iterations =  5.0

     negative rho (up, down):  5.496E-04 1.163E-03
 
     Magnetic moment per site  (integrated on atomic sphere of radius R)
     atom   1 (R=0.040)  charge= 13.9781  magn=  0.5055
     atom   2 (R=0.040)  charge=  0.7141  magn=  0.0209
     atom   3 (R=0.040)  charge=  0.7141  magn=  0.0209
     atom   4 (R=0.040)  charge=  0.7141  magn=  0.0209
     atom   5 (R=0.040)  charge=  0.7141  magn=  0.0209
     atom   6 (R=0.050)  charge=  0.1586  magn=  0.0417
     atom   7 (R=0.050)  charge=  0.1586  magn=  0.0417

     total cpu time spent up to now is     1134.3 secs

     End of self-consistent calculation

 ------ SPIN UP ------------


          k = 0.0000 0.0000 0.0000 (108616 PWs)   bands (ev):

  -106.8409 -67.5878 -67.0532 -67.0532  -9.2904  -7.8201  -7.2061  -7.2061
    -5.2715  -5.0298  -4.8625  -4.2649  -4.2649  -4.2236  -3.4959  -1.5023
    -1.5023

 ------ SPIN DOWN ----------


          k = 0.0000 0.0000 0.0000 (108616 PWs)   bands (ev):

  -106.0774 -66.5618 -66.4557 -66.4557  -9.1101  -7.6205  -6.7825  -6.7825
    -4.8461  -4.5852  -4.4119  -3.6092  -3.6092  -3.2435  -2.5589  -0.9609
    -0.9609

     the Fermi energy is    -3.6097 ev

!    total energy              =    -414.81051101 Ry
     estimated scf accuracy    <          4.2E-09 Ry
     smearing contrib. (-TS)   =      -0.00290657 Ry
     internal energy E=F+TS    =    -414.80760444 Ry

     The total energy is F=E-TS. E is the sum of the following terms:
     one-electron contribution =    -662.82830304 Ry
     hartree contribution      =     329.97851643 Ry
     xc contribution           =     -41.09877001 Ry
     ewald contribution        =      21.72266690 Ry
     DFT-D3 Dispersion         =      -0.01042734 Ry
     one-center paw contrib.   =     -62.57128738 Ry

     total magnetization       =     2.02 Bohr mag/cell
     absolute magnetization    =     2.05 Bohr mag/cell

     convergence has been achieved in  12 iterations

     negative rho (up, down):  5.496E-04 1.163E-03

     Forces acting on atoms (cartesian axes, Ry/au):

     atom    1 type  1   force =     0.00000000    0.00000000    0.00000000
     atom    2 type  3   force =    -0.01150848   -0.00200179   -0.00200179
     atom    3 type  3   force =    -0.01150848    0.00200179    0.00200179
     atom    4 type  3   force =     0.01150848   -0.00200179    0.00200179
     atom    5 type  3   force =     0.01150848    0.00200179   -0.00200179
     atom    6 type  2   force =    -0.03576612   -0.00000000    0.00000000
     atom    7 type  2   force =     0.03576612   -0.00000000    0.00000000

     Total force =     0.055859     Total SCF correction =     0.000016
     Energy error            =      1.7E-03 Ry
     Gradient error          =      3.6E-02 Ry/Bohr

     number of scf cycles    =  11
     number of bfgs steps    =  10

     energy             old  =    -414.8087763214 Ry
     energy             new  =    -414.8105110063 Ry

     CASE: energy            _new < energy            _old

     new trust radius        =       0.0584337567 bohr
     new conv_thr            =       0.0000000100 Ry


ATOMIC_POSITIONS (angstrom)
Ni               8.0000000000        8.0000000000        8.0000000000
H                9.0980080590        8.8797033474        8.8797033474
H                9.0980080590        7.1202966526        7.1202966526
H                6.9019919410        8.8797033474        7.1202966526
H                6.9019919410        7.1202966526        8.8797033474
Mg              10.5561076914        8.0000000000        8.0000000000
Mg               5.4438923086        8.0000000000        8.0000000000



     Writing config-only to output data dir ./outdir/mg2nih4_unit.save/ :
     XML data file
     NEW-OLD atomic charge density approx. for the potential

     negative rho (up, down):  6.659E-04 9.584E-04
     Generating pointlists ...
     new r_m :   0.0494 (alat units)  1.4941 (a.u.) for type    2

     total cpu time spent up to now is     1148.3 secs

     Self-consistent Calculation

     iteration #  1     ecut=    60.00 Ry     beta= 0.30
     Davidson diagonalization with overlap
     ethr =  1.00E-06,  avg # of iterations =  4.5

     negative rho (up, down):  8.428E-04 1.266E-03

     total cpu time spent up to now is     1153.2 secs

     total energy              =    -414.81150332 Ry
     estimated scf accuracy    <       0.00098445 Ry

     total magnetization       =     2.03 Bohr mag/cell
     absolute magnetization    =     2.06 Bohr mag/cell

     iteration #  2     ecut=    60.00 Ry     beta= 0.30
     Davidson diagonalization with overlap
     ethr =  3.79E-06,  avg # of iterations =  2.0

     negative rho (up, down):  7.425E-04 1.258E-03

     total cpu time spent up to now is     1157.7 secs

     total energy              =    -414.81109108 Ry
     estimated scf accuracy    <       0.01597157 Ry

     total magnetization       =     2.38 Bohr mag/cell
     absolute magnetization    =     2.40 Bohr mag/cell

     iteration #  3     ecut=    60.00 Ry     beta= 0.30
     Davidson diagonalization with overlap
     ethr =  3.79E-06,  avg # of iterations =  2.0

     negative rho (up, down):  6.481E-04 1.230E-03

     total cpu time spent up to now is     1162.3 secs

     total energy              =    -414.81168963 Ry
     estimated scf accuracy    <       0.00014106 Ry

     total magnetization       =     2.07 Bohr mag/cell
     absolute magnetization    =     2.10 Bohr mag/cell

     iteration #  4     ecut=    60.00 Ry     beta= 0.30
     Davidson diagonalization with overlap
     ethr =  5.43E-07,  avg # of iterations =  2.0

     negative rho (up, down):  6.074E-04 1.205E-03

     total cpu time spent up to now is     1167.0 secs

     total energy              =    -414.81171114 Ry
     estimated scf accuracy    <       0.00003261 Ry

     total magnetization       =     2.09 Bohr mag/cell
     absolute magnetization    =     2.12 Bohr mag/cell

     iteration #  5     ecut=    60.00 Ry     beta= 0.30
     Davidson diagonalization with overlap
     ethr =  1.25E-07,  avg # of iterations =  1.5

     negative rho (up, down):  5.771E-04 1.204E-03

     total cpu time spent up to now is     1171.6 secs

     total energy              =    -414.81170838 Ry
     estimated scf accuracy    <       0.00002529 Ry

     total magnetization       =     2.09 Bohr mag/cell
     absolute magnetization    =     2.12 Bohr mag/cell

     iteration #  6     ecut=    60.00 Ry     beta= 0.30
     Davidson diagonalization with overlap
     ethr =  9.73E-08,  avg # of iterations =  2.0

     negative rho (up, down):  5.610E-04 1.199E-03

     total cpu time spent up to now is     1176.5 secs

     total energy              =    -414.81170943 Ry
     estimated scf accuracy    <       0.00003604 Ry

     total magnetization       =     2.10 Bohr mag/cell
     absolute magnetization    =     2.12 Bohr mag/cell

     iteration #  7     ecut=    60.00 Ry     beta= 0.30
     Davidson diagonalization with overlap
     ethr =  9.73E-08,  avg # of iterations =  2.0

     negative rho (up, down):  5.510E-04 1.194E-03

     total cpu time spent up to now is     1181.0 secs

     total energy              =    -414.81171234 Ry
     estimated scf accuracy    <       0.00000165 Ry

     total magnetization       =     2.09 Bohr mag/cell
     absolute magnetization    =     2.12 Bohr mag/cell

     iteration #  8     ecut=    60.00 Ry     beta= 0.30
     Davidson diagonalization with overlap
     ethr =  6.35E-09,  avg # of iterations =  3.0

     negative rho (up, down):  5.446E-04 1.192E-03

     total cpu time spent up to now is     1185.8 secs

     total energy              =    -414.81171229 Ry
     estimated scf accuracy    <       0.00000262 Ry

     total magnetization       =     2.09 Bohr mag/cell
     absolute magnetization    =     2.12 Bohr mag/cell

     iteration #  9     ecut=    60.00 Ry     beta= 0.30
     Davidson diagonalization with overlap
     ethr =  6.35E-09,  avg # of iterations =  2.0

     negative rho (up, down):  5.409E-04 1.190E-03

     total cpu time spent up to now is     1190.7 secs

     total energy              =    -414.81171273 Ry
     estimated scf accuracy    <       0.00000034 Ry

     total magnetization       =     2.09 Bohr mag/cell
     absolute magnetization    =     2.12 Bohr mag/cell

     iteration # 10     ecut=    60.00 Ry     beta= 0.30
     Davidson diagonalization with overlap
     ethr =  1.30E-09,  avg # of iterations =  5.0

     negative rho (up, down):  5.386E-04 1.190E-03

     total cpu time spent up to now is     1196.0 secs

     total energy              =    -414.81171289 Ry
     estimated scf accuracy    <       0.00000183 Ry

     total magnetization       =     2.09 Bohr mag/cell
     absolute magnetization    =     2.12 Bohr mag/cell

     iteration # 11     ecut=    60.00 Ry     beta= 0.30
     Davidson diagonalization with overlap
     ethr =  1.30E-09,  avg # of iterations =  2.0

     negative rho (up, down):  5.369E-04 1.190E-03

     total cpu time spent up to now is     1200.7 secs

     total energy              =    -414.81171291 Ry
     estimated scf accuracy    <       0.00000077 Ry

     total magnetization       =     2.09 Bohr mag/cell
     absolute magnetization    =     2.12 Bohr mag/cell

     iteration # 12     ecut=    60.00 Ry     beta= 0.30
     Davidson diagonalization with overlap
     ethr =  1.30E-09,  avg # of iterations =  2.0

     negative rho (up, down):  5.359E-04 1.190E-03

     total cpu time spent up to now is     1205.5 secs

     total energy              =    -414.81171299 Ry
     estimated scf accuracy    <       0.00000005 Ry

     total magnetization       =     2.09 Bohr mag/cell
     absolute magnetization    =     2.12 Bohr mag/cell

     iteration # 13     ecut=    60.00 Ry     beta= 0.30
     Davidson diagonalization with overlap
     ethr =  1.86E-10,  avg # of iterations =  5.0

     negative rho (up, down):  5.341E-04 1.191E-03
 
     Magnetic moment per site  (integrated on atomic sphere of radius R)
     atom   1 (R=0.040)  charge= 13.9763  magn=  0.5163
     atom   2 (R=0.040)  charge=  0.7257  magn=  0.0230
     atom   3 (R=0.040)  charge=  0.7257  magn=  0.0230
     atom   4 (R=0.040)  charge=  0.7257  magn=  0.0230
     atom   5 (R=0.040)  charge=  0.7257  magn=  0.0230
     atom   6 (R=0.049)  charge=  0.1499  magn=  0.0404
     atom   7 (R=0.049)  charge=  0.1499  magn=  0.0404

     total cpu time spent up to now is     1210.5 secs

     End of self-consistent calculation

 ------ SPIN UP ------------


          k = 0.0000 0.0000 0.0000 (108616 PWs)   bands (ev):

  -106.8953 -67.6545 -67.1004 -67.1004  -9.4093  -7.9043  -7.3045  -7.3045
    -5.3194  -5.0705  -4.9037  -4.2516  -4.2516  -4.2344  -3.5112  -1.5029
    -1.5029

 ------ SPIN DOWN ----------


          k = 0.0000 0.0000 0.0000 (108616 PWs)   bands (ev):

  -106.1149 -66.6171 -66.4842 -66.4842  -9.2149  -7.6918  -6.8571  -6.8571
    -4.8846  -4.6043  -4.4423  -3.5889  -3.5889  -3.2373  -2.5510  -0.9458
    -0.9458

     the Fermi energy is    -3.5917 ev

!    total energy              =    -414.81171299 Ry
     estimated scf accuracy    <          9.4E-09 Ry
     smearing contrib. (-TS)   =      -0.00316407 Ry
     internal energy E=F+TS    =    -414.80854893 Ry

     The total energy is F=E-TS. E is the sum of the following terms:
     one-electron contribution =    -664.54273739 Ry
     hartree contribution      =     330.80740014 Ry
     xc contribution           =     -41.12584671 Ry
     ewald contribution        =      22.63580017 Ry
     DFT-D3 Dispersion         =      -0.01047915 Ry
     one-center paw contrib.   =     -62.57268599 Ry

     total magnetization       =     2.09 Bohr mag/cell
     absolute magnetization    =     2.12 Bohr mag/cell

     convergence has been achieved in  13 iterations

     negative rho (up, down):  5.341E-04 1.191E-03

     Forces acting on atoms (cartesian axes, Ry/au):

     atom    1 type  1   force =     0.00000000    0.00000000    0.00000000
     atom    2 type  3   force =    -0.00964332    0.00310293    0.00310293
     atom    3 type  3   force =    -0.00964332   -0.00310293   -0.00310293
     atom    4 type  3   force =     0.00964332    0.00310293   -0.00310293
     atom    5 type  3   force =     0.00964332   -0.00310293    0.00310293
     atom    6 type  2   force =    -0.03233031    0.00000000    0.00000000
     atom    7 type  2   force =     0.03233031   -0.00000000    0.00000000

     Total force =     0.050393     Total SCF correction =     0.000039
     Energy error            =      1.2E-03 Ry
     Gradient error          =      3.2E-02 Ry/Bohr

     number of scf cycles    =  12
     number of bfgs steps    =  11

     energy             old  =    -414.8105110063 Ry
     energy             new  =    -414.8117129913 Ry

     CASE: energy            _new < energy            _old

     new trust radius        =       0.0110712342 bohr
     new conv_thr            =       0.0000000100 Ry


ATOMIC_POSITIONS (angstrom)
Ni               8.0000000000        8.0000000000        8.0000000000
H                9.0941249847        8.8766012954        8.8766012954
H                9.0941249847        7.1233987046        7.1233987046
H                6.9058750153        8.8766012954        7.1233987046
H                6.9058750153        7.1233987046        8.8766012954
Mg              10.5555391128        8.0000000000        8.0000000000
Mg               5.4444608872        8.0000000000        8.0000000000



     Writing config-only to output data dir ./outdir/mg2nih4_unit.save/ :
     XML data file
     NEW-OLD atomic charge density approx. for the potential

     negative rho (up, down):  6.585E-04 9.458E-04
     Generating pointlists ...

     total cpu time spent up to now is     1224.4 secs

     Self-consistent Calculation

     iteration #  1     ecut=    60.00 Ry     beta= 0.30
     Davidson diagonalization with overlap
     ethr =  1.00E-06,  avg # of iterations =  3.0

     negative rho (up, down):  6.264E-04 1.094E-03

     total cpu time spent up to now is     1229.2 secs

     total energy              =    -414.81188123 Ry
     estimated scf accuracy    <       0.00004259 Ry

     total magnetization       =     2.10 Bohr mag/cell
     absolute magnetization    =     2.12 Bohr mag/cell

     iteration #  2     ecut=    60.00 Ry     beta= 0.30
     Davidson diagonalization with overlap
     ethr =  1.64E-07,  avg # of iterations =  2.0

     negative rho (up, down):  6.065E-04 1.111E-03

     total cpu time spent up to now is     1233.6 secs

     total energy              =    -414.81186771 Ry
     estimated scf accuracy    <       0.00061894 Ry

     total magnetization       =     2.16 Bohr mag/cell
     absolute magnetization    =     2.19 Bohr mag/cell

     iteration #  3     ecut=    60.00 Ry     beta= 0.30
     Davidson diagonalization with overlap
     ethr =  1.64E-07,  avg # of iterations =  2.0

     negative rho (up, down):  5.633E-04 1.149E-03

     total cpu time spent up to now is     1238.3 secs

     total energy              =    -414.81188992 Ry
     estimated scf accuracy    <       0.00000752 Ry

     total magnetization       =     2.11 Bohr mag/cell
     absolute magnetization    =     2.13 Bohr mag/cell

     iteration #  4     ecut=    60.00 Ry     beta= 0.30
     Davidson diagonalization with overlap
     ethr =  2.89E-08,  avg # of iterations =  2.0

     negative rho (up, down):  5.505E-04 1.163E-03

     total cpu time spent up to now is     1243.1 secs

     total energy              =    -414.81189072 Ry
     estimated scf accuracy    <       0.00000157 Ry

     total magnetization       =     2.11 Bohr mag/cell
     absolute magnetization    =     2.14 Bohr mag/cell

     iteration #  5     ecut=    60.00 Ry     beta= 0.30
     Davidson diagonalization with overlap
     ethr =  6.05E-09,  avg # of iterations =  1.5

     negative rho (up, down):  5.391E-04 1.179E-03

     total cpu time spent up to now is     1247.9 secs

     total energy              =    -414.81189090 Ry
     estimated scf accuracy    <       0.00000179 Ry

     total magnetization       =     2.11 Bohr mag/cell
     absolute magnetization    =     2.14 Bohr mag/cell

     iteration #  6     ecut=    60.00 Ry     beta= 0.30
     Davidson diagonalization with overlap
     ethr =  6.05E-09,  avg # of iterations =  1.5

     negative rho (up, down):  5.364E-04 1.183E-03

     total cpu time spent up to now is     1252.5 secs

     total energy              =    -414.81189095 Ry
     estimated scf accuracy    <       0.00000036 Ry

     total magnetization       =     2.11 Bohr mag/cell
     absolute magnetization    =     2.14 Bohr mag/cell

     iteration #  7     ecut=    60.00 Ry     beta= 0.30
     Davidson diagonalization with overlap
     ethr =  1.40E-09,  avg # of iterations =  1.0

     negative rho (up, down):  5.331E-04 1.189E-03

     total cpu time spent up to now is     1257.1 secs

     total energy              =    -414.81189100 Ry
     estimated scf accuracy    <       0.00000007 Ry

     total magnetization       =     2.11 Bohr mag/cell
     absolute magnetization    =     2.14 Bohr mag/cell

     iteration #  8     ecut=    60.00 Ry     beta= 0.30
     Davidson diagonalization with overlap
     ethr =  2.55E-10,  avg # of iterations =  3.5

     negative rho (up, down):  5.325E-04 1.191E-03

     total cpu time spent up to now is     1262.1 secs

     total energy              =    -414.81189102 Ry
     estimated scf accuracy    <       0.00000009 Ry

     total magnetization       =     2.11 Bohr mag/cell
     absolute magnetization    =     2.14 Bohr mag/cell

     iteration #  9     ecut=    60.00 Ry     beta= 0.30
     Davidson diagonalization with overlap
     ethr =  2.55E-10,  avg # of iterations =  2.0

     negative rho (up, down):  5.316E-04 1.193E-03

     total cpu time spent up to now is     1266.9 secs

     total energy              =    -414.81189105 Ry
     estimated scf accuracy    <       0.00000012 Ry

     total magnetization       =     2.11 Bohr mag/cell
     absolute magnetization    =     2.14 Bohr mag/cell

     iteration # 10     ecut=    60.00 Ry     beta= 0.30
     Davidson diagonalization with overlap
     ethr =  2.55E-10,  avg # of iterations =  2.0

     negative rho (up, down):  5.314E-04 1.194E-03

     total cpu time spent up to now is     1271.7 secs

     total energy              =    -414.81189106 Ry
     estimated scf accuracy    <       0.00000007 Ry

     total magnetization       =     2.11 Bohr mag/cell
     absolute magnetization    =     2.14 Bohr mag/cell

     iteration # 11     ecut=    60.00 Ry     beta= 0.30
     Davidson diagonalization with overlap
     ethr =  2.55E-10,  avg # of iterations =  1.5

     negative rho (up, down):  5.309E-04 1.197E-03
 
     Magnetic moment per site  (integrated on atomic sphere of radius R)
     atom   1 (R=0.040)  charge= 13.9757  magn=  0.5197
     atom   2 (R=0.040)  charge=  0.7277  magn=  0.0235
     atom   3 (R=0.040)  charge=  0.7277  magn=  0.0235
     atom   4 (R=0.040)  charge=  0.7277  magn=  0.0235
     atom   5 (R=0.040)  charge=  0.7277  magn=  0.0235
     atom   6 (R=0.049)  charge=  0.1499  magn=  0.0407
     atom   7 (R=0.049)  charge=  0.1499  magn=  0.0407

     total cpu time spent up to now is     1276.1 secs

     End of self-consistent calculation

 ------ SPIN UP ------------


          k = 0.0000 0.0000 0.0000 (108616 PWs)   bands (ev):

  -106.9123 -67.6736 -67.1160 -67.1160  -9.4310  -7.9179  -7.3270  -7.3270
    -5.3355  -5.0840  -4.9173  -4.2523  -4.2523  -4.2379  -3.5143  -1.5035
    -1.5035

 ------ SPIN DOWN ----------


          k = 0.0000 0.0000 0.0000 (108616 PWs)   bands (ev):

  -106.1265 -66.6322 -66.4940 -66.4940  -9.2333  -7.7022  -6.8736  -6.8736
    -4.8974  -4.6116  -4.4525  -3.5871  -3.5871  -3.2374  -2.5493  -0.9429
    -0.9429

     the Fermi energy is    -3.5905 ev

!    total energy              =    -414.81189106 Ry
     estimated scf accuracy    <          4.8E-09 Ry
     smearing contrib. (-TS)   =      -0.00321560 Ry
     internal energy E=F+TS    =    -414.80867546 Ry

     The total energy is F=E-TS. E is the sum of the following terms:
     one-electron contribution =    -664.87781204 Ry
     hartree contribution      =     330.96573804 Ry
     xc contribution           =     -41.12975136 Ry
     ewald contribution        =      22.81635314 Ry
     DFT-D3 Dispersion         =      -0.01048998 Ry
     one-center paw contrib.   =     -62.57271327 Ry

     total magnetization       =     2.11 Bohr mag/cell
     absolute magnetization    =     2.14 Bohr mag/cell

     convergence has been achieved in  11 iterations

     negative rho (up, down):  5.309E-04 1.197E-03

     Forces acting on atoms (cartesian axes, Ry/au):

     atom    1 type  1   force =     0.00000000    0.00000000    0.00000000
     atom    2 type  3   force =    -0.00900276    0.00392824    0.00392824
     atom    3 type  3   force =    -0.00900276   -0.00392824   -0.00392824
     atom    4 type  3   force =     0.00900276    0.00392824   -0.00392824
     atom    5 type  3   force =     0.00900276   -0.00392824    0.00392824
     atom    6 type  2   force =    -0.03197244    0.00000000   -0.00000000
     atom    7 type  2   force =     0.03197244    0.00000000    0.00000000

     Total force =     0.049921     Total SCF correction =     0.000020
     Energy error            =      1.8E-04 Ry
     Gradient error          =      3.2E-02 Ry/Bohr

     number of scf cycles    =  13
     number of bfgs steps    =  12

     energy             old  =    -414.8117129913 Ry
     energy             new  =    -414.8118910598 Ry

     CASE: energy            _new < energy            _old

     new trust radius        =       0.0121783576 bohr
     new conv_thr            =       0.0000000018 Ry


ATOMIC_POSITIONS (angstrom)
Ni               8.0000000000        8.0000000000        8.0000000000
H                9.0889925638        8.8738453966        8.8738453966
H                9.0889925638        7.1261546034        7.1261546034
H                6.9110074362        8.8738453966        7.1261546034
H                6.9110074362        7.1261546034        8.8738453966
Mg              10.5539475997        8.0000000000        8.0000000000
Mg               5.4460524003        8.0000000000        8.0000000000



     Writing config-only to output data dir ./outdir/mg2nih4_unit.save/ :
     XML data file
     NEW-OLD atomic charge density approx. for the potential

     negative rho (up, down):  6.544E-04 9.498E-04
     Generating pointlists ...

     total cpu time spent up to now is     1290.2 secs

     Self-consistent Calculation

     iteration #  1     ecut=    60.00 Ry     beta= 0.30
     Davidson diagonalization with overlap
     ethr =  1.00E-06,  avg # of iterations =  3.0

     negative rho (up, down):  5.939E-04 1.075E-03

     total cpu time spent up to now is     1294.8 secs

     total energy              =    -414.81221445 Ry
     estimated scf accuracy    <       0.00008216 Ry

     total magnetization       =     2.10 Bohr mag/cell
     absolute magnetization    =     2.13 Bohr mag/cell

     iteration #  2     ecut=    60.00 Ry     beta= 0.30
     Davidson diagonalization with overlap
     ethr =  3.16E-07,  avg # of iterations =  3.0

     negative rho (up, down):  5.850E-04 1.107E-03

     total cpu time spent up to now is     1299.6 secs

     total energy              =    -414.81217258 Ry
     estimated scf accuracy    <       0.00165085 Ry

     total magnetization       =     2.21 Bohr mag/cell
     absolute magnetization    =     2.23 Bohr mag/cell

     iteration #  3     ecut=    60.00 Ry     beta= 0.30
     Davidson diagonalization with overlap
     ethr =  3.16E-07,  avg # of iterations =  2.0

     negative rho (up, down):  5.483E-04 1.151E-03

     total cpu time spent up to now is     1304.4 secs

     total energy              =    -414.81223366 Ry
     estimated scf accuracy    <       0.00000920 Ry

     total magnetization       =     2.12 Bohr mag/cell
     absolute magnetization    =     2.14 Bohr mag/cell

     iteration #  4     ecut=    60.00 Ry     beta= 0.30
     Davidson diagonalization with overlap
     ethr =  3.54E-08,  avg # of iterations =  4.0

     negative rho (up, down):  5.467E-04 1.157E-03

     total cpu time spent up to now is     1309.5 secs

     total energy              =    -414.81223645 Ry
     estimated scf accuracy    <       0.00001951 Ry

     total magnetization       =     2.12 Bohr mag/cell
     absolute magnetization    =     2.14 Bohr mag/cell

     iteration #  5     ecut=    60.00 Ry     beta= 0.30
     Davidson diagonalization with overlap
     ethr =  3.54E-08,  avg # of iterations =  1.0

     negative rho (up, down):  5.357E-04 1.175E-03

     total cpu time spent up to now is     1314.0 secs

     total energy              =    -414.81223519 Ry
     estimated scf accuracy    <       0.00000919 Ry

     total magnetization       =     2.12 Bohr mag/cell
     absolute magnetization    =     2.14 Bohr mag/cell

     iteration #  6     ecut=    60.00 Ry     beta= 0.30
     Davidson diagonalization with overlap
     ethr =  3.53E-08,  avg # of iterations =  1.5

     negative rho (up, down):  5.326E-04 1.184E-03

     total cpu time spent up to now is     1318.6 secs

     total energy              =    -414.81223592 Ry
     estimated scf accuracy    <       0.00000038 Ry

     total magnetization       =     2.12 Bohr mag/cell
     absolute magnetization    =     2.15 Bohr mag/cell

     iteration #  7     ecut=    60.00 Ry     beta= 0.30
     Davidson diagonalization with overlap
     ethr =  1.46E-09,  avg # of iterations =  3.0

     negative rho (up, down):  5.318E-04 1.188E-03

     total cpu time spent up to now is     1323.6 secs

     total energy              =    -414.81223600 Ry
     estimated scf accuracy    <       0.00000011 Ry

     total magnetization       =     2.12 Bohr mag/cell
     absolute magnetization    =     2.15 Bohr mag/cell

     iteration #  8     ecut=    60.00 Ry     beta= 0.30
     Davidson diagonalization with overlap
     ethr =  4.37E-10,  avg # of iterations =  3.0

     negative rho (up, down):  5.304E-04 1.192E-03

     total cpu time spent up to now is     1328.3 secs

     total energy              =    -414.81223601 Ry
     estimated scf accuracy    <       0.00000004 Ry

     total magnetization       =     2.12 Bohr mag/cell
     absolute magnetization    =     2.15 Bohr mag/cell

     iteration #  9     ecut=    60.00 Ry     beta= 0.30
     Davidson diagonalization with overlap
     ethr =  1.42E-10,  avg # of iterations =  5.5

     negative rho (up, down):  5.303E-04 1.193E-03

     total cpu time spent up to now is     1333.4 secs

     total energy              =    -414.81223602 Ry
     estimated scf accuracy    <          4.3E-09 Ry

     total magnetization       =     2.12 Bohr mag/cell
     absolute magnetization    =     2.15 Bohr mag/cell

     iteration # 10     ecut=    60.00 Ry     beta= 0.30
     Davidson diagonalization with overlap
     ethr =  1.65E-11,  avg # of iterations =  5.5

     negative rho (up, down):  5.302E-04 1.195E-03

     total cpu time spent up to now is     1338.7 secs

     total energy              =    -414.81223602 Ry
     estimated scf accuracy    <          3.0E-09 Ry

     total magnetization       =     2.12 Bohr mag/cell
     absolute magnetization    =     2.15 Bohr mag/cell

     iteration # 11     ecut=    60.00 Ry     beta= 0.30
     Davidson diagonalization with overlap
     ethr =  1.16E-11,  avg # of iterations =  1.5

     negative rho (up, down):  5.301E-04 1.196E-03

     total cpu time spent up to now is     1343.5 secs

     total energy              =    -414.81223602 Ry
     estimated scf accuracy    <          3.8E-09 Ry

     total magnetization       =     2.12 Bohr mag/cell
     absolute magnetization    =     2.15 Bohr mag/cell

     iteration # 12     ecut=    60.00 Ry     beta= 0.30
     Davidson diagonalization with overlap
     ethr =  1.16E-11,  avg # of iterations =  1.5

     negative rho (up, down):  5.303E-04 1.197E-03
 
     Magnetic moment per site  (integrated on atomic sphere of radius R)
     atom   1 (R=0.040)  charge= 13.9752  magn=  0.5191
     atom   2 (R=0.040)  charge=  0.7297  magn=  0.0239
     atom   3 (R=0.040)  charge=  0.7297  magn=  0.0239
     atom   4 (R=0.040)  charge=  0.7297  magn=  0.0239
     atom   5 (R=0.040)  charge=  0.7297  magn=  0.0239
     atom   6 (R=0.049)  charge=  0.1500  magn=  0.0408
     atom   7 (R=0.049)  charge=  0.1500  magn=  0.0408

     total cpu time spent up to now is     1347.9 secs

     End of self-consistent calculation

 ------ SPIN UP ------------


          k = 0.0000 0.0000 0.0000 (108616 PWs)   bands (ev):

  -106.9244 -67.6854 -67.1279 -67.1279  -9.4506  -7.9281  -7.3473  -7.3473
    -5.3482  -5.0958  -4.9286  -4.2489  -4.2489  -4.2410  -3.5148  -1.5031
    -1.5031

 ------ SPIN DOWN ----------


          k = 0.0000 0.0000 0.0000 (108616 PWs)   bands (ev):

  -106.1392 -66.6461 -66.5059 -66.5059  -9.2508  -7.7105  -6.8910  -6.8910
    -4.9100  -4.6213  -4.4639  -3.5855  -3.5855  -3.2386  -2.5481  -0.9398
    -0.9398

     the Fermi energy is    -3.5892 ev

!    total energy              =    -414.81223602 Ry
     estimated scf accuracy    <          3.5E-10 Ry
     smearing contrib. (-TS)   =      -0.00323940 Ry
     internal energy E=F+TS    =    -414.80899662 Ry

     The total energy is F=E-TS. E is the sum of the following terms:
     one-electron contribution =    -665.26982292 Ry
     hartree contribution      =     331.15435509 Ry
     xc contribution           =     -41.13365465 Ry
     ewald contribution        =      23.02334981 Ry
     DFT-D3 Dispersion         =      -0.01050437 Ry
     one-center paw contrib.   =     -62.57271959 Ry

     total magnetization       =     2.12 Bohr mag/cell
     absolute magnetization    =     2.15 Bohr mag/cell

     convergence has been achieved in  12 iterations

     negative rho (up, down):  5.303E-04 1.197E-03

     Forces acting on atoms (cartesian axes, Ry/au):

     atom    1 type  1   force =     0.00000000    0.00000000    0.00000000
     atom    2 type  3   force =    -0.00826659    0.00480264    0.00480264
     atom    3 type  3   force =    -0.00826659   -0.00480264   -0.00480264
     atom    4 type  3   force =     0.00826659    0.00480264   -0.00480264
     atom    5 type  3   force =     0.00826659   -0.00480264    0.00480264
     atom    6 type  2   force =    -0.03173497    0.00000000    0.00000000
     atom    7 type  2   force =     0.03173497    0.00000000   -0.00000000

     Total force =     0.049720     Total SCF correction =     0.000006
     Energy error            =      3.4E-04 Ry
     Gradient error          =      3.2E-02 Ry/Bohr

     number of scf cycles    =  14
     number of bfgs steps    =  13

     energy             old  =    -414.8118910598 Ry
     energy             new  =    -414.8122360194 Ry

     CASE: energy            _new < energy            _old

     new trust radius        =       0.0182675365 bohr
     new conv_thr            =       0.0000000034 Ry


ATOMIC_POSITIONS (angstrom)
Ni               8.0000000000        8.0000000000        8.0000000000
H                9.0804111054        8.8706985809        8.8706985809
H                9.0804111054        7.1293014191        7.1293014191
H                6.9195888946        8.8706985809        7.1293014191
H                6.9195888946        7.1293014191        8.8706985809
Mg              10.5496084366        8.0000000000        8.0000000000
Mg               5.4503915634        8.0000000000        8.0000000000



     Writing config-only to output data dir ./outdir/mg2nih4_unit.save/ :
     XML data file
     NEW-OLD atomic charge density approx. for the potential

     negative rho (up, down):  6.556E-04 9.543E-04
     Generating pointlists ...

     total cpu time spent up to now is     1361.8 secs

     Self-consistent Calculation

     iteration #  1     ecut=    60.00 Ry     beta= 0.30
     Davidson diagonalization with overlap
     ethr =  1.00E-06,  avg # of iterations =  3.0

     negative rho (up, down):  6.003E-04 1.078E-03

     total cpu time spent up to now is     1366.4 secs

     total energy              =    -414.81292149 Ry
     estimated scf accuracy    <       0.00027132 Ry

     total magnetization       =     2.08 Bohr mag/cell
     absolute magnetization    =     2.11 Bohr mag/cell

     iteration #  2     ecut=    60.00 Ry     beta= 0.30
     Davidson diagonalization with overlap
     ethr =  1.04E-06,  avg # of iterations =  3.5

     negative rho (up, down):  5.880E-04 1.123E-03

     total cpu time spent up to now is     1371.3 secs

     total energy              =    -414.81274164 Ry
     estimated scf accuracy    <       0.00626806 Ry

     total magnetization       =     2.31 Bohr mag/cell
     absolute magnetization    =     2.33 Bohr mag/cell

     iteration #  3     ecut=    60.00 Ry     beta= 0.30
     Davidson diagonalization with overlap
     ethr =  1.04E-06,  avg # of iterations =  2.0

     negative rho (up, down):  5.483E-04 1.160E-03

     total cpu time spent up to now is     1376.1 secs

     total energy              =    -414.81299050 Ry
     estimated scf accuracy    <       0.00002789 Ry

     total magnetization       =     2.11 Bohr mag/cell
     absolute magnetization    =     2.13 Bohr mag/cell

     iteration #  4     ecut=    60.00 Ry     beta= 0.30
     Davidson diagonalization with overlap
     ethr =  1.07E-07,  avg # of iterations =  4.0

     negative rho (up, down):  5.472E-04 1.159E-03

     total cpu time spent up to now is     1381.1 secs

     total energy              =    -414.81299730 Ry
     estimated scf accuracy    <       0.00010381 Ry

     total magnetization       =     2.10 Bohr mag/cell
     absolute magnetization    =     2.13 Bohr mag/cell

     iteration #  5     ecut=    60.00 Ry     beta= 0.30
     Davidson diagonalization with overlap
     ethr =  1.07E-07,  avg # of iterations =  1.0

     negative rho (up, down):  5.370E-04 1.173E-03

     total cpu time spent up to now is     1385.6 secs

     total energy              =    -414.81299362 Ry
     estimated scf accuracy    <       0.00003010 Ry

     total magnetization       =     2.11 Bohr mag/cell
     absolute magnetization    =     2.14 Bohr mag/cell

     iteration #  6     ecut=    60.00 Ry     beta= 0.30
     Davidson diagonalization with overlap
     ethr =  1.07E-07,  avg # of iterations =  2.0

     negative rho (up, down):  5.354E-04 1.179E-03

     total cpu time spent up to now is     1390.5 secs

     total energy              =    -414.81299748 Ry
     estimated scf accuracy    <       0.00000437 Ry

     total magnetization       =     2.12 Bohr mag/cell
     absolute magnetization    =     2.14 Bohr mag/cell

     iteration #  7     ecut=    60.00 Ry     beta= 0.30
     Davidson diagonalization with overlap
     ethr =  1.68E-08,  avg # of iterations =  1.0

     negative rho (up, down):  5.328E-04 1.185E-03

     total cpu time spent up to now is     1395.1 secs

     total energy              =    -414.81299712 Ry
     estimated scf accuracy    <       0.00000303 Ry

     total magnetization       =     2.12 Bohr mag/cell
     absolute magnetization    =     2.14 Bohr mag/cell

     iteration #  8     ecut=    60.00 Ry     beta= 0.30
     Davidson diagonalization with overlap
     ethr =  1.17E-08,  avg # of iterations =  1.5

     negative rho (up, down):  5.327E-04 1.186E-03

     total cpu time spent up to now is     1399.8 secs

     total energy              =    -414.81299744 Ry
     estimated scf accuracy    <       0.00000032 Ry

     total magnetization       =     2.11 Bohr mag/cell
     absolute magnetization    =     2.14 Bohr mag/cell

     iteration #  9     ecut=    60.00 Ry     beta= 0.30
     Davidson diagonalization with overlap
     ethr =  1.21E-09,  avg # of iterations =  1.5

     negative rho (up, down):  5.327E-04 1.187E-03

     total cpu time spent up to now is     1404.6 secs

     total energy              =    -414.81299749 Ry
     estimated scf accuracy    <       0.00000024 Ry

     total magnetization       =     2.11 Bohr mag/cell
     absolute magnetization    =     2.14 Bohr mag/cell

     iteration # 10     ecut=    60.00 Ry     beta= 0.30
     Davidson diagonalization with overlap
     ethr =  9.10E-10,  avg # of iterations =  1.5

     negative rho (up, down):  5.331E-04 1.187E-03

     total cpu time spent up to now is     1409.3 secs

     total energy              =    -414.81299747 Ry
     estimated scf accuracy    <       0.00000017 Ry

     total magnetization       =     2.11 Bohr mag/cell
     absolute magnetization    =     2.14 Bohr mag/cell

     iteration # 11     ecut=    60.00 Ry     beta= 0.30
     Davidson diagonalization with overlap
     ethr =  6.41E-10,  avg # of iterations =  2.0

     negative rho (up, down):  5.337E-04 1.187E-03

     total cpu time spent up to now is     1414.1 secs

     total energy              =    -414.81299750 Ry
     estimated scf accuracy    <       0.00000002 Ry

     total magnetization       =     2.11 Bohr mag/cell
     absolute magnetization    =     2.14 Bohr mag/cell

     iteration # 12     ecut=    60.00 Ry     beta= 0.30
     Davidson diagonalization with overlap
     ethr =  6.58E-11,  avg # of iterations =  6.0

     negative rho (up, down):  5.343E-04 1.186E-03

     total cpu time spent up to now is     1419.6 secs

     total energy              =    -414.81299750 Ry
     estimated scf accuracy    <       0.00000001 Ry

     total magnetization       =     2.11 Bohr mag/cell
     absolute magnetization    =     2.14 Bohr mag/cell

     iteration # 13     ecut=    60.00 Ry     beta= 0.30
     Davidson diagonalization with overlap
     ethr =  5.11E-11,  avg # of iterations =  2.0

     negative rho (up, down):  5.351E-04 1.186E-03
 
     Magnetic moment per site  (integrated on atomic sphere of radius R)
     atom   1 (R=0.040)  charge= 13.9747  magn=  0.5093
     atom   2 (R=0.040)  charge=  0.7324  magn=  0.0239
     atom   3 (R=0.040)  charge=  0.7324  magn=  0.0239
     atom   4 (R=0.040)  charge=  0.7324  magn=  0.0239
     atom   5 (R=0.040)  charge=  0.7324  magn=  0.0239
     atom   6 (R=0.049)  charge=  0.1500  magn=  0.0408
     atom   7 (R=0.049)  charge=  0.1500  magn=  0.0408

     total cpu time spent up to now is     1424.2 secs

     End of self-consistent calculation

 ------ SPIN UP ------------


          k = 0.0000 0.0000 0.0000 (108616 PWs)   bands (ev):

  -106.9270 -67.6828 -67.1333 -67.1333  -9.4717  -7.9354  -7.3682  -7.3682
    -5.3551  -5.1051  -4.9364  -4.2436  -4.2353  -4.2353  -3.5101  -1.5002
    -1.5002

 ------ SPIN DOWN ----------


          k = 0.0000 0.0000 0.0000 (108616 PWs)   bands (ev):

  -106.1565 -66.6602 -66.5244 -66.5244  -9.2723  -7.7183  -6.9151  -6.9151
    -4.9241  -4.6375  -4.4796  -3.5833  -3.5833  -3.2421  -2.5472  -0.9356
    -0.9356

     the Fermi energy is    -3.5866 ev

!    total energy              =    -414.81299749 Ry
     estimated scf accuracy    <          2.4E-09 Ry
     smearing contrib. (-TS)   =      -0.00321145 Ry
     internal energy E=F+TS    =    -414.80978604 Ry

     The total energy is F=E-TS. E is the sum of the following terms:
     one-electron contribution =    -665.89538339 Ry
     hartree contribution      =     331.46151027 Ry
     xc contribution           =     -41.13900015 Ry
     ewald contribution        =      23.34641670 Ry
     DFT-D3 Dispersion         =      -0.01053024 Ry
     one-center paw contrib.   =     -62.57279922 Ry

     total magnetization       =     2.11 Bohr mag/cell
     absolute magnetization    =     2.14 Bohr mag/cell

     convergence has been achieved in  13 iterations

     negative rho (up, down):  5.351E-04 1.186E-03

     Forces acting on atoms (cartesian axes, Ry/au):

     atom    1 type  1   force =     0.00000000    0.00000000    0.00000000
     atom    2 type  3   force =    -0.00720664    0.00611710    0.00611710
     atom    3 type  3   force =    -0.00720664   -0.00611710   -0.00611710
     atom    4 type  3   force =     0.00720664    0.00611710   -0.00611710
     atom    5 type  3   force =     0.00720664   -0.00611710    0.00611710
     atom    6 type  2   force =    -0.03155442    0.00000000    0.00000000
     atom    7 type  2   force =     0.03155442    0.00000000    0.00000000

     Total force =     0.049985     Total SCF correction =     0.000026
     Energy error            =      7.6E-04 Ry
     Gradient error          =      3.2E-02 Ry/Bohr

     number of scf cycles    =  15
     number of bfgs steps    =  14

     energy             old  =    -414.8122360194 Ry
     energy             new  =    -414.8129974875 Ry

     CASE: energy            _new < energy            _old

     new trust radius        =       0.0274013047 bohr
     new conv_thr            =       0.0000000076 Ry


ATOMIC_POSITIONS (angstrom)
Ni               8.0000000000        8.0000000000        8.0000000000
H                9.0665774738        8.8676257263        8.8676257263
H                9.0665774738        7.1323742737        7.1323742737
H                6.9334225262        8.8676257263        7.1323742737
H                6.9334225262        7.1323742737        8.8676257263
Mg              10.5401621358        8.0000000000        8.0000000000
Mg               5.4598378642        8.0000000000        8.0000000000



     Writing config-only to output data dir ./outdir/mg2nih4_unit.save/ :
     XML data file
     NEW-OLD atomic charge density approx. for the potential

     negative rho (up, down):  6.904E-04 9.665E-04
     Generating pointlists ...

     total cpu time spent up to now is     1438.1 secs

     Self-consistent Calculation

     iteration #  1     ecut=    60.00 Ry     beta= 0.30
     Davidson diagonalization with overlap
     ethr =  1.00E-06,  avg # of iterations =  4.5

     negative rho (up, down):  1.449E-03 1.805E-03

     total cpu time spent up to now is     1443.3 secs

     total energy              =    -414.81425426 Ry
     estimated scf accuracy    <       0.00073067 Ry

     total magnetization       =     2.04 Bohr mag/cell
     absolute magnetization    =     2.07 Bohr mag/cell

     iteration #  2     ecut=    60.00 Ry     beta= 0.30
     Davidson diagonalization with overlap
     ethr =  2.81E-06,  avg # of iterations =  3.0

     negative rho (up, down):  1.140E-03 1.572E-03

     total cpu time spent up to now is     1448.0 secs

     total energy              =    -414.81378979 Ry
     estimated scf accuracy    <       0.01429764 Ry

     total magnetization       =     2.37 Bohr mag/cell
     absolute magnetization    =     2.38 Bohr mag/cell

     iteration #  3     ecut=    60.00 Ry     beta= 0.30
     Davidson diagonalization with overlap
     ethr =  2.81E-06,  avg # of iterations =  2.0

     negative rho (up, down):  8.887E-04 1.406E-03

     total cpu time spent up to now is     1452.9 secs

     total energy              =    -414.81445196 Ry
     estimated scf accuracy    <       0.00009710 Ry

     total magnetization       =     2.06 Bohr mag/cell
     absolute magnetization    =     2.09 Bohr mag/cell

     iteration #  4     ecut=    60.00 Ry     beta= 0.30
     Davidson diagonalization with overlap
     ethr =  3.73E-07,  avg # of iterations =  3.5

     negative rho (up, down):  7.590E-04 1.292E-03

     total cpu time spent up to now is     1457.9 secs

     total energy              =    -414.81446217 Ry
     estimated scf accuracy    <       0.00022581 Ry

     total magnetization       =     2.06 Bohr mag/cell
     absolute magnetization    =     2.09 Bohr mag/cell

     iteration #  5     ecut=    60.00 Ry     beta= 0.30
     Davidson diagonalization with overlap
     ethr =  3.73E-07,  avg # of iterations =  1.0

     negative rho (up, down):  6.771E-04 1.254E-03

     total cpu time spent up to now is     1462.5 secs

     total energy              =    -414.81445943 Ry
     estimated scf accuracy    <       0.00005063 Ry

     total magnetization       =     2.07 Bohr mag/cell
     absolute magnetization    =     2.10 Bohr mag/cell

     iteration #  6     ecut=    60.00 Ry     beta= 0.30
     Davidson diagonalization with overlap
     ethr =  1.95E-07,  avg # of iterations =  2.0

     negative rho (up, down):  6.267E-04 1.219E-03

     total cpu time spent up to now is     1467.3 secs

     total energy              =    -414.81446725 Ry
     estimated scf accuracy    <       0.00003379 Ry

     total magnetization       =     2.08 Bohr mag/cell
     absolute magnetization    =     2.11 Bohr mag/cell

     iteration #  7     ecut=    60.00 Ry     beta= 0.30
     Davidson diagonalization with overlap
     ethr =  1.30E-07,  avg # of iterations =  1.0

     negative rho (up, down):  5.975E-04 1.200E-03

     total cpu time spent up to now is     1472.0 secs

     total energy              =    -414.81446900 Ry
     estimated scf accuracy    <       0.00000397 Ry

     total magnetization       =     2.07 Bohr mag/cell
     absolute magnetization    =     2.10 Bohr mag/cell

     iteration #  8     ecut=    60.00 Ry     beta= 0.30
     Davidson diagonalization with overlap
     ethr =  1.53E-08,  avg # of iterations =  1.5

     negative rho (up, down):  5.779E-04 1.185E-03

     total cpu time spent up to now is     1476.7 secs

     total energy              =    -414.81446964 Ry
     estimated scf accuracy    <       0.00000158 Ry

     total magnetization       =     2.07 Bohr mag/cell
     absolute magnetization    =     2.10 Bohr mag/cell

     iteration #  9     ecut=    60.00 Ry     beta= 0.30
     Davidson diagonalization with overlap
     ethr =  6.06E-09,  avg # of iterations =  1.0

     negative rho (up, down):  5.669E-04 1.177E-03

     total cpu time spent up to now is     1481.4 secs

     total energy              =    -414.81446997 Ry
     estimated scf accuracy    <       0.00000124 Ry

     total magnetization       =     2.07 Bohr mag/cell
     absolute magnetization    =     2.10 Bohr mag/cell

     iteration # 10     ecut=    60.00 Ry     beta= 0.30
     Davidson diagonalization with overlap
     ethr =  4.75E-09,  avg # of iterations =  2.0

     negative rho (up, down):  5.588E-04 1.169E-03

     total cpu time spent up to now is     1486.0 secs

     total energy              =    -414.81447008 Ry
     estimated scf accuracy    <       0.00000053 Ry

     total magnetization       =     2.07 Bohr mag/cell
     absolute magnetization    =     2.10 Bohr mag/cell

     iteration # 11     ecut=    60.00 Ry     beta= 0.30
     Davidson diagonalization with overlap
     ethr =  2.04E-09,  avg # of iterations =  5.0

     negative rho (up, down):  5.546E-04 1.163E-03

     total cpu time spent up to now is     1491.2 secs

     total energy              =    -414.81447048 Ry
     estimated scf accuracy    <       0.00000014 Ry

     total magnetization       =     2.06 Bohr mag/cell
     absolute magnetization    =     2.09 Bohr mag/cell

     iteration # 12     ecut=    60.00 Ry     beta= 0.30
     Davidson diagonalization with overlap
     ethr =  5.24E-10,  avg # of iterations =  4.0

     negative rho (up, down):  5.521E-04 1.160E-03

     total cpu time spent up to now is     1496.1 secs

     total energy              =    -414.81447052 Ry
     estimated scf accuracy    <          7.8E-09 Ry

     total magnetization       =     2.06 Bohr mag/cell
     absolute magnetization    =     2.09 Bohr mag/cell

     iteration # 13     ecut=    60.00 Ry     beta= 0.30
     Davidson diagonalization with overlap
     ethr =  2.98E-11,  avg # of iterations =  6.5

     negative rho (up, down):  5.500E-04 1.156E-03
 
     Magnetic moment per site  (integrated on atomic sphere of radius R)
     atom   1 (R=0.040)  charge= 13.9742  magn=  0.4839
     atom   2 (R=0.040)  charge=  0.7360  magn=  0.0233
     atom   3 (R=0.040)  charge=  0.7360  magn=  0.0233
     atom   4 (R=0.040)  charge=  0.7360  magn=  0.0233
     atom   5 (R=0.040)  charge=  0.7360  magn=  0.0233
     atom   6 (R=0.049)  charge=  0.1503  magn=  0.0404
     atom   7 (R=0.049)  charge=  0.1503  magn=  0.0404

     total cpu time spent up to now is     1501.4 secs

     End of self-consistent calculation

 ------ SPIN UP ------------


          k = 0.0000 0.0000 0.0000 (108616 PWs)   bands (ev):

  -106.9125 -67.6548 -67.1265 -67.1265  -9.4916  -7.9351  -7.3866  -7.3866
    -5.3515  -5.1089  -4.9375  -4.2437  -4.2057  -4.2057  -3.4946  -1.4926
    -1.4926

 ------ SPIN DOWN ----------


          k = 0.0000 0.0000 0.0000 (108616 PWs)   bands (ev):

  -106.1808 -66.6733 -66.5534 -66.5534  -9.2976  -7.7237  -6.9485  -6.9485
    -4.9403  -4.6643  -4.5021  -3.5816  -3.5816  -3.2491  -2.5468  -0.9300
    -0.9300

     the Fermi energy is    -3.5836 ev

!    total energy              =    -414.81447057 Ry
     estimated scf accuracy    <          5.8E-10 Ry
     smearing contrib. (-TS)   =      -0.00307375 Ry
     internal energy E=F+TS    =    -414.81139682 Ry

     The total energy is F=E-TS. E is the sum of the following terms:
     one-electron contribution =    -666.86284824 Ry
     hartree contribution      =     331.94275635 Ry
     xc contribution           =     -41.14638955 Ry
     ewald contribution        =      23.83872991 Ry
     DFT-D3 Dispersion         =      -0.01057491 Ry
     one-center paw contrib.   =     -62.57307038 Ry

     total magnetization       =     2.06 Bohr mag/cell
     absolute magnetization    =     2.09 Bohr mag/cell

     convergence has been achieved in  13 iterations

     negative rho (up, down):  5.500E-04 1.156E-03

     Forces acting on atoms (cartesian axes, Ry/au):

     atom    1 type  1   force =     0.00000000    0.00000000    0.00000000
     atom    2 type  3   force =    -0.00573847    0.00803824    0.00803824
     atom    3 type  3   force =    -0.00573847   -0.00803824   -0.00803824
     atom    4 type  3   force =     0.00573847    0.00803824   -0.00803824
     atom    5 type  3   force =     0.00573847   -0.00803824    0.00803824
     atom    6 type  2   force =    -0.03138934    0.00000000    0.00000000
     atom    7 type  2   force =     0.03138934    0.00000000    0.00000000

     Total force =     0.051178     Total SCF correction =     0.000007
     Energy error            =      1.5E-03 Ry
     Gradient error          =      3.1E-02 Ry/Bohr

     number of scf cycles    =  16
     number of bfgs steps    =  15

     energy             old  =    -414.8129974875 Ry
     energy             new  =    -414.8144705706 Ry

     CASE: energy            _new < energy            _old

     new trust radius        =       0.0411019570 bohr
     new conv_thr            =       0.0000000100 Ry


ATOMIC_POSITIONS (angstrom)
Ni               8.0000000000        8.0000000000        8.0000000000
H                9.0450246098        8.8655585932        8.8655585932
H                9.0450246098        7.1344414068        7.1344414068
H                6.9549753902        8.8655585932        7.1344414068
H                6.9549753902        7.1344414068        8.8655585932
Mg              10.5224497672        8.0000000000        8.0000000000
Mg               5.4775502328        8.0000000000        8.0000000000



     Writing config-only to output data dir ./outdir/mg2nih4_unit.save/ :
     XML data file
     NEW-OLD atomic charge density approx. for the potential

     negative rho (up, down):  6.734E-04 9.491E-04
     Generating pointlists ...

     total cpu time spent up to now is     1515.3 secs

     Self-consistent Calculation

     iteration #  1     ecut=    60.00 Ry     beta= 0.30
     Davidson diagonalization with overlap
     ethr =  1.00E-06,  avg # of iterations =  5.5

     negative rho (up, down):  6.934E-04 1.110E-03

     total cpu time spent up to now is     1520.3 secs

     total energy              =    -414.81682239 Ry
     estimated scf accuracy    <       0.00091497 Ry

     total magnetization       =     2.00 Bohr mag/cell
     absolute magnetization    =     2.03 Bohr mag/cell

     iteration #  2     ecut=    60.00 Ry     beta= 0.30
     Davidson diagonalization with overlap
     ethr =  3.52E-06,  avg # of iterations =  2.5

     negative rho (up, down):  6.590E-04 1.109E-03

     total cpu time spent up to now is     1524.9 secs

     total energy              =    -414.81660949 Ry
     estimated scf accuracy    <       0.00563017 Ry

     total magnetization       =     2.11 Bohr mag/cell
     absolute magnetization    =     2.14 Bohr mag/cell

     iteration #  3     ecut=    60.00 Ry     beta= 0.30
     Davidson diagonalization with overlap
     ethr =  3.52E-06,  avg # of iterations =  2.0

     negative rho (up, down):  6.051E-04 1.119E-03

     total cpu time spent up to now is     1529.7 secs

     total energy              =    -414.81700296 Ry
     estimated scf accuracy    <       0.00014128 Ry

     total magnetization       =     2.01 Bohr mag/cell
     absolute magnetization    =     2.04 Bohr mag/cell

     iteration #  4     ecut=    60.00 Ry     beta= 0.30
     Davidson diagonalization with overlap
     ethr =  5.43E-07,  avg # of iterations =  2.0

     negative rho (up, down):  5.881E-04 1.115E-03

     total cpu time spent up to now is     1534.4 secs

     total energy              =    -414.81701380 Ry
     estimated scf accuracy    <       0.00009411 Ry

     total magnetization       =     2.01 Bohr mag/cell
     absolute magnetization    =     2.04 Bohr mag/cell

     iteration #  5     ecut=    60.00 Ry     beta= 0.30
     Davidson diagonalization with overlap
     ethr =  3.62E-07,  avg # of iterations =  1.0

     negative rho (up, down):  5.728E-04 1.126E-03

     total cpu time spent up to now is     1539.1 secs

     total energy              =    -414.81702002 Ry
     estimated scf accuracy    <       0.00000965 Ry

     total magnetization       =     2.01 Bohr mag/cell
     absolute magnetization    =     2.04 Bohr mag/cell

     iteration #  6     ecut=    60.00 Ry     beta= 0.30
     Davidson diagonalization with overlap
     ethr =  3.71E-08,  avg # of iterations =  2.5

     negative rho (up, down):  5.688E-04 1.126E-03

     total cpu time spent up to now is     1544.0 secs

     total energy              =    -414.81702034 Ry
     estimated scf accuracy    <       0.00003064 Ry

     total magnetization       =     2.01 Bohr mag/cell
     absolute magnetization    =     2.05 Bohr mag/cell

     iteration #  7     ecut=    60.00 Ry     beta= 0.30
     Davidson diagonalization with overlap
     ethr =  3.71E-08,  avg # of iterations =  2.0

     negative rho (up, down):  5.664E-04 1.125E-03

     total cpu time spent up to now is     1548.8 secs

     total energy              =    -414.81702298 Ry
     estimated scf accuracy    <       0.00000108 Ry

     total magnetization       =     2.01 Bohr mag/cell
     absolute magnetization    =     2.04 Bohr mag/cell

     iteration #  8     ecut=    60.00 Ry     beta= 0.30
     Davidson diagonalization with overlap
     ethr =  4.16E-09,  avg # of iterations =  5.0

     negative rho (up, down):  5.653E-04 1.124E-03

     total cpu time spent up to now is     1553.8 secs

     total energy              =    -414.81702345 Ry
     estimated scf accuracy    <       0.00000137 Ry

     total magnetization       =     2.01 Bohr mag/cell
     absolute magnetization    =     2.04 Bohr mag/cell

     iteration #  9     ecut=    60.00 Ry     beta= 0.30
     Davidson diagonalization with overlap
     ethr =  4.16E-09,  avg # of iterations =  1.0

     negative rho (up, down):  5.651E-04 1.124E-03

     total cpu time spent up to now is     1558.6 secs

     total energy              =    -414.81702359 Ry
     estimated scf accuracy    <       0.00000042 Ry

     total magnetization       =     2.01 Bohr mag/cell
     absolute magnetization    =     2.04 Bohr mag/cell

     iteration # 10     ecut=    60.00 Ry     beta= 0.30
     Davidson diagonalization with overlap
     ethr =  1.61E-09,  avg # of iterations =  2.0

     negative rho (up, down):  5.657E-04 1.123E-03

     total cpu time spent up to now is     1563.4 secs

     total energy              =    -414.81702371 Ry
     estimated scf accuracy    <       0.00000010 Ry

     total magnetization       =     2.01 Bohr mag/cell
     absolute magnetization    =     2.04 Bohr mag/cell

     iteration # 11     ecut=    60.00 Ry     beta= 0.30
     Davidson diagonalization with overlap
     ethr =  3.66E-10,  avg # of iterations =  6.0

     negative rho (up, down):  5.661E-04 1.122E-03

     total cpu time spent up to now is     1568.8 secs

     total energy              =    -414.81702379 Ry
     estimated scf accuracy    <       0.00000002 Ry

     total magnetization       =     2.01 Bohr mag/cell
     absolute magnetization    =     2.04 Bohr mag/cell

     iteration # 12     ecut=    60.00 Ry     beta= 0.30
     Davidson diagonalization with overlap
     ethr =  9.23E-11,  avg # of iterations =  3.5

     negative rho (up, down):  5.672E-04 1.122E-03
 
     Magnetic moment per site  (integrated on atomic sphere of radius R)
     atom   1 (R=0.040)  charge= 13.9734  magn=  0.4550
     atom   2 (R=0.040)  charge=  0.7413  magn=  0.0227
     atom   3 (R=0.040)  charge=  0.7413  magn=  0.0227
     atom   4 (R=0.040)  charge=  0.7413  magn=  0.0227
     atom   5 (R=0.040)  charge=  0.7413  magn=  0.0227
     atom   6 (R=0.049)  charge=  0.1509  magn=  0.0399
     atom   7 (R=0.049)  charge=  0.1509  magn=  0.0399

     total cpu time spent up to now is     1573.7 secs

     End of self-consistent calculation

 ------ SPIN UP ------------


          k = 0.0000 0.0000 0.0000 (108616 PWs)   bands (ev):

  -106.9106 -67.6382 -67.1331 -67.1331  -9.5234  -7.9365  -7.4256  -7.4255
    -5.3687  -5.1256  -4.9528  -4.2373  -4.1829  -4.1829  -3.4666  -1.4805
    -1.4805

 ------ SPIN DOWN ----------


          k = 0.0000 0.0000 0.0000 (108616 PWs)   bands (ev):

  -106.2227 -66.7046 -66.5998 -66.5997  -9.3352  -7.7319  -7.0046  -7.0046
    -4.9794  -4.7047  -4.5414  -3.5912  -3.5912  -3.2508  -2.5362  -0.9205
    -0.9205

     the Fermi energy is    -3.5915 ev

!    total energy              =    -414.81702378 Ry
     estimated scf accuracy    <          8.8E-09 Ry
     smearing contrib. (-TS)   =      -0.00286939 Ry
     internal energy E=F+TS    =    -414.81415439 Ry

     The total energy is F=E-TS. E is the sum of the following terms:
     one-electron contribution =    -668.26570845 Ry
     hartree contribution      =     332.63043561 Ry
     xc contribution           =     -41.15759397 Ry
     ewald contribution        =      24.56316065 Ry
     DFT-D3 Dispersion         =      -0.01064809 Ry
     one-center paw contrib.   =     -62.57380014 Ry

     total magnetization       =     2.01 Bohr mag/cell
     absolute magnetization    =     2.04 Bohr mag/cell

     convergence has been achieved in  12 iterations

     negative rho (up, down):  5.672E-04 1.122E-03

     Forces acting on atoms (cartesian axes, Ry/au):

     atom    1 type  1   force =     0.00000000    0.00000000    0.00000000
     atom    2 type  3   force =    -0.00370663    0.01041823    0.01041823
     atom    3 type  3   force =    -0.00370663   -0.01041823   -0.01041823
     atom    4 type  3   force =     0.00370663    0.01041823   -0.01041823
     atom    5 type  3   force =     0.00370663   -0.01041823    0.01041823
     atom    6 type  2   force =    -0.03016390    0.00000000    0.00000000
     atom    7 type  2   force =     0.03016390    0.00000000    0.00000000

     Total force =     0.052374     Total SCF correction =     0.000033
     Energy error            =      2.6E-03 Ry
     Gradient error          =      3.0E-02 Ry/Bohr

     number of scf cycles    =  17
     number of bfgs steps    =  16

     energy             old  =    -414.8144705706 Ry
     energy             new  =    -414.8170237806 Ry

     CASE: energy            _new < energy            _old

     new trust radius        =       0.0616529356 bohr
     new conv_thr            =       0.0000000100 Ry


ATOMIC_POSITIONS (angstrom)
Ni               8.0000000000        8.0000000000        8.0000000000
H                9.0124142244        8.8662567412        8.8662567412
H                9.0124142244        7.1337432588        7.1337432588
H                6.9875857756        8.8662567412        7.1337432588
H                6.9875857756        7.1337432588        8.8662567412
Mg              10.4927216727        8.0000000000        8.0000000000
Mg               5.5072783273        8.0000000000        8.0000000000



     Writing config-only to output data dir ./outdir/mg2nih4_unit.save/ :
     XML data file
     NEW-OLD atomic charge density approx. for the potential

     negative rho (up, down):  7.168E-04 1.057E-03
     Generating pointlists ...

     total cpu time spent up to now is     1587.7 secs

     Self-consistent Calculation

     iteration #  1     ecut=    60.00 Ry     beta= 0.30
     Davidson diagonalization with overlap
     ethr =  1.00E-06,  avg # of iterations =  6.0

     negative rho (up, down):  4.731E-03 5.172E-03

     total cpu time spent up to now is     1593.0 secs

     total energy              =    -414.82075410 Ry
     estimated scf accuracy    <       0.00101136 Ry

     total magnetization       =     2.00 Bohr mag/cell
     absolute magnetization    =     2.03 Bohr mag/cell

     iteration #  2     ecut=    60.00 Ry     beta= 0.30
     Davidson diagonalization with overlap
     ethr =  3.89E-06,  avg # of iterations =  2.0

     negative rho (up, down):  3.346E-03 3.753E-03

     total cpu time spent up to now is     1597.6 secs

     total energy              =    -414.82070525 Ry
     estimated scf accuracy    <       0.00158692 Ry

     total magnetization       =     2.00 Bohr mag/cell
     absolute magnetization    =     2.03 Bohr mag/cell

     iteration #  3     ecut=    60.00 Ry     beta= 0.30
     Davidson diagonalization with overlap
     ethr =  3.89E-06,  avg # of iterations =  2.0

     negative rho (up, down):  2.352E-03 2.774E-03

     total cpu time spent up to now is     1602.1 secs

     total energy              =    -414.82083727 Ry
     estimated scf accuracy    <       0.00025031 Ry

     total magnetization       =     2.00 Bohr mag/cell
     absolute magnetization    =     2.03 Bohr mag/cell

     iteration #  4     ecut=    60.00 Ry     beta= 0.30
     Davidson diagonalization with overlap
     ethr =  9.63E-07,  avg # of iterations =  2.0

     negative rho (up, down):  1.791E-03 2.231E-03

     total cpu time spent up to now is     1606.8 secs

     total energy              =    -414.82085897 Ry
     estimated scf accuracy    <       0.00003883 Ry

     total magnetization       =     2.00 Bohr mag/cell
     absolute magnetization    =     2.03 Bohr mag/cell

     iteration #  5     ecut=    60.00 Ry     beta= 0.30
     Davidson diagonalization with overlap
     ethr =  1.49E-07,  avg # of iterations =  2.0

     negative rho (up, down):  1.348E-03 1.804E-03

     total cpu time spent up to now is     1611.5 secs

     total energy              =    -414.82087127 Ry
     estimated scf accuracy    <       0.00001290 Ry

     total magnetization       =     2.00 Bohr mag/cell
     absolute magnetization    =     2.03 Bohr mag/cell

     iteration #  6     ecut=    60.00 Ry     beta= 0.30
     Davidson diagonalization with overlap
     ethr =  4.96E-08,  avg # of iterations =  1.5

     negative rho (up, down):  1.075E-03 1.551E-03

     total cpu time spent up to now is     1616.0 secs

     total energy              =    -414.82087654 Ry
     estimated scf accuracy    <       0.00000058 Ry

     total magnetization       =     2.00 Bohr mag/cell
     absolute magnetization    =     2.03 Bohr mag/cell

     iteration #  7     ecut=    60.00 Ry     beta= 0.30
     Davidson diagonalization with overlap
     ethr =  2.23E-09,  avg # of iterations =  5.5

     negative rho (up, down):  8.914E-04 1.384E-03

     total cpu time spent up to now is     1621.4 secs

     total energy              =    -414.82087944 Ry
     estimated scf accuracy    <       0.00000134 Ry

     total magnetization       =     2.00 Bohr mag/cell
     absolute magnetization    =     2.03 Bohr mag/cell

     iteration #  8     ecut=    60.00 Ry     beta= 0.30
     Davidson diagonalization with overlap
     ethr =  2.23E-09,  avg # of iterations =  3.5

     negative rho (up, down):  7.687E-04 1.275E-03

     total cpu time spent up to now is     1626.4 secs

     total energy              =    -414.82088136 Ry
     estimated scf accuracy    <       0.00000072 Ry

     total magnetization       =     2.00 Bohr mag/cell
     absolute magnetization    =     2.03 Bohr mag/cell

     iteration #  9     ecut=    60.00 Ry     beta= 0.30
     Davidson diagonalization with overlap
     ethr =  2.23E-09,  avg # of iterations =  1.5

     negative rho (up, down):  6.900E-04 1.207E-03

     total cpu time spent up to now is     1631.1 secs

     total energy              =    -414.82088234 Ry
     estimated scf accuracy    <       0.00000034 Ry

     total magnetization       =     2.00 Bohr mag/cell
     absolute magnetization    =     2.03 Bohr mag/cell

     iteration # 10     ecut=    60.00 Ry     beta= 0.30
     Davidson diagonalization with overlap
     ethr =  1.30E-09,  avg # of iterations =  1.5

     negative rho (up, down):  6.418E-04 1.166E-03

     total cpu time spent up to now is     1635.9 secs

     total energy              =    -414.82088296 Ry
     estimated scf accuracy    <       0.00000001 Ry

     total magnetization       =     2.00 Bohr mag/cell
     absolute magnetization    =     2.03 Bohr mag/cell

     iteration # 11     ecut=    60.00 Ry     beta= 0.30
     Davidson diagonalization with overlap
     ethr =  4.82E-11,  avg # of iterations =  8.0

     negative rho (up, down):  5.716E-04 1.111E-03
 
     Magnetic moment per site  (integrated on atomic sphere of radius R)
     atom   1 (R=0.040)  charge= 13.9720  magn=  0.4454
     atom   2 (R=0.040)  charge=  0.7477  magn=  0.0230
     atom   3 (R=0.040)  charge=  0.7477  magn=  0.0230
     atom   4 (R=0.040)  charge=  0.7477  magn=  0.0230
     atom   5 (R=0.040)  charge=  0.7477  magn=  0.0230
     atom   6 (R=0.049)  charge=  0.1522  magn=  0.0395
     atom   7 (R=0.049)  charge=  0.1522  magn=  0.0395

     total cpu time spent up to now is     1641.1 secs

     End of self-consistent calculation

 ------ SPIN UP ------------


          k = 0.0000 0.0000 0.0000 (108616 PWs)   bands (ev):

  -106.9716 -67.6953 -67.1963 -67.1962  -9.5859  -7.9551  -7.5193  -7.5193
    -5.4589  -5.1841  -5.0172  -4.2191  -4.2064  -4.2064  -3.4252  -1.4649
    -1.4649

 ------ SPIN DOWN ----------


          k = 0.0000 0.0000 0.0000 (108616 PWs)   bands (ev):

  -106.2981 -66.7838 -66.6727 -66.6727  -9.3956  -7.7495  -7.1009  -7.1009
    -5.0744  -4.7614  -4.6129  -3.6292  -3.6292  -3.2341  -2.4988  -0.9033
    -0.9033

     the Fermi energy is    -3.6292 ev

!    total energy              =    -414.82088380 Ry
     estimated scf accuracy    <          3.6E-09 Ry
     smearing contrib. (-TS)   =      -0.00282112 Ry
     internal energy E=F+TS    =    -414.81806268 Ry

     The total energy is F=E-TS. E is the sum of the following terms:
     one-electron contribution =    -670.17852070 Ry
     hartree contribution      =     333.54215636 Ry
     xc contribution           =     -41.17513507 Ry
     ewald contribution        =      25.57958564 Ry
     DFT-D3 Dispersion         =      -0.01076172 Ry
     one-center paw contrib.   =     -62.57538718 Ry

     total magnetization       =     2.00 Bohr mag/cell
     absolute magnetization    =     2.03 Bohr mag/cell

     convergence has been achieved in  11 iterations

     negative rho (up, down):  5.716E-04 1.111E-03

     Forces acting on atoms (cartesian axes, Ry/au):

     atom    1 type  1   force =     0.00000000    0.00000000    0.00000000
     atom    2 type  3   force =    -0.00081383    0.01281599    0.01281599
     atom    3 type  3   force =    -0.00081383   -0.01281599   -0.01281599
     atom    4 type  3   force =     0.00081383    0.01281599   -0.01281599
     atom    5 type  3   force =     0.00081383   -0.01281599    0.01281599
     atom    6 type  2   force =    -0.02612538    0.00000000    0.00000000
     atom    7 type  2   force =     0.02612538   -0.00000000    0.00000000

     Total force =     0.051785     Total SCF correction =     0.000007
     Energy error            =      3.9E-03 Ry
     Gradient error          =      2.6E-02 Ry/Bohr

     number of scf cycles    =  18
     number of bfgs steps    =  17

     energy             old  =    -414.8170237806 Ry
     energy             new  =    -414.8208838000 Ry

     CASE: energy            _new < energy            _old

     new trust radius        =       0.0924794033 bohr
     new conv_thr            =       0.0000000100 Ry


ATOMIC_POSITIONS (angstrom)
Ni               8.0000000000        8.0000000000        8.0000000000
H                8.9645434607        8.8734441302        8.8734441302
H                8.9645434607        7.1265558698        7.1265558698
H                7.0354565393        8.8734441302        7.1265558698
H                7.0354565393        7.1265558698        8.8734441302
Mg              10.4456517615        8.0000000000        8.0000000000
Mg               5.5543482385        8.0000000000        8.0000000000



     Writing config-only to output data dir ./outdir/mg2nih4_unit.save/ :
     XML data file
     NEW-OLD atomic charge density approx. for the potential

     negative rho (up, down):  7.202E-04 9.938E-04
     Generating pointlists ...

     total cpu time spent up to now is     1655.4 secs

     Self-consistent Calculation

     iteration #  1     ecut=    60.00 Ry     beta= 0.30
     Davidson diagonalization with overlap
     ethr =  1.00E-06,  avg # of iterations =  6.0

     negative rho (up, down):  1.396E-03 1.791E-03

     total cpu time spent up to now is     1660.6 secs

     total energy              =    -414.82600291 Ry
     estimated scf accuracy    <       0.00166211 Ry

     total magnetization       =     2.00 Bohr mag/cell
     absolute magnetization    =     2.03 Bohr mag/cell

     iteration #  2     ecut=    60.00 Ry     beta= 0.30
     Davidson diagonalization with overlap
     ethr =  6.39E-06,  avg # of iterations =  1.0

     negative rho (up, down):  1.091E-03 1.511E-03

     total cpu time spent up to now is     1665.1 secs

     total energy              =    -414.82586860 Ry
     estimated scf accuracy    <       0.00132205 Ry

     total magnetization       =     2.00 Bohr mag/cell
     absolute magnetization    =     2.03 Bohr mag/cell

     iteration #  3     ecut=    60.00 Ry     beta= 0.30
     Davidson diagonalization with overlap
     ethr =  5.08E-06,  avg # of iterations =  2.0

     negative rho (up, down):  8.800E-04 1.360E-03

     total cpu time spent up to now is     1670.1 secs

     total energy              =    -414.82594781 Ry
     estimated scf accuracy    <       0.00088366 Ry

     total magnetization       =     2.00 Bohr mag/cell
     absolute magnetization    =     2.03 Bohr mag/cell

     iteration #  4     ecut=    60.00 Ry     beta= 0.30
     Davidson diagonalization with overlap
     ethr =  3.40E-06,  avg # of iterations =  1.0

     negative rho (up, down):  7.745E-04 1.284E-03

     total cpu time spent up to now is     1674.7 secs

     total energy              =    -414.82598560 Ry
     estimated scf accuracy    <       0.00006992 Ry

     total magnetization       =     2.00 Bohr mag/cell
     absolute magnetization    =     2.03 Bohr mag/cell

     iteration #  5     ecut=    60.00 Ry     beta= 0.30
     Davidson diagonalization with overlap
     ethr =  2.69E-07,  avg # of iterations =  4.0

     negative rho (up, down):  6.904E-04 1.205E-03

     total cpu time spent up to now is     1679.8 secs

     total energy              =    -414.82600961 Ry
     estimated scf accuracy    <       0.00026198 Ry

     total magnetization       =     2.00 Bohr mag/cell
     absolute magnetization    =     2.03 Bohr mag/cell

     iteration #  6     ecut=    60.00 Ry     beta= 0.30
     Davidson diagonalization with overlap
     ethr =  2.69E-07,  avg # of iterations =  2.0

     negative rho (up, down):  6.457E-04 1.169E-03

     total cpu time spent up to now is     1684.7 secs

     total energy              =    -414.82601472 Ry
     estimated scf accuracy    <       0.00004539 Ry

     total magnetization       =     2.00 Bohr mag/cell
     absolute magnetization    =     2.03 Bohr mag/cell

     iteration #  7     ecut=    60.00 Ry     beta= 0.30
     Davidson diagonalization with overlap
     ethr =  1.75E-07,  avg # of iterations =  1.0

     negative rho (up, down):  6.173E-04 1.145E-03

     total cpu time spent up to now is     1689.3 secs

     total energy              =    -414.82601789 Ry
     estimated scf accuracy    <       0.00000275 Ry

     total magnetization       =     2.00 Bohr mag/cell
     absolute magnetization    =     2.03 Bohr mag/cell

     iteration #  8     ecut=    60.00 Ry     beta= 0.30
     Davidson diagonalization with overlap
     ethr =  1.06E-08,  avg # of iterations =  5.0

     negative rho (up, down):  5.994E-04 1.129E-03

     total cpu time spent up to now is     1694.6 secs

     total energy              =    -414.82601941 Ry
     estimated scf accuracy    <       0.00000069 Ry

     total magnetization       =     2.00 Bohr mag/cell
     absolute magnetization    =     2.03 Bohr mag/cell

     iteration #  9     ecut=    60.00 Ry     beta= 0.30
     Davidson diagonalization with overlap
     ethr =  2.65E-09,  avg # of iterations =  5.0

     negative rho (up, down):  5.891E-04 1.120E-03

     total cpu time spent up to now is     1699.6 secs

     total energy              =    -414.82601968 Ry
     estimated scf accuracy    <       0.00000080 Ry

     total magnetization       =     2.00 Bohr mag/cell
     absolute magnetization    =     2.03 Bohr mag/cell

     iteration # 10     ecut=    60.00 Ry     beta= 0.30
     Davidson diagonalization with overlap
     ethr =  2.65E-09,  avg # of iterations =  1.5

     negative rho (up, down):  5.832E-04 1.114E-03

     total cpu time spent up to now is     1704.2 secs

     total energy              =    -414.82601972 Ry
     estimated scf accuracy    <       0.00000056 Ry

     total magnetization       =     2.00 Bohr mag/cell
     absolute magnetization    =     2.03 Bohr mag/cell

     iteration # 11     ecut=    60.00 Ry     beta= 0.30
     Davidson diagonalization with overlap
     ethr =  2.17E-09,  avg # of iterations =  2.0

     negative rho (up, down):  5.797E-04 1.111E-03

     total cpu time spent up to now is     1709.1 secs

     total energy              =    -414.82601985 Ry
     estimated scf accuracy    <       0.00000007 Ry

     total magnetization       =     2.00 Bohr mag/cell
     absolute magnetization    =     2.03 Bohr mag/cell

     iteration # 12     ecut=    60.00 Ry     beta= 0.30
     Davidson diagonalization with overlap
     ethr =  2.75E-10,  avg # of iterations =  2.0

     negative rho (up, down):  5.777E-04 1.110E-03

     total cpu time spent up to now is     1713.9 secs

     total energy              =    -414.82601985 Ry
     estimated scf accuracy    <       0.00000006 Ry

     total magnetization       =     2.00 Bohr mag/cell
     absolute magnetization    =     2.03 Bohr mag/cell

     iteration # 13     ecut=    60.00 Ry     beta= 0.30
     Davidson diagonalization with overlap
     ethr =  2.15E-10,  avg # of iterations =  2.0

     negative rho (up, down):  5.766E-04 1.109E-03

     total cpu time spent up to now is     1718.9 secs

     total energy              =    -414.82601988 Ry
     estimated scf accuracy    <       0.00000003 Ry

     total magnetization       =     2.00 Bohr mag/cell
     absolute magnetization    =     2.03 Bohr mag/cell

     iteration # 14     ecut=    60.00 Ry     beta= 0.30
     Davidson diagonalization with overlap
     ethr =  1.08E-10,  avg # of iterations =  1.5

     negative rho (up, down):  5.751E-04 1.108E-03
 
     Magnetic moment per site  (integrated on atomic sphere of radius R)
     atom   1 (R=0.040)  charge= 13.9704  magn=  0.4419
     atom   2 (R=0.040)  charge=  0.7546  magn=  0.0237
     atom   3 (R=0.040)  charge=  0.7546  magn=  0.0237
     atom   4 (R=0.040)  charge=  0.7546  magn=  0.0237
     atom   5 (R=0.040)  charge=  0.7546  magn=  0.0237
     atom   6 (R=0.049)  charge=  0.1544  magn=  0.0388
     atom   7 (R=0.049)  charge=  0.1544  magn=  0.0388

     total cpu time spent up to now is     1723.4 secs

     End of self-consistent calculation

 ------ SPIN UP ------------


          k = 0.0000 0.0000 0.0000 (108616 PWs)   bands (ev):

  -107.0840 -67.8066 -67.3090 -67.3090  -9.6640  -7.9792  -7.6534  -7.6534
    -5.6217  -5.2750  -5.1297  -4.2796  -4.2796  -4.1808  -3.3530  -1.4398
    -1.4398

 ------ SPIN DOWN ----------


          k = 0.0000 0.0000 0.0000 (108616 PWs)   bands (ev):

  -106.4158 -66.9105 -66.7857 -66.7857  -9.4684  -7.7698  -7.2342  -7.2342
    -5.2359  -4.8413  -4.7271  -3.7118  -3.7118  -3.1966  -2.4283  -0.8769
    -0.8769

     the Fermi energy is    -3.7118 ev

!    total energy              =    -414.82601990 Ry
     estimated scf accuracy    <          1.4E-09 Ry
     smearing contrib. (-TS)   =      -0.00282095 Ry
     internal energy E=F+TS    =    -414.82319896 Ry

     The total energy is F=E-TS. E is the sum of the following terms:
     one-electron contribution =    -672.64229867 Ry
     hartree contribution      =     334.69616348 Ry
     xc contribution           =     -41.19731549 Ry
     ewald contribution        =      26.90942816 Ry
     DFT-D3 Dispersion         =      -0.01093159 Ry
     one-center paw contrib.   =     -62.57824485 Ry

     total magnetization       =     2.00 Bohr mag/cell
     absolute magnetization    =     2.03 Bohr mag/cell

     convergence has been achieved in  14 iterations

     negative rho (up, down):  5.751E-04 1.108E-03

     Forces acting on atoms (cartesian axes, Ry/au):

     atom    1 type  1   force =     0.00000000    0.00000000    0.00000000
     atom    2 type  3   force =     0.00277572    0.01480051    0.01480051
     atom    3 type  3   force =     0.00277572   -0.01480051   -0.01480051
     atom    4 type  3   force =    -0.00277572    0.01480051   -0.01480051
     atom    5 type  3   force =    -0.00277572   -0.01480051    0.01480051
     atom    6 type  2   force =    -0.01846288    0.00000000   -0.00000000
     atom    7 type  2   force =     0.01846288   -0.00000000    0.00000000

     Total force =     0.049649     Total SCF correction =     0.000010
     Energy error            =      5.1E-03 Ry
     Gradient error          =      1.8E-02 Ry/Bohr

     number of scf cycles    =  19
     number of bfgs steps    =  18

     energy             old  =    -414.8208838000 Ry
     energy             new  =    -414.8260199046 Ry

     CASE: energy            _new < energy            _old

     new trust radius        =       0.1387191050 bohr
     new conv_thr            =       0.0000000100 Ry


ATOMIC_POSITIONS (angstrom)
Ni               8.0000000000        8.0000000000        8.0000000000
H                8.8977450955        8.8949681220        8.8949681220
H                8.8977450955        7.1050318780        7.1050318780
H                7.1022549045        8.8949681220        7.1050318780
H                7.1022549045        7.1050318780        8.8949681220
Mg              10.3763983135        8.0000000000        8.0000000000
Mg               5.6236016865        8.0000000000        8.0000000000



     Writing config-only to output data dir ./outdir/mg2nih4_unit.save/ :
     XML data file
     NEW-OLD atomic charge density approx. for the potential

     negative rho (up, down):  7.213E-04 1.144E-03
     Generating pointlists ...

     total cpu time spent up to now is     1737.5 secs

     Self-consistent Calculation

     iteration #  1     ecut=    60.00 Ry     beta= 0.30
     Davidson diagonalization with overlap
     ethr =  1.00E-06,  avg # of iterations =  7.0

     negative rho (up, down):  4.091E-03 5.046E-03

     total cpu time spent up to now is     1743.2 secs

     total energy              =    -414.83166041 Ry
     estimated scf accuracy    <       0.00275730 Ry

     total magnetization       =     2.00 Bohr mag/cell
     absolute magnetization    =     2.02 Bohr mag/cell

     iteration #  2     ecut=    60.00 Ry     beta= 0.30
     Davidson diagonalization with overlap
     ethr =  1.06E-05,  avg # of iterations =  1.0

     negative rho (up, down):  2.983E-03 3.824E-03

     total cpu time spent up to now is     1747.7 secs

     total energy              =    -414.83144645 Ry
     estimated scf accuracy    <       0.00103733 Ry

     total magnetization       =     2.00 Bohr mag/cell
     absolute magnetization    =     2.02 Bohr mag/cell

     iteration #  3     ecut=    60.00 Ry     beta= 0.30
     Davidson diagonalization with overlap
     ethr =  3.99E-06,  avg # of iterations =  2.0

     negative rho (up, down):  2.107E-03 2.845E-03

     total cpu time spent up to now is     1752.6 secs

     total energy              =    -414.83158998 Ry
     estimated scf accuracy    <       0.00003121 Ry

     total magnetization       =     2.00 Bohr mag/cell
     absolute magnetization    =     2.02 Bohr mag/cell

     iteration #  4     ecut=    60.00 Ry     beta= 0.30
     Davidson diagonalization with overlap
     ethr =  1.20E-07,  avg # of iterations =  4.0

     negative rho (up, down):  1.513E-03 2.182E-03

     total cpu time spent up to now is     1757.5 secs

     total energy              =    -414.83160558 Ry
     estimated scf accuracy    <       0.00003413 Ry

     total magnetization       =     2.00 Bohr mag/cell
     absolute magnetization    =     2.02 Bohr mag/cell

     iteration #  5     ecut=    60.00 Ry     beta= 0.30
     Davidson diagonalization with overlap
     ethr =  1.20E-07,  avg # of iterations =  1.0

     negative rho (up, down):  1.194E-03 1.822E-03

     total cpu time spent up to now is     1762.1 secs

     total energy              =    -414.83161791 Ry
     estimated scf accuracy    <       0.00000509 Ry

     total magnetization       =     2.00 Bohr mag/cell
     absolute magnetization    =     2.03 Bohr mag/cell

     iteration #  6     ecut=    60.00 Ry     beta= 0.30
     Davidson diagonalization with overlap
     ethr =  1.96E-08,  avg # of iterations =  4.5

     negative rho (up, down):  9.464E-04 1.546E-03

     total cpu time spent up to now is     1767.2 secs

     total energy              =    -414.83162329 Ry
     estimated scf accuracy    <       0.00000144 Ry

     total magnetization       =     2.00 Bohr mag/cell
     absolute magnetization    =     2.03 Bohr mag/cell

     iteration #  7     ecut=    60.00 Ry     beta= 0.30
     Davidson diagonalization with overlap
     ethr =  5.55E-09,  avg # of iterations =  5.0

     negative rho (up, down):  7.948E-04 1.374E-03

     total cpu time spent up to now is     1772.7 secs

     total energy              =    -414.83162657 Ry
     estimated scf accuracy    <       0.00000028 Ry

     total magnetization       =     2.00 Bohr mag/cell
     absolute magnetization    =     2.03 Bohr mag/cell

     iteration #  8     ecut=    60.00 Ry     beta= 0.30
     Davidson diagonalization with overlap
     ethr =  1.09E-09,  avg # of iterations =  3.0

     negative rho (up, down):  7.035E-04 1.268E-03

     total cpu time spent up to now is     1777.5 secs

     total energy              =    -414.83162823 Ry
     estimated scf accuracy    <       0.00000003 Ry

     total magnetization       =     2.00 Bohr mag/cell
     absolute magnetization    =     2.03 Bohr mag/cell

     iteration #  9     ecut=    60.00 Ry     beta= 0.30
     Davidson diagonalization with overlap
     ethr =  1.18E-10,  avg # of iterations =  4.0

     negative rho (up, down):  6.498E-04 1.203E-03

     total cpu time spent up to now is     1782.4 secs

     total energy              =    -414.83162926 Ry
     estimated scf accuracy    <       0.00000002 Ry

     total magnetization       =     2.00 Bohr mag/cell
     absolute magnetization    =     2.03 Bohr mag/cell

     iteration # 10     ecut=    60.00 Ry     beta= 0.30
     Davidson diagonalization with overlap
     ethr =  7.84E-11,  avg # of iterations =  3.0

     negative rho (up, down):  5.812E-04 1.106E-03
 
     Magnetic moment per site  (integrated on atomic sphere of radius R)
     atom   1 (R=0.040)  charge= 13.9687  magn=  0.4451
     atom   2 (R=0.040)  charge=  0.7568  magn=  0.0247
     atom   3 (R=0.040)  charge=  0.7568  magn=  0.0247
     atom   4 (R=0.040)  charge=  0.7568  magn=  0.0247
     atom   5 (R=0.040)  charge=  0.7568  magn=  0.0247
     atom   6 (R=0.049)  charge=  0.1580  magn=  0.0375
     atom   7 (R=0.049)  charge=  0.1580  magn=  0.0375

     total cpu time spent up to now is     1787.2 secs

     End of self-consistent calculation

 ------ SPIN UP ------------


          k = 0.0000 0.0000 0.0000 (108616 PWs)   bands (ev):

  -107.2634 -67.9873 -67.4873 -67.4872  -9.7385  -8.0017  -7.8054  -7.8054
    -5.8853  -5.3921  -5.3062  -4.4451  -4.4451  -4.1099  -3.2325  -1.4009
    -1.4009

 ------ SPIN DOWN ----------


          k = 0.0000 0.0000 0.0000 (108616 PWs)   bands (ev):

  -106.5905 -67.0966 -66.9544 -66.9544  -9.5353  -7.7847  -7.3829  -7.3829
    -5.4915  -4.9415  -4.8994  -3.8794  -3.8794  -3.1283  -2.3115  -0.8408
    -0.8407

     the Fermi energy is    -3.8794 ev

!    total energy              =    -414.83163081 Ry
     estimated scf accuracy    <          4.4E-09 Ry
     smearing contrib. (-TS)   =      -0.00282096 Ry
     internal energy E=F+TS    =    -414.82880985 Ry

     The total energy is F=E-TS. E is the sum of the following terms:
     one-electron contribution =    -675.27269414 Ry
     hartree contribution      =     335.89113295 Ry
     xc contribution           =     -41.21710799 Ry
     ewald contribution        =      28.36402599 Ry
     DFT-D3 Dispersion         =      -0.01116748 Ry
     one-center paw contrib.   =     -62.58299917 Ry

     total magnetization       =     2.00 Bohr mag/cell
     absolute magnetization    =     2.03 Bohr mag/cell

     convergence has been achieved in  10 iterations

     negative rho (up, down):  5.812E-04 1.106E-03

     Forces acting on atoms (cartesian axes, Ry/au):

     atom    1 type  1   force =     0.00000000    0.00000000    0.00000000
     atom    2 type  3   force =     0.00582384    0.01385489    0.01385489
     atom    3 type  3   force =     0.00582384   -0.01385489   -0.01385489
     atom    4 type  3   force =    -0.00582384    0.01385489   -0.01385489
     atom    5 type  3   force =    -0.00582384   -0.01385489    0.01385489
     atom    6 type  2   force =    -0.00477026    0.00000000    0.00000000
     atom    7 type  2   force =     0.00477026    0.00000000    0.00000000

     Total force =     0.041435     Total SCF correction =     0.000038
     Energy error            =      5.6E-03 Ry
     Gradient error          =      1.4E-02 Ry/Bohr

     number of scf cycles    =  20
     number of bfgs steps    =  19

     energy             old  =    -414.8260199046 Ry
     energy             new  =    -414.8316308103 Ry

     CASE: energy            _new < energy            _old

     new trust radius        =       0.0906666662 bohr
     new conv_thr            =       0.0000000100 Ry


ATOMIC_POSITIONS (angstrom)
Ni               8.0000000000        8.0000000000        8.0000000000
H                8.8648776778        8.9196834181        8.9196834181
H                8.8648776778        7.0803165819        7.0803165819
H                7.1351223222        8.9196834181        7.0803165819
H                7.1351223222        7.0803165819        8.9196834181
Mg              10.3434382697        8.0000000000        8.0000000000
Mg               5.6565617303        8.0000000000        8.0000000000



     Writing config-only to output data dir ./outdir/mg2nih4_unit.save/ :
     XML data file
     NEW-OLD atomic charge density approx. for the potential

     negative rho (up, down):  6.948E-04 1.191E-03
     Generating pointlists ...

     total cpu time spent up to now is     1801.3 secs

     Self-consistent Calculation

     iteration #  1     ecut=    60.00 Ry     beta= 0.30
     Davidson diagonalization with overlap
     ethr =  1.00E-06,  avg # of iterations =  6.0

     negative rho (up, down):  1.206E-02 1.313E-02

     total cpu time spent up to now is     1807.2 secs

     total energy              =    -414.83442237 Ry
     estimated scf accuracy    <       0.00089310 Ry

     total magnetization       =     1.95 Bohr mag/cell
     absolute magnetization    =     1.98 Bohr mag/cell

     iteration #  2     ecut=    60.00 Ry     beta= 0.30
     Davidson diagonalization with overlap
     ethr =  3.44E-06,  avg # of iterations =  1.0

     negative rho (up, down):  8.428E-03 9.275E-03

     total cpu time spent up to now is     1811.6 secs

     total energy              =    -414.83431079 Ry
     estimated scf accuracy    <       0.00315915 Ry

     total magnetization       =     1.81 Bohr mag/cell
     absolute magnetization    =     1.84 Bohr mag/cell

     iteration #  3     ecut=    60.00 Ry     beta= 0.30
     Davidson diagonalization with overlap
     ethr =  3.44E-06,  avg # of iterations =  1.0

     negative rho (up, down):  5.929E-03 6.590E-03

     total cpu time spent up to now is     1816.1 secs

     total energy              =    -414.83450966 Ry
     estimated scf accuracy    <       0.00060746 Ry

     total magnetization       =     1.97 Bohr mag/cell
     absolute magnetization    =     1.99 Bohr mag/cell

     iteration #  4     ecut=    60.00 Ry     beta= 0.30
     Davidson diagonalization with overlap
     ethr =  2.34E-06,  avg # of iterations =  1.5

     negative rho (up, down):  4.137E-03 4.692E-03

     total cpu time spent up to now is     1820.7 secs

     total energy              =    -414.83456881 Ry
     estimated scf accuracy    <       0.00008624 Ry

     total magnetization       =     1.95 Bohr mag/cell
     absolute magnetization    =     1.98 Bohr mag/cell

     iteration #  5     ecut=    60.00 Ry     beta= 0.30
     Davidson diagonalization with overlap
     ethr =  3.32E-07,  avg # of iterations =  1.5

     negative rho (up, down):  3.053E-03 3.551E-03

     total cpu time spent up to now is     1825.3 secs

     total energy              =    -414.83459368 Ry
     estimated scf accuracy    <       0.00000373 Ry

     total magnetization       =     1.93 Bohr mag/cell
     absolute magnetization    =     1.96 Bohr mag/cell

     iteration #  6     ecut=    60.00 Ry     beta= 0.30
     Davidson diagonalization with overlap
     ethr =  1.43E-08,  avg # of iterations =  5.0

     negative rho (up, down):  2.229E-03 2.693E-03

     total cpu time spent up to now is     1830.3 secs

     total energy              =    -414.83460596 Ry
     estimated scf accuracy    <       0.00001479 Ry

     total magnetization       =     1.93 Bohr mag/cell
     absolute magnetization    =     1.95 Bohr mag/cell

     iteration #  7     ecut=    60.00 Ry     beta= 0.30
     Davidson diagonalization with overlap
     ethr =  1.43E-08,  avg # of iterations =  2.0

     negative rho (up, down):  1.618E-03 2.073E-03

     total cpu time spent up to now is     1835.1 secs

     total energy              =    -414.83461546 Ry
     estimated scf accuracy    <       0.00000009 Ry

     total magnetization       =     1.93 Bohr mag/cell
     absolute magnetization    =     1.96 Bohr mag/cell

     iteration #  8     ecut=    60.00 Ry     beta= 0.30
     Davidson diagonalization with overlap
     ethr =  3.51E-10,  avg # of iterations =  9.5

     negative rho (up, down):  1.222E-03 1.681E-03

     total cpu time spent up to now is     1840.6 secs

     total energy              =    -414.83462187 Ry
     estimated scf accuracy    <       0.00000004 Ry

     total magnetization       =     1.93 Bohr mag/cell
     absolute magnetization    =     1.96 Bohr mag/cell

     iteration #  9     ecut=    60.00 Ry     beta= 0.30
     Davidson diagonalization with overlap
     ethr =  1.70E-10,  avg # of iterations =  3.0

     negative rho (up, down):  9.687E-04 1.436E-03

     total cpu time spent up to now is     1845.5 secs

     total energy              =    -414.83462612 Ry
     estimated scf accuracy    <       0.00000002 Ry

     total magnetization       =     1.93 Bohr mag/cell
     absolute magnetization    =     1.96 Bohr mag/cell

     iteration # 10     ecut=    60.00 Ry     beta= 0.30
     Davidson diagonalization with overlap
     ethr =  7.57E-11,  avg # of iterations =  3.5

     negative rho (up, down):  8.150E-04 1.290E-03

     total cpu time spent up to now is     1850.4 secs

     total energy              =    -414.83462861 Ry
     estimated scf accuracy    <       0.00000003 Ry

     total magnetization       =     1.93 Bohr mag/cell
     absolute magnetization    =     1.96 Bohr mag/cell

     iteration # 11     ecut=    60.00 Ry     beta= 0.30
     Davidson diagonalization with overlap
     ethr =  7.57E-11,  avg # of iterations =  2.0

     negative rho (up, down):  5.915E-04 1.077E-03
 
     Magnetic moment per site  (integrated on atomic sphere of radius R)
     atom   1 (R=0.040)  charge= 13.9679  magn=  0.4395
     atom   2 (R=0.040)  charge=  0.7475  magn=  0.0241
     atom   3 (R=0.040)  charge=  0.7475  magn=  0.0241
     atom   4 (R=0.040)  charge=  0.7475  magn=  0.0241
     atom   5 (R=0.040)  charge=  0.7475  magn=  0.0241
     atom   6 (R=0.049)  charge=  0.1592  magn=  0.0354
     atom   7 (R=0.049)  charge=  0.1592  magn=  0.0354

     total cpu time spent up to now is     1855.2 secs

     End of self-consistent calculation

 ------ SPIN UP ------------


          k = 0.0000 0.0000 0.0000 (108616 PWs)   bands (ev):

  -107.3047 -68.0198 -67.5323 -67.5320  -9.6898  -7.9436  -7.7807  -7.7806
    -5.9779  -5.4101  -5.3508  -4.5358  -4.5357  -4.0674  -3.1572  -1.3761
    -1.3761

 ------ SPIN DOWN ----------


          k = 0.0000 0.0000 0.0000 (108616 PWs)   bands (ev):

  -106.6414 -67.1444 -67.0057 -67.0056  -9.4929  -7.7304  -7.3717  -7.3717
    -5.5880  -4.9633  -4.9506  -3.9813  -3.9813  -3.1083  -2.2636  -0.8351
    -0.8349

     the Fermi energy is    -3.9792 ev

!    total energy              =    -414.83463235 Ry
     estimated scf accuracy    <          3.9E-09 Ry
     smearing contrib. (-TS)   =      -0.00308151 Ry
     internal energy E=F+TS    =    -414.83155084 Ry

     The total energy is F=E-TS. E is the sum of the following terms:
     one-electron contribution =    -675.43914238 Ry
     hartree contribution      =     335.94138896 Ry
     xc contribution           =     -41.20449724 Ry
     ewald contribution        =      28.46638399 Ry
     DFT-D3 Dispersion         =      -0.01126376 Ry
     one-center paw contrib.   =     -62.58442041 Ry

     total magnetization       =     1.93 Bohr mag/cell
     absolute magnetization    =     1.96 Bohr mag/cell

     convergence has been achieved in  11 iterations

     negative rho (up, down):  5.915E-04 1.077E-03

     Forces acting on atoms (cartesian axes, Ry/au):

     atom    1 type  1   force =     0.00000000    0.00000000    0.00000000
     atom    2 type  3   force =     0.00481276    0.00841823    0.00841823
     atom    3 type  3   force =     0.00481276   -0.00841823   -0.00841823
     atom    4 type  3   force =    -0.00481276    0.00841823   -0.00841823
     atom    5 type  3   force =    -0.00481276   -0.00841823    0.00841823
     atom    6 type  2   force =     0.00034249    0.00000000   -0.00000000
     atom    7 type  2   force =    -0.00034249    0.00000000    0.00000000

     Total force =     0.025687     Total SCF correction =     0.000027
     Energy error            =      3.0E-03 Ry
     Gradient error          =      8.4E-03 Ry/Bohr

     number of scf cycles    =  21
     number of bfgs steps    =  20

     energy             old  =    -414.8316308103 Ry
     energy             new  =    -414.8346323495 Ry

     CASE: energy            _new < energy            _old

     new trust radius        =       0.0590310508 bohr
     new conv_thr            =       0.0000000084 Ry


ATOMIC_POSITIONS (angstrom)
Ni               8.0000000000        8.0000000000        8.0000000000
H                8.8575192473        8.9411503587        8.9411503587
H                8.8575192473        7.0588496413        7.0588496413
H                7.1424807527        8.9411503587        7.0588496413
H                7.1424807527        7.0588496413        8.9411503587
Mg              10.3331450039        8.0000000000        8.0000000000
Mg               5.6668549961        8.0000000000        8.0000000000



     Writing config-only to output data dir ./outdir/mg2nih4_unit.save/ :
     XML data file
     NEW-OLD atomic charge density approx. for the potential

     negative rho (up, down):  6.770E-04 9.281E-04
     Generating pointlists ...

     total cpu time spent up to now is     1869.3 secs

     Self-consistent Calculation

     iteration #  1     ecut=    60.00 Ry     beta= 0.30
     Davidson diagonalization with overlap
     ethr =  1.00E-06,  avg # of iterations =  4.5

     negative rho (up, down):  6.761E-04 1.011E-03

     total cpu time spent up to now is     1874.5 secs

     total energy              =    -414.83532254 Ry
     estimated scf accuracy    <       0.00302544 Ry

     total magnetization       =     1.67 Bohr mag/cell
     absolute magnetization    =     1.70 Bohr mag/cell

     iteration #  2     ecut=    60.00 Ry     beta= 0.30
     Davidson diagonalization with overlap
     ethr =  1.16E-05,  avg # of iterations =  2.0

     negative rho (up, down):  6.725E-04 1.034E-03

     total cpu time spent up to now is     1879.2 secs

     total energy              =    -414.83499080 Ry
     estimated scf accuracy    <       0.03071248 Ry

     total magnetization       =     2.00 Bohr mag/cell
     absolute magnetization    =     2.03 Bohr mag/cell

     iteration #  3     ecut=    60.00 Ry     beta= 0.30
     Davidson diagonalization with overlap
     ethr =  1.16E-05,  avg # of iterations =  2.0

     negative rho (up, down):  6.440E-04 1.033E-03

     total cpu time spent up to now is     1884.0 secs

     total energy              =    -414.83611409 Ry
     estimated scf accuracy    <       0.00056768 Ry

     total magnetization       =     1.84 Bohr mag/cell
     absolute magnetization    =     1.86 Bohr mag/cell

     iteration #  4     ecut=    60.00 Ry     beta= 0.30
     Davidson diagonalization with overlap
     ethr =  2.18E-06,  avg # of iterations =  2.0

     negative rho (up, down):  6.190E-04 1.009E-03

     total cpu time spent up to now is     1888.8 secs

     total energy              =    -414.83617831 Ry
     estimated scf accuracy    <       0.00569951 Ry

     total magnetization       =     1.58 Bohr mag/cell
     absolute magnetization    =     1.61 Bohr mag/cell

     iteration #  5     ecut=    60.00 Ry     beta= 0.30
     Davidson diagonalization with overlap
     ethr =  2.18E-06,  avg # of iterations =  1.0

     negative rho (up, down):  6.110E-04 1.007E-03

     total cpu time spent up to now is     1893.4 secs

     total energy              =    -414.83617889 Ry
     estimated scf accuracy    <       0.00047615 Ry

     total magnetization       =     1.73 Bohr mag/cell
     absolute magnetization    =     1.76 Bohr mag/cell

     iteration #  6     ecut=    60.00 Ry     beta= 0.30
     Davidson diagonalization with overlap
     ethr =  1.83E-06,  avg # of iterations =  1.0

     negative rho (up, down):  6.113E-04 1.019E-03

     total cpu time spent up to now is     1898.0 secs

     total energy              =    -414.83622617 Ry
     estimated scf accuracy    <       0.00149106 Ry

     total magnetization       =     1.87 Bohr mag/cell
     absolute magnetization    =     1.90 Bohr mag/cell

     iteration #  7     ecut=    60.00 Ry     beta= 0.30
     Davidson diagonalization with overlap
     ethr =  1.83E-06,  avg # of iterations =  1.0

     negative rho (up, down):  6.099E-04 1.022E-03

     total cpu time spent up to now is     1902.7 secs

     total energy              =    -414.83622945 Ry
     estimated scf accuracy    <       0.00022798 Ry

     total magnetization       =     1.81 Bohr mag/cell
     absolute magnetization    =     1.84 Bohr mag/cell

     iteration #  8     ecut=    60.00 Ry     beta= 0.30
     Davidson diagonalization with overlap
     ethr =  8.77E-07,  avg # of iterations =  1.0

     negative rho (up, down):  6.083E-04 1.019E-03

     total cpu time spent up to now is     1907.4 secs

     total energy              =    -414.83623971 Ry
     estimated scf accuracy    <       0.00001884 Ry

     total magnetization       =     1.76 Bohr mag/cell
     absolute magnetization    =     1.79 Bohr mag/cell

     iteration #  9     ecut=    60.00 Ry     beta= 0.30
     Davidson diagonalization with overlap
     ethr =  7.25E-08,  avg # of iterations =  1.0

     negative rho (up, down):  6.073E-04 1.015E-03

     total cpu time spent up to now is     1912.1 secs

     total energy              =    -414.83623915 Ry
     estimated scf accuracy    <       0.00003681 Ry

     total magnetization       =     1.76 Bohr mag/cell
     absolute magnetization    =     1.78 Bohr mag/cell

     iteration # 10     ecut=    60.00 Ry     beta= 0.30
     Davidson diagonalization with overlap
     ethr =  7.25E-08,  avg # of iterations =  1.0

     negative rho (up, down):  6.070E-04 1.013E-03

     total cpu time spent up to now is     1916.8 secs

     total energy              =    -414.83623915 Ry
     estimated scf accuracy    <       0.00000862 Ry

     total magnetization       =     1.76 Bohr mag/cell
     absolute magnetization    =     1.79 Bohr mag/cell

     iteration # 11     ecut=    60.00 Ry     beta= 0.30
     Davidson diagonalization with overlap
     ethr =  3.32E-08,  avg # of iterations =  1.0

     negative rho (up, down):  6.070E-04 1.013E-03

     total cpu time spent up to now is     1921.5 secs

     total energy              =    -414.83623925 Ry
     estimated scf accuracy    <       0.00000068 Ry

     total magnetization       =     1.77 Bohr mag/cell
     absolute magnetization    =     1.79 Bohr mag/cell

     iteration # 12     ecut=    60.00 Ry     beta= 0.30
     Davidson diagonalization with overlap
     ethr =  2.63E-09,  avg # of iterations =  3.0

     negative rho (up, down):  6.070E-04 1.013E-03

     total cpu time spent up to now is     1926.2 secs

     total energy              =    -414.83623932 Ry
     estimated scf accuracy    <       0.00000003 Ry

     total magnetization       =     1.77 Bohr mag/cell
     absolute magnetization    =     1.80 Bohr mag/cell

     iteration # 13     ecut=    60.00 Ry     beta= 0.30
     Davidson diagonalization with overlap
     ethr =  1.26E-10,  avg # of iterations =  7.5

     negative rho (up, down):  6.070E-04 1.013E-03

     total cpu time spent up to now is     1932.2 secs

     total energy              =    -414.83623936 Ry
     estimated scf accuracy    <       0.00000004 Ry

     total magnetization       =     1.77 Bohr mag/cell
     absolute magnetization    =     1.80 Bohr mag/cell

     iteration # 14     ecut=    60.00 Ry     beta= 0.30
     Davidson diagonalization with overlap
     ethr =  1.26E-10,  avg # of iterations =  1.0

     negative rho (up, down):  6.070E-04 1.013E-03

     total cpu time spent up to now is     1936.9 secs

     total energy              =    -414.83623936 Ry
     estimated scf accuracy    <       0.00000003 Ry

     total magnetization       =     1.77 Bohr mag/cell
     absolute magnetization    =     1.80 Bohr mag/cell

     iteration # 15     ecut=    60.00 Ry     beta= 0.30
     Davidson diagonalization with overlap
     ethr =  1.21E-10,  avg # of iterations =  1.0

     negative rho (up, down):  6.070E-04 1.012E-03

     total cpu time spent up to now is     1941.6 secs

     total energy              =    -414.83623937 Ry
     estimated scf accuracy    <       0.00000001 Ry

     total magnetization       =     1.77 Bohr mag/cell
     absolute magnetization    =     1.80 Bohr mag/cell

     iteration # 16     ecut=    60.00 Ry     beta= 0.30
     Davidson diagonalization with overlap
     ethr =  5.44E-11,  avg # of iterations =  1.0

     negative rho (up, down):  6.070E-04 1.012E-03
 
     Magnetic moment per site  (integrated on atomic sphere of radius R)
     atom   1 (R=0.040)  charge= 13.9688  magn=  0.4115
     atom   2 (R=0.040)  charge=  0.7351  magn=  0.0214
     atom   3 (R=0.040)  charge=  0.7351  magn=  0.0214
     atom   4 (R=0.040)  charge=  0.7351  magn=  0.0214
     atom   5 (R=0.040)  charge=  0.7351  magn=  0.0214
     atom   6 (R=0.049)  charge=  0.1586  magn=  0.0321
     atom   7 (R=0.049)  charge=  0.1586  magn=  0.0321

     total cpu time spent up to now is     1946.1 secs

     End of self-consistent calculation

 ------ SPIN UP ------------


          k = 0.0000 0.0000 0.0000 (108616 PWs)   bands (ev):

  -107.1960 -67.8879 -67.4359 -67.4358  -9.5558  -7.8146  -7.6306  -7.6306
    -5.8982  -5.3482  -5.2606  -4.5115  -4.5115  -4.0447  -3.1114  -1.3547
    -1.3547

 ------ SPIN DOWN ----------


          k = 0.0000 0.0000 0.0000 (108616 PWs)   bands (ev):

  -106.5763 -67.0656 -66.9460 -66.9459  -9.3804  -7.6212  -7.2609  -7.2609
    -5.5335  -4.9290  -4.8885  -3.9939  -3.9939  -3.1381  -2.2776  -0.8533
    -0.8533

     the Fermi energy is    -3.9870 ev

!    total energy              =    -414.83623936 Ry
     estimated scf accuracy    <          1.6E-09 Ry
     smearing contrib. (-TS)   =      -0.00347810 Ry
     internal energy E=F+TS    =    -414.83276126 Ry

     The total energy is F=E-TS. E is the sum of the following terms:
     one-electron contribution =    -674.46013049 Ry
     hartree contribution      =     335.51381717 Ry
     xc contribution           =     -41.17942599 Ry
     ewald contribution        =      27.88768104 Ry
     DFT-D3 Dispersion         =      -0.01127253 Ry
     one-center paw contrib.   =     -62.58343046 Ry

     total magnetization       =     1.77 Bohr mag/cell
     absolute magnetization    =     1.80 Bohr mag/cell

     convergence has been achieved in  16 iterations

     negative rho (up, down):  6.070E-04 1.012E-03

     Forces acting on atoms (cartesian axes, Ry/au):

     atom    1 type  1   force =     0.00000000    0.00000000    0.00000000
     atom    2 type  3   force =     0.00188845    0.00254809    0.00254809
     atom    3 type  3   force =     0.00188845   -0.00254809   -0.00254809
     atom    4 type  3   force =    -0.00188845    0.00254809   -0.00254809
     atom    5 type  3   force =    -0.00188845   -0.00254809    0.00254809
     atom    6 type  2   force =    -0.00219777   -0.00000000    0.00000000
     atom    7 type  2   force =     0.00219777   -0.00000000    0.00000000

     Total force =     0.008710     Total SCF correction =     0.000014
     Energy error            =      1.6E-03 Ry
     Gradient error          =      2.5E-03 Ry/Bohr

     number of scf cycles    =  22
     number of bfgs steps    =  21

     energy             old  =    -414.8346323495 Ry
     energy             new  =    -414.8362393639 Ry

     CASE: energy            _new < energy            _old

     new trust radius        =       0.0328073749 bohr
     new conv_thr            =       0.0000000025 Ry


ATOMIC_POSITIONS (angstrom)
Ni               8.0000000000        8.0000000000        8.0000000000
H                8.8528576156        8.9529755556        8.9529755556
H                8.8528576156        7.0470244444        7.0470244444
H                7.1471423844        8.9529755556        7.0470244444
H                7.1471423844        7.0470244444        8.9529755556
Mg              10.3186703746        8.0000000000        8.0000000000
Mg               5.6813296254        8.0000000000        8.0000000000



     Writing config-only to output data dir ./outdir/mg2nih4_unit.save/ :
     XML data file
     NEW-OLD atomic charge density approx. for the potential

     negative rho (up, down):  6.776E-04 8.952E-04
     Generating pointlists ...

     total cpu time spent up to now is     1960.4 secs

     Self-consistent Calculation

     iteration #  1     ecut=    60.00 Ry     beta= 0.30
     Davidson diagonalization with overlap
     ethr =  1.00E-06,  avg # of iterations =  4.0

     negative rho (up, down):  7.148E-04 9.805E-04

     total cpu time spent up to now is     1965.4 secs

     total energy              =    -414.82917695 Ry
     estimated scf accuracy    <       0.01956556 Ry

     total magnetization       =     1.25 Bohr mag/cell
     absolute magnetization    =     1.29 Bohr mag/cell

     iteration #  2     ecut=    60.00 Ry     beta= 0.30
     Davidson diagonalization with overlap
     ethr =  7.53E-05,  avg # of iterations =  3.0

     negative rho (up, down):  7.463E-04 1.036E-03

     total cpu time spent up to now is     1970.5 secs

     total energy              =    -414.82645123 Ry
     estimated scf accuracy    <       0.25303900 Ry

     total magnetization       =     2.00 Bohr mag/cell
     absolute magnetization    =     2.03 Bohr mag/cell

     iteration #  3     ecut=    60.00 Ry     beta= 0.30
     Davidson diagonalization with overlap
     ethr =  7.53E-05,  avg # of iterations =  2.5

     negative rho (up, down):  7.124E-04 1.041E-03

     total cpu time spent up to now is     1975.6 secs

     total energy              =    -414.83550049 Ry
     estimated scf accuracy    <       0.01795277 Ry

     total magnetization       =     1.93 Bohr mag/cell
     absolute magnetization    =     1.95 Bohr mag/cell

     iteration #  4     ecut=    60.00 Ry     beta= 0.30
     Davidson diagonalization with overlap
     ethr =  6.90E-05,  avg # of iterations =  1.0

     negative rho (up, down):  6.729E-04 9.845E-04

     total cpu time spent up to now is     1980.4 secs

     total energy              =    -414.83645047 Ry
     estimated scf accuracy    <       0.00367745 Ry

     total magnetization       =     1.45 Bohr mag/cell
     absolute magnetization    =     1.48 Bohr mag/cell

     iteration #  5     ecut=    60.00 Ry     beta= 0.30
     Davidson diagonalization with overlap
     ethr =  1.41E-05,  avg # of iterations =  2.0

     negative rho (up, down):  6.410E-04 9.728E-04

     total cpu time spent up to now is     1985.2 secs

     total energy              =    -414.83644990 Ry
     estimated scf accuracy    <       0.00150647 Ry

     total magnetization       =     1.51 Bohr mag/cell
     absolute magnetization    =     1.54 Bohr mag/cell

     iteration #  6     ecut=    60.00 Ry     beta= 0.30
     Davidson diagonalization with overlap
     ethr =  5.79E-06,  avg # of iterations =  1.0

     negative rho (up, down):  6.357E-04 9.748E-04

     total cpu time spent up to now is     1989.9 secs

     total energy              =    -414.83657037 Ry
     estimated scf accuracy    <       0.00159501 Ry

     total magnetization       =     1.71 Bohr mag/cell
     absolute magnetization    =     1.74 Bohr mag/cell

     iteration #  7     ecut=    60.00 Ry     beta= 0.30
     Davidson diagonalization with overlap
     ethr =  5.79E-06,  avg # of iterations =  1.0

     negative rho (up, down):  6.317E-04 9.759E-04

     total cpu time spent up to now is     1994.6 secs

     total energy              =    -414.83653607 Ry
     estimated scf accuracy    <       0.00083292 Ry

     total magnetization       =     1.68 Bohr mag/cell
     absolute magnetization    =     1.71 Bohr mag/cell

     iteration #  8     ecut=    60.00 Ry     beta= 0.30
     Davidson diagonalization with overlap
     ethr =  3.20E-06,  avg # of iterations =  1.0

     negative rho (up, down):  6.275E-04 9.657E-04

     total cpu time spent up to now is     1999.3 secs

     total energy              =    -414.83656071 Ry
     estimated scf accuracy    <       0.00003323 Ry

     total magnetization       =     1.59 Bohr mag/cell
     absolute magnetization    =     1.61 Bohr mag/cell

     iteration #  9     ecut=    60.00 Ry     beta= 0.30
     Davidson diagonalization with overlap
     ethr =  1.28E-07,  avg # of iterations =  1.0

     negative rho (up, down):  6.251E-04 9.617E-04

     total cpu time spent up to now is     2004.0 secs

     total energy              =    -414.83656026 Ry
     estimated scf accuracy    <       0.00000964 Ry

     total magnetization       =     1.60 Bohr mag/cell
     absolute magnetization    =     1.62 Bohr mag/cell

     iteration # 10     ecut=    60.00 Ry     beta= 0.30
     Davidson diagonalization with overlap
     ethr =  3.71E-08,  avg # of iterations =  1.5

     negative rho (up, down):  6.238E-04 9.588E-04

     total cpu time spent up to now is     2008.7 secs

     total energy              =    -414.83656080 Ry
     estimated scf accuracy    <       0.00000143 Ry

     total magnetization       =     1.61 Bohr mag/cell
     absolute magnetization    =     1.63 Bohr mag/cell

     iteration # 11     ecut=    60.00 Ry     beta= 0.30
     Davidson diagonalization with overlap
     ethr =  5.52E-09,  avg # of iterations =  1.5

     negative rho (up, down):  6.230E-04 9.564E-04

     total cpu time spent up to now is     2013.4 secs

     total energy              =    -414.83656085 Ry
     estimated scf accuracy    <       0.00000064 Ry

     total magnetization       =     1.60 Bohr mag/cell
     absolute magnetization    =     1.63 Bohr mag/cell

     iteration # 12     ecut=    60.00 Ry     beta= 0.30
     Davidson diagonalization with overlap
     ethr =  2.45E-09,  avg # of iterations =  2.5

     negative rho (up, down):  6.226E-04 9.549E-04

     total cpu time spent up to now is     2018.3 secs

     total energy              =    -414.83656092 Ry
     estimated scf accuracy    <       0.00000005 Ry

     total magnetization       =     1.60 Bohr mag/cell
     absolute magnetization    =     1.63 Bohr mag/cell

     iteration # 13     ecut=    60.00 Ry     beta= 0.30
     Davidson diagonalization with overlap
     ethr =  2.07E-10,  avg # of iterations =  7.0

     negative rho (up, down):  6.223E-04 9.540E-04

     total cpu time spent up to now is     2023.8 secs

     total energy              =    -414.83656097 Ry
     estimated scf accuracy    <       0.00000005 Ry

     total magnetization       =     1.60 Bohr mag/cell
     absolute magnetization    =     1.63 Bohr mag/cell

     iteration # 14     ecut=    60.00 Ry     beta= 0.30
     Davidson diagonalization with overlap
     ethr =  1.98E-10,  avg # of iterations =  2.0

     negative rho (up, down):  6.221E-04 9.536E-04

     total cpu time spent up to now is     2028.8 secs

     total energy              =    -414.83656097 Ry
     estimated scf accuracy    <       0.00000005 Ry

     total magnetization       =     1.60 Bohr mag/cell
     absolute magnetization    =     1.63 Bohr mag/cell

     iteration # 15     ecut=    60.00 Ry     beta= 0.30
     Davidson diagonalization with overlap
     ethr =  1.78E-10,  avg # of iterations =  1.5

     negative rho (up, down):  6.219E-04 9.532E-04

     total cpu time spent up to now is     2033.7 secs

     total energy              =    -414.83656097 Ry
     estimated scf accuracy    <          6.9E-09 Ry

     total magnetization       =     1.60 Bohr mag/cell
     absolute magnetization    =     1.63 Bohr mag/cell

     iteration # 16     ecut=    60.00 Ry     beta= 0.30
     Davidson diagonalization with overlap
     ethr =  2.65E-11,  avg # of iterations =  3.0

     negative rho (up, down):  6.214E-04 9.525E-04
 
     Magnetic moment per site  (integrated on atomic sphere of radius R)
     atom   1 (R=0.040)  charge= 13.9711  magn=  0.3753
     atom   2 (R=0.040)  charge=  0.7293  magn=  0.0189
     atom   3 (R=0.040)  charge=  0.7293  magn=  0.0189
     atom   4 (R=0.040)  charge=  0.7293  magn=  0.0189
     atom   5 (R=0.040)  charge=  0.7293  magn=  0.0189
     atom   6 (R=0.049)  charge=  0.1589  magn=  0.0290
     atom   7 (R=0.049)  charge=  0.1589  magn=  0.0290

     total cpu time spent up to now is     2038.7 secs

     End of self-consistent calculation

 ------ SPIN UP ------------


          k = 0.0000 0.0000 0.0000 (108616 PWs)   bands (ev):

  -107.0790 -67.7492 -67.3323 -67.3323  -9.4663  -7.7221  -7.5185  -7.5185
    -5.8109  -5.2852  -5.1682  -4.4616  -4.4616  -4.0173  -3.0638  -1.3290
    -1.3290

 ------ SPIN DOWN ----------


          k = 0.0000 0.0000 0.0000 (108616 PWs)   bands (ev):

  -106.5149 -66.9952 -66.8891 -66.8891  -9.3105  -7.5488  -7.1893  -7.1893
    -5.4785  -4.8981  -4.8301  -3.9884  -3.9884  -3.1650  -2.2895  -0.8663
    -0.8663

     the Fermi energy is    -3.9764 ev

!    total energy              =    -414.83656097 Ry
     estimated scf accuracy    <          1.0E-09 Ry
     smearing contrib. (-TS)   =      -0.00371685 Ry
     internal energy E=F+TS    =    -414.83284413 Ry

     The total energy is F=E-TS. E is the sum of the following terms:
     one-electron contribution =    -674.28685745 Ry
     hartree contribution      =     335.49411246 Ry
     xc contribution           =     -41.17261744 Ry
     ewald contribution        =      27.72758740 Ry
     DFT-D3 Dispersion         =      -0.01130052 Ry
     one-center paw contrib.   =     -62.58376858 Ry

     total magnetization       =     1.60 Bohr mag/cell
     absolute magnetization    =     1.63 Bohr mag/cell

     convergence has been achieved in  16 iterations

     negative rho (up, down):  6.214E-04 9.525E-04

     Forces acting on atoms (cartesian axes, Ry/au):

     atom    1 type  1   force =     0.00000000    0.00000000    0.00000000
     atom    2 type  3   force =     0.00002680    0.00007143    0.00007143
     atom    3 type  3   force =     0.00002680   -0.00007143   -0.00007143
     atom    4 type  3   force =    -0.00002680    0.00007143   -0.00007143
     atom    5 type  3   force =    -0.00002680   -0.00007143    0.00007143
     atom    6 type  2   force =    -0.00242205   -0.00000000    0.00000000
     atom    7 type  2   force =     0.00242205    0.00000000    0.00000000

     Total force =     0.003432     Total SCF correction =     0.000013
     Energy error            =      3.2E-04 Ry
     Gradient error          =      2.4E-03 Ry/Bohr

     number of scf cycles    =  23
     number of bfgs steps    =  22

     energy             old  =    -414.8362393639 Ry
     energy             new  =    -414.8365609732 Ry

     CASE: energy            _new < energy            _old

     new trust radius        =       0.0302038302 bohr
     new conv_thr            =       0.0000000024 Ry


ATOMIC_POSITIONS (angstrom)
Ni               8.0000000000        8.0000000000        8.0000000000
H                8.8446467754        8.9602780590        8.9602780590
H                8.8446467754        7.0397219410        7.0397219410
H                7.1553532246        8.9602780590        7.0397219410
H                7.1553532246        7.0397219410        8.9602780590
Mg              10.3026871959        8.0000000000        8.0000000000
Mg               5.6973128041        8.0000000000        8.0000000000



     Writing config-only to output data dir ./outdir/mg2nih4_unit.save/ :
     XML data file
     NEW-OLD atomic charge density approx. for the potential

     negative rho (up, down):  6.789E-04 8.612E-04
     Generating pointlists ...

     total cpu time spent up to now is     2052.8 secs

     Self-consistent Calculation

     iteration #  1     ecut=    60.00 Ry     beta= 0.30
     Davidson diagonalization with overlap
     ethr =  1.00E-06,  avg # of iterations =  4.0

     negative rho (up, down):  7.193E-04 9.192E-04

     total cpu time spent up to now is     2058.1 secs

     total energy              =    -414.82450609 Ry
     estimated scf accuracy    <       0.03192114 Ry

     total magnetization       =     0.97 Bohr mag/cell
     absolute magnetization    =     1.02 Bohr mag/cell

     iteration #  2     ecut=    60.00 Ry     beta= 0.30
     Davidson diagonalization with overlap
     ethr =  1.23E-04,  avg # of iterations =  3.0

     negative rho (up, down):  7.846E-04 1.011E-03

     total cpu time spent up to now is     2063.0 secs

     total energy              =    -414.81814032 Ry
     estimated scf accuracy    <       0.48473051 Ry

     total magnetization       =     2.00 Bohr mag/cell
     absolute magnetization    =     2.03 Bohr mag/cell

     iteration #  3     ecut=    60.00 Ry     beta= 0.30
     Davidson diagonalization with overlap
     ethr =  1.23E-04,  avg # of iterations =  2.5

     negative rho (up, down):  7.463E-04 1.030E-03

     total cpu time spent up to now is     2067.9 secs

     total energy              =    -414.83511139 Ry
     estimated scf accuracy    <       0.03334423 Ry

     total magnetization       =     1.89 Bohr mag/cell
     absolute magnetization    =     1.91 Bohr mag/cell

     iteration #  4     ecut=    60.00 Ry     beta= 0.30
     Davidson diagonalization with overlap
     ethr =  1.23E-04,  avg # of iterations =  1.0

     negative rho (up, down):  7.018E-04 9.551E-04

     total cpu time spent up to now is     2072.5 secs

     total energy              =    -414.83652749 Ry
     estimated scf accuracy    <       0.00342410 Ry

     total magnetization       =     1.28 Bohr mag/cell
     absolute magnetization    =     1.31 Bohr mag/cell

     iteration #  5     ecut=    60.00 Ry     beta= 0.30
     Davidson diagonalization with overlap
     ethr =  1.32E-05,  avg # of iterations =  1.5

     negative rho (up, down):  6.646E-04 9.278E-04

     total cpu time spent up to now is     2077.2 secs

     total energy              =    -414.83656972 Ry
     estimated scf accuracy    <       0.00198777 Ry

     total magnetization       =     1.32 Bohr mag/cell
     absolute magnetization    =     1.35 Bohr mag/cell

     iteration #  6     ecut=    60.00 Ry     beta= 0.30
     Davidson diagonalization with overlap
     ethr =  7.65E-06,  avg # of iterations =  1.0

     negative rho (up, down):  6.568E-04 9.255E-04

     total cpu time spent up to now is     2081.8 secs

     total energy              =    -414.83669781 Ry
     estimated scf accuracy    <       0.00121486 Ry

     total magnetization       =     1.53 Bohr mag/cell
     absolute magnetization    =     1.56 Bohr mag/cell

     iteration #  7     ecut=    60.00 Ry     beta= 0.30
     Davidson diagonalization with overlap
     ethr =  4.67E-06,  avg # of iterations =  1.0

     negative rho (up, down):  6.509E-04 9.254E-04

     total cpu time spent up to now is     2086.4 secs

     total energy              =    -414.83666624 Ry
     estimated scf accuracy    <       0.00089654 Ry

     total magnetization       =     1.52 Bohr mag/cell
     absolute magnetization    =     1.54 Bohr mag/cell

     iteration #  8     ecut=    60.00 Ry     beta= 0.30
     Davidson diagonalization with overlap
     ethr =  3.45E-06,  avg # of iterations =  1.0

     negative rho (up, down):  6.449E-04 9.145E-04

     total cpu time spent up to now is     2091.0 secs

     total energy              =    -414.83669109 Ry
     estimated scf accuracy    <       0.00003502 Ry

     total magnetization       =     1.42 Bohr mag/cell
     absolute magnetization    =     1.45 Bohr mag/cell

     iteration #  9     ecut=    60.00 Ry     beta= 0.30
     Davidson diagonalization with overlap
     ethr =  1.35E-07,  avg # of iterations =  1.0

     negative rho (up, down):  6.420E-04 9.085E-04

     total cpu time spent up to now is     2095.7 secs

     total energy              =    -414.83669123 Ry
     estimated scf accuracy    <       0.00001067 Ry

     total magnetization       =     1.43 Bohr mag/cell
     absolute magnetization    =     1.45 Bohr mag/cell

     iteration # 10     ecut=    60.00 Ry     beta= 0.30
     Davidson diagonalization with overlap
     ethr =  4.10E-08,  avg # of iterations =  1.5

     negative rho (up, down):  6.409E-04 9.039E-04

     total cpu time spent up to now is     2100.3 secs

     total energy              =    -414.83669153 Ry
     estimated scf accuracy    <       0.00000110 Ry

     total magnetization       =     1.43 Bohr mag/cell
     absolute magnetization    =     1.46 Bohr mag/cell

     iteration # 11     ecut=    60.00 Ry     beta= 0.30
     Davidson diagonalization with overlap
     ethr =  4.23E-09,  avg # of iterations =  2.5

     negative rho (up, down):  6.395E-04 9.005E-04

     total cpu time spent up to now is     2105.2 secs

     total energy              =    -414.83669160 Ry
     estimated scf accuracy    <       0.00000600 Ry

     total magnetization       =     1.43 Bohr mag/cell
     absolute magnetization    =     1.45 Bohr mag/cell

     iteration # 12     ecut=    60.00 Ry     beta= 0.30
     Davidson diagonalization with overlap
     ethr =  4.23E-09,  avg # of iterations =  1.0

     negative rho (up, down):  6.390E-04 8.987E-04

     total cpu time spent up to now is     2109.8 secs

     total energy              =    -414.83669170 Ry
     estimated scf accuracy    <       0.00000030 Ry

     total magnetization       =     1.43 Bohr mag/cell
     absolute magnetization    =     1.46 Bohr mag/cell

     iteration # 13     ecut=    60.00 Ry     beta= 0.30
     Davidson diagonalization with overlap
     ethr =  1.15E-09,  avg # of iterations =  6.0

     negative rho (up, down):  6.388E-04 8.975E-04

     total cpu time spent up to now is     2114.7 secs

     total energy              =    -414.83669175 Ry
     estimated scf accuracy    <       0.00000005 Ry

     total magnetization       =     1.43 Bohr mag/cell
     absolute magnetization    =     1.46 Bohr mag/cell

     iteration # 14     ecut=    60.00 Ry     beta= 0.30
     Davidson diagonalization with overlap
     ethr =  2.11E-10,  avg # of iterations =  5.0

     negative rho (up, down):  6.384E-04 8.970E-04

     total cpu time spent up to now is     2120.1 secs

     total energy              =    -414.83669179 Ry
     estimated scf accuracy    <          7.4E-09 Ry

     total magnetization       =     1.43 Bohr mag/cell
     absolute magnetization    =     1.46 Bohr mag/cell

     iteration # 15     ecut=    60.00 Ry     beta= 0.30
     Davidson diagonalization with overlap
     ethr =  2.85E-11,  avg # of iterations =  2.0

     negative rho (up, down):  6.374E-04 8.959E-04
 
     Magnetic moment per site  (integrated on atomic sphere of radius R)
     atom   1 (R=0.040)  charge= 13.9733  magn=  0.3339
     atom   2 (R=0.040)  charge=  0.7268  magn=  0.0167
     atom   3 (R=0.040)  charge=  0.7268  magn=  0.0167
     atom   4 (R=0.040)  charge=  0.7268  magn=  0.0167
     atom   5 (R=0.040)  charge=  0.7268  magn=  0.0167
     atom   6 (R=0.049)  charge=  0.1596  magn=  0.0258
     atom   7 (R=0.049)  charge=  0.1596  magn=  0.0258

     total cpu time spent up to now is     2124.7 secs

     End of self-consistent calculation

 ------ SPIN UP ------------


          k = 0.0000 0.0000 0.0000 (108616 PWs)   bands (ev):

  -106.9648 -67.6106 -67.2335 -67.2335  -9.3979  -7.6461  -7.4266  -7.4266
    -5.7294  -5.2268  -5.0825  -4.4006  -4.4006  -3.9879  -3.0090  -1.2991
    -1.2991

 ------ SPIN DOWN ----------


          k = 0.0000 0.0000 0.0000 (108616 PWs)   bands (ev):

  -106.4639 -66.9350 -66.8429 -66.8429  -9.2607  -7.4928  -7.1381  -7.1381
    -5.4334  -4.8743  -4.7825  -3.9776  -3.9776  -3.1955  -2.2990  -0.8761
    -0.8761

     the Fermi energy is    -3.9602 ev

!    total energy              =    -414.83669179 Ry
     estimated scf accuracy    <          2.2E-09 Ry
     smearing contrib. (-TS)   =      -0.00383762 Ry
     internal energy E=F+TS    =    -414.83285417 Ry

     The total energy is F=E-TS. E is the sum of the following terms:
     one-electron contribution =    -674.61651632 Ry
     hartree contribution      =     335.72155554 Ry
     xc contribution           =     -41.17358452 Ry
     ewald contribution        =      27.83149189 Ry
     DFT-D3 Dispersion         =      -0.01134280 Ry
     one-center paw contrib.   =     -62.58445797 Ry

     total magnetization       =     1.43 Bohr mag/cell
     absolute magnetization    =     1.46 Bohr mag/cell

     convergence has been achieved in  15 iterations

     negative rho (up, down):  6.374E-04 8.959E-04

     Forces acting on atoms (cartesian axes, Ry/au):

     atom    1 type  1   force =     0.00000000    0.00000000    0.00000000
     atom    2 type  3   force =    -0.00098218   -0.00062488   -0.00062488
     atom    3 type  3   force =    -0.00098218    0.00062488    0.00062488
     atom    4 type  3   force =     0.00098218   -0.00062488    0.00062488
     atom    5 type  3   force =     0.00098218    0.00062488   -0.00062488
     atom    6 type  2   force =    -0.00204661    0.00000000   -0.00000000
     atom    7 type  2   force =     0.00204661   -0.00000000    0.00000000

     Total force =     0.003919     Total SCF correction =     0.000016
     Energy error            =      1.3E-04 Ry
     Gradient error          =      2.0E-03 Ry/Bohr

     number of scf cycles    =  24
     number of bfgs steps    =  23

     energy             old  =    -414.8365609732 Ry
     energy             new  =    -414.8366917916 Ry

     CASE: energy            _new < energy            _old

     new trust radius        =       0.0332242132 bohr
     new conv_thr            =       0.0000000013 Ry


ATOMIC_POSITIONS (angstrom)
Ni               8.0000000000        8.0000000000        8.0000000000
H                8.8331382871        8.9679462985        8.9679462985
H                8.8331382871        7.0320537015        7.0320537015
H                7.1668617129        8.9679462985        7.0320537015
H                7.1668617129        7.0320537015        8.9679462985
Mg              10.2851056994        8.0000000000        8.0000000000
Mg               5.7148943006        8.0000000000        8.0000000000



     Writing config-only to output data dir ./outdir/mg2nih4_unit.save/ :
     XML data file
     NEW-OLD atomic charge density approx. for the potential

     negative rho (up, down):  6.757E-04 8.494E-04
     Generating pointlists ...

     total cpu time spent up to now is     2138.8 secs

     Self-consistent Calculation

     iteration #  1     ecut=    60.00 Ry     beta= 0.30
     Davidson diagonalization with overlap
     ethr =  1.00E-06,  avg # of iterations =  4.0

     negative rho (up, down):  1.027E-03 1.186E-03

     total cpu time spent up to now is     2143.8 secs

     total energy              =    -414.82051130 Ry
     estimated scf accuracy    <       0.04311181 Ry

     total magnetization       =     0.70 Bohr mag/cell
     absolute magnetization    =     0.76 Bohr mag/cell

     iteration #  2     ecut=    60.00 Ry     beta= 0.30
     Davidson diagonalization with overlap
     ethr =  1.66E-04,  avg # of iterations =  3.0

     negative rho (up, down):  9.956E-04 1.233E-03

     total cpu time spent up to now is     2148.5 secs

     total energy              =    -414.80138038 Ry
     estimated scf accuracy    <       0.89018531 Ry

     total magnetization       =     2.00 Bohr mag/cell
     absolute magnetization    =     2.02 Bohr mag/cell

     iteration #  3     ecut=    60.00 Ry     beta= 0.30
     Davidson diagonalization with overlap
     ethr =  1.66E-04,  avg # of iterations =  3.0

     negative rho (up, down):  8.797E-04 1.150E-03

     total cpu time spent up to now is     2153.5 secs

     total energy              =    -414.83596795 Ry
     estimated scf accuracy    <       0.02258564 Ry

     total magnetization       =     1.66 Bohr mag/cell
     absolute magnetization    =     1.68 Bohr mag/cell

     iteration #  4     ecut=    60.00 Ry     beta= 0.30
     Davidson diagonalization with overlap
     ethr =  8.69E-05,  avg # of iterations =  1.0

     negative rho (up, down):  7.822E-04 1.011E-03

     total cpu time spent up to now is     2158.1 secs

     total energy              =    -414.83676895 Ry
     estimated scf accuracy    <       0.00166123 Ry

     total magnetization       =     1.14 Bohr mag/cell
     absolute magnetization    =     1.17 Bohr mag/cell

     iteration #  5     ecut=    60.00 Ry     beta= 0.30
     Davidson diagonalization with overlap
     ethr =  6.39E-06,  avg # of iterations =  2.0

     negative rho (up, down):  7.316E-04 9.492E-04

     total cpu time spent up to now is     2162.9 secs

     total energy              =    -414.83680969 Ry
     estimated scf accuracy    <       0.00069319 Ry

     total magnetization       =     1.18 Bohr mag/cell
     absolute magnetization    =     1.21 Bohr mag/cell

     iteration #  6     ecut=    60.00 Ry     beta= 0.30
     Davidson diagonalization with overlap
     ethr =  2.67E-06,  avg # of iterations =  1.0

     negative rho (up, down):  7.017E-04 9.111E-04

     total cpu time spent up to now is     2167.5 secs

     total energy              =    -414.83682444 Ry
     estimated scf accuracy    <       0.00054170 Ry

     total magnetization       =     1.29 Bohr mag/cell
     absolute magnetization    =     1.32 Bohr mag/cell

     iteration #  7     ecut=    60.00 Ry     beta= 0.30
     Davidson diagonalization with overlap
     ethr =  2.08E-06,  avg # of iterations =  1.0

     negative rho (up, down):  6.847E-04 8.784E-04

     total cpu time spent up to now is     2172.1 secs

     total energy              =    -414.83686308 Ry
     estimated scf accuracy    <       0.00056953 Ry

     total magnetization       =     1.16 Bohr mag/cell
     absolute magnetization    =     1.19 Bohr mag/cell

     iteration #  8     ecut=    60.00 Ry     beta= 0.30
     Davidson diagonalization with overlap
     ethr =  2.08E-06,  avg # of iterations =  1.0

     negative rho (up, down):  6.742E-04 8.581E-04

     total cpu time spent up to now is     2176.7 secs

     total energy              =    -414.83685190 Ry
     estimated scf accuracy    <       0.00039185 Ry

     total magnetization       =     1.17 Bohr mag/cell
     absolute magnetization    =     1.20 Bohr mag/cell

     iteration #  9     ecut=    60.00 Ry     beta= 0.30
     Davidson diagonalization with overlap
     ethr =  1.51E-06,  avg # of iterations =  1.0

     negative rho (up, down):  6.674E-04 8.489E-04

     total cpu time spent up to now is     2181.3 secs

     total energy              =    -414.83685813 Ry
     estimated scf accuracy    <       0.00000335 Ry

     total magnetization       =     1.22 Bohr mag/cell
     absolute magnetization    =     1.25 Bohr mag/cell

     iteration # 10     ecut=    60.00 Ry     beta= 0.30
     Davidson diagonalization with overlap
     ethr =  1.29E-08,  avg # of iterations =  2.0

     negative rho (up, down):  6.638E-04 8.441E-04

     total cpu time spent up to now is     2186.1 secs

     total energy              =    -414.83685840 Ry
     estimated scf accuracy    <       0.00000442 Ry

     total magnetization       =     1.22 Bohr mag/cell
     absolute magnetization    =     1.25 Bohr mag/cell

     iteration # 11     ecut=    60.00 Ry     beta= 0.30
     Davidson diagonalization with overlap
     ethr =  1.29E-08,  avg # of iterations =  1.0

     negative rho (up, down):  6.616E-04 8.407E-04

     total cpu time spent up to now is     2190.7 secs

     total energy              =    -414.83685836 Ry
     estimated scf accuracy    <       0.00000332 Ry

     total magnetization       =     1.22 Bohr mag/cell
     absolute magnetization    =     1.25 Bohr mag/cell

     iteration # 12     ecut=    60.00 Ry     beta= 0.30
     Davidson diagonalization with overlap
     ethr =  1.28E-08,  avg # of iterations =  1.0

     negative rho (up, down):  6.602E-04 8.389E-04

     total cpu time spent up to now is     2195.3 secs

     total energy              =    -414.83685848 Ry
     estimated scf accuracy    <       0.00000010 Ry

     total magnetization       =     1.22 Bohr mag/cell
     absolute magnetization    =     1.25 Bohr mag/cell

     iteration # 13     ecut=    60.00 Ry     beta= 0.30
     Davidson diagonalization with overlap
     ethr =  3.78E-10,  avg # of iterations =  5.0

     negative rho (up, down):  6.593E-04 8.377E-04

     total cpu time spent up to now is     2200.7 secs

     total energy              =    -414.83685857 Ry
     estimated scf accuracy    <       0.00000007 Ry

     total magnetization       =     1.22 Bohr mag/cell
     absolute magnetization    =     1.25 Bohr mag/cell

     iteration # 14     ecut=    60.00 Ry     beta= 0.30
     Davidson diagonalization with overlap
     ethr =  2.82E-10,  avg # of iterations =  4.0

     negative rho (up, down):  6.586E-04 8.365E-04

     total cpu time spent up to now is     2205.6 secs

     total energy              =    -414.83685859 Ry
     estimated scf accuracy    <       0.00000002 Ry

     total magnetization       =     1.22 Bohr mag/cell
     absolute magnetization    =     1.25 Bohr mag/cell

     iteration # 15     ecut=    60.00 Ry     beta= 0.30
     Davidson diagonalization with overlap
     ethr =  9.11E-11,  avg # of iterations =  2.0

     negative rho (up, down):  6.578E-04 8.346E-04
 
     Magnetic moment per site  (integrated on atomic sphere of radius R)
     atom   1 (R=0.040)  charge= 13.9759  magn=  0.2815
     atom   2 (R=0.040)  charge=  0.7245  magn=  0.0141
     atom   3 (R=0.040)  charge=  0.7245  magn=  0.0141
     atom   4 (R=0.040)  charge=  0.7245  magn=  0.0141
     atom   5 (R=0.040)  charge=  0.7245  magn=  0.0141
     atom   6 (R=0.049)  charge=  0.1601  magn=  0.0220
     atom   7 (R=0.049)  charge=  0.1601  magn=  0.0220

     total cpu time spent up to now is     2210.3 secs

     End of self-consistent calculation

 ------ SPIN UP ------------


          k = 0.0000 0.0000 0.0000 (108616 PWs)   bands (ev):

  -106.8265 -67.4403 -67.1149 -67.1149  -9.3162  -7.5551  -7.3167  -7.3167
    -5.6308  -5.1578  -4.9797  -4.3202  -4.3202  -3.9503  -2.9378  -1.2605
    -1.2605

 ------ SPIN DOWN ----------


          k = 0.0000 0.0000 0.0000 (108616 PWs)   bands (ev):

  -106.4052 -66.8648 -66.7900 -66.7900  -9.2014  -7.4261  -7.0769  -7.0769
    -5.3806  -4.8496  -4.7273  -3.9611  -3.9611  -3.2404  -2.3134  -0.8891
    -0.8891

     the Fermi energy is    -3.9367 ev

!    total energy              =    -414.83685861 Ry
     estimated scf accuracy    <          7.1E-10 Ry
     smearing contrib. (-TS)   =      -0.00383473 Ry
     internal energy E=F+TS    =    -414.83302388 Ry

     The total energy is F=E-TS. E is the sum of the following terms:
     one-electron contribution =    -675.09959185 Ry
     hartree contribution      =     336.03933652 Ry
     xc contribution           =     -41.17571910 Ry
     ewald contribution        =      27.99941290 Ry
     DFT-D3 Dispersion         =      -0.01139293 Ry
     one-center paw contrib.   =     -62.58506941 Ry

     total magnetization       =     1.22 Bohr mag/cell
     absolute magnetization    =     1.25 Bohr mag/cell

     convergence has been achieved in  15 iterations

     negative rho (up, down):  6.578E-04 8.346E-04

     Forces acting on atoms (cartesian axes, Ry/au):

     atom    1 type  1   force =     0.00000000    0.00000000    0.00000000
     atom    2 type  3   force =    -0.00195581   -0.00102069   -0.00102069
     atom    3 type  3   force =    -0.00195581    0.00102069    0.00102069
     atom    4 type  3   force =     0.00195581   -0.00102069    0.00102069
     atom    5 type  3   force =     0.00195581    0.00102069   -0.00102069
     atom    6 type  2   force =    -0.00216188    0.00000000    0.00000000
     atom    7 type  2   force =     0.00216188   -0.00000000    0.00000000

     Total force =     0.005743     Total SCF correction =     0.000006
     Energy error            =      1.7E-04 Ry
     Gradient error          =      2.2E-03 Ry/Bohr

     number of scf cycles    =  25
     number of bfgs steps    =  24

     energy             old  =    -414.8366917916 Ry
     energy             new  =    -414.8368586077 Ry

     CASE: energy            _new < energy            _old


     WARNING: bfgs curvature condition failed, Theta= 0.265
     new trust radius        =       0.0498363198 bohr
     new conv_thr            =       0.0000000017 Ry


ATOMIC_POSITIONS (angstrom)
Ni               8.0000000000        8.0000000000        8.0000000000
H                8.8159448648        8.9794285502        8.9794285502
H                8.8159448648        7.0205714498        7.0205714498
H                7.1840551352        8.9794285502        7.0205714498
H                7.1840551352        7.0205714498        8.9794285502
Mg              10.2587334547        8.0000000000        8.0000000000
Mg               5.7412665453        8.0000000000        8.0000000000



     Writing config-only to output data dir ./outdir/mg2nih4_unit.save/ :
     XML data file
     NEW-OLD atomic charge density approx. for the potential

     negative rho (up, down):  6.773E-04 8.112E-04
     Generating pointlists ...

     total cpu time spent up to now is     2224.2 secs

     Self-consistent Calculation

     iteration #  1     ecut=    60.00 Ry     beta= 0.30
     Davidson diagonalization with overlap
     ethr =  1.00E-06,  avg # of iterations =  5.0

     negative rho (up, down):  7.376E-04 8.305E-04

     total cpu time spent up to now is     2229.2 secs

     total energy              =    -414.80975273 Ry
     estimated scf accuracy    <       0.07368551 Ry

     total magnetization       =     0.27 Bohr mag/cell
     absolute magnetization    =     0.39 Bohr mag/cell

     iteration #  2     ecut=    60.00 Ry     beta= 0.30
     Davidson diagonalization with overlap
     ethr =  2.83E-04,  avg # of iterations =  3.0

     negative rho (up, down):  9.003E-04 1.639E-03

     total cpu time spent up to now is     2234.0 secs

     total energy              =    -414.73815643 Ry
     estimated scf accuracy    <       2.69065650 Ry

     total magnetization       =     2.00 Bohr mag/cell
     absolute magnetization    =     2.03 Bohr mag/cell

     iteration #  3     ecut=    60.00 Ry     beta= 0.30
     Davidson diagonalization with overlap
     ethr =  2.83E-04,  avg # of iterations =  3.5

     negative rho (up, down):  8.110E-04 1.304E-03

     total cpu time spent up to now is     2239.2 secs

     total energy              =    -414.83675986 Ry
     estimated scf accuracy    <       0.00158467 Ry

     total magnetization       =     0.76 Bohr mag/cell
     absolute magnetization    =     0.79 Bohr mag/cell

     iteration #  4     ecut=    60.00 Ry     beta= 0.30
     Davidson diagonalization with overlap
     ethr =  6.09E-06,  avg # of iterations =  4.0

     negative rho (up, down):  7.563E-04 1.000E-03

     total cpu time spent up to now is     2244.5 secs

     total energy              =    -414.83716893 Ry
     estimated scf accuracy    <       0.01287760 Ry

     total magnetization       =     0.64 Bohr mag/cell
     absolute magnetization    =     0.67 Bohr mag/cell

     iteration #  5     ecut=    60.00 Ry     beta= 0.30
     Davidson diagonalization with overlap
     ethr =  6.09E-06,  avg # of iterations =  1.0

     negative rho (up, down):  7.257E-04 8.815E-04

     total cpu time spent up to now is     2249.1 secs

     total energy              =    -414.83706773 Ry
     estimated scf accuracy    <       0.00213805 Ry

     total magnetization       =     0.78 Bohr mag/cell
     absolute magnetization    =     0.81 Bohr mag/cell

     iteration #  6     ecut=    60.00 Ry     beta= 0.30
     Davidson diagonalization with overlap
     ethr =  6.09E-06,  avg # of iterations =  2.0

     negative rho (up, down):  7.111E-04 8.558E-04

     total cpu time spent up to now is     2254.0 secs

     total energy              =    -414.83726805 Ry
     estimated scf accuracy    <       0.00043975 Ry

     total magnetization       =     0.89 Bohr mag/cell
     absolute magnetization    =     0.91 Bohr mag/cell

     iteration #  7     ecut=    60.00 Ry     beta= 0.30
     Davidson diagonalization with overlap
     ethr =  1.69E-06,  avg # of iterations =  1.0

     negative rho (up, down):  7.038E-04 8.249E-04

     total cpu time spent up to now is     2258.6 secs

     total energy              =    -414.83726814 Ry
     estimated scf accuracy    <       0.00009926 Ry

     total magnetization       =     0.84 Bohr mag/cell
     absolute magnetization    =     0.86 Bohr mag/cell

     iteration #  8     ecut=    60.00 Ry     beta= 0.30
     Davidson diagonalization with overlap
     ethr =  3.82E-07,  avg # of iterations =  1.5

     negative rho (up, down):  6.989E-04 8.055E-04

     total cpu time spent up to now is     2263.3 secs

     total energy              =    -414.83727216 Ry
     estimated scf accuracy    <       0.00003547 Ry

     total magnetization       =     0.84 Bohr mag/cell
     absolute magnetization    =     0.86 Bohr mag/cell

     iteration #  9     ecut=    60.00 Ry     beta= 0.30
     Davidson diagonalization with overlap
     ethr =  1.36E-07,  avg # of iterations =  2.0

     negative rho (up, down):  6.958E-04 7.879E-04

     total cpu time spent up to now is     2268.0 secs

     total energy              =    -414.83727799 Ry
     estimated scf accuracy    <       0.00000105 Ry

     total magnetization       =     0.83 Bohr mag/cell
     absolute magnetization    =     0.86 Bohr mag/cell

     iteration # 10     ecut=    60.00 Ry     beta= 0.30
     Davidson diagonalization with overlap
     ethr =  4.04E-09,  avg # of iterations =  5.0

     negative rho (up, down):  6.938E-04 7.760E-04

     total cpu time spent up to now is     2273.3 secs

     total energy              =    -414.83727939 Ry
     estimated scf accuracy    <       0.00000625 Ry

     total magnetization       =     0.83 Bohr mag/cell
     absolute magnetization    =     0.86 Bohr mag/cell

     iteration # 11     ecut=    60.00 Ry     beta= 0.30
     Davidson diagonalization with overlap
     ethr =  4.04E-09,  avg # of iterations =  1.0

     negative rho (up, down):  6.922E-04 7.671E-04

     total cpu time spent up to now is     2277.9 secs

     total energy              =    -414.83727881 Ry
     estimated scf accuracy    <       0.00000969 Ry

     total magnetization       =     0.83 Bohr mag/cell
     absolute magnetization    =     0.86 Bohr mag/cell

     iteration # 12     ecut=    60.00 Ry     beta= 0.30
     Davidson diagonalization with overlap
     ethr =  4.04E-09,  avg # of iterations =  3.0

     negative rho (up, down):  6.916E-04 7.636E-04

     total cpu time spent up to now is     2282.8 secs

     total energy              =    -414.83727991 Ry
     estimated scf accuracy    <       0.00000095 Ry

     total magnetization       =     0.84 Bohr mag/cell
     absolute magnetization    =     0.87 Bohr mag/cell

     iteration # 13     ecut=    60.00 Ry     beta= 0.30
     Davidson diagonalization with overlap
     ethr =  3.66E-09,  avg # of iterations =  2.0

     negative rho (up, down):  6.914E-04 7.611E-04

     total cpu time spent up to now is     2287.6 secs

     total energy              =    -414.83728016 Ry
     estimated scf accuracy    <       0.00000023 Ry

     total magnetization       =     0.84 Bohr mag/cell
     absolute magnetization    =     0.87 Bohr mag/cell

     iteration # 14     ecut=    60.00 Ry     beta= 0.30
     Davidson diagonalization with overlap
     ethr =  8.74E-10,  avg # of iterations =  5.5

     negative rho (up, down):  6.913E-04 7.591E-04

     total cpu time spent up to now is     2292.6 secs

     total energy              =    -414.83728025 Ry
     estimated scf accuracy    <       0.00000041 Ry

     total magnetization       =     0.84 Bohr mag/cell
     absolute magnetization    =     0.87 Bohr mag/cell

     iteration # 15     ecut=    60.00 Ry     beta= 0.30
     Davidson diagonalization with overlap
     ethr =  8.74E-10,  avg # of iterations =  2.0

     negative rho (up, down):  6.913E-04 7.577E-04

     total cpu time spent up to now is     2297.2 secs

     total energy              =    -414.83728026 Ry
     estimated scf accuracy    <       0.00000020 Ry

     total magnetization       =     0.84 Bohr mag/cell
     absolute magnetization    =     0.87 Bohr mag/cell

     iteration # 16     ecut=    60.00 Ry     beta= 0.30
     Davidson diagonalization with overlap
     ethr =  7.69E-10,  avg # of iterations =  3.5

     negative rho (up, down):  6.914E-04 7.567E-04

     total cpu time spent up to now is     2301.9 secs

     total energy              =    -414.83728026 Ry
     estimated scf accuracy    <       0.00000011 Ry

     total magnetization       =     0.84 Bohr mag/cell
     absolute magnetization    =     0.87 Bohr mag/cell

     iteration # 17     ecut=    60.00 Ry     beta= 0.30
     Davidson diagonalization with overlap
     ethr =  4.26E-10,  avg # of iterations =  4.0

     negative rho (up, down):  6.914E-04 7.559E-04

     total cpu time spent up to now is     2306.7 secs

     total energy              =    -414.83728028 Ry
     estimated scf accuracy    <       0.00000003 Ry

     total magnetization       =     0.84 Bohr mag/cell
     absolute magnetization    =     0.87 Bohr mag/cell

     iteration # 18     ecut=    60.00 Ry     beta= 0.30
     Davidson diagonalization with overlap
     ethr =  1.30E-10,  avg # of iterations =  1.5

     negative rho (up, down):  6.914E-04 7.555E-04

     total cpu time spent up to now is     2311.5 secs

     total energy              =    -414.83728028 Ry
     estimated scf accuracy    <          4.7E-09 Ry

     total magnetization       =     0.84 Bohr mag/cell
     absolute magnetization    =     0.87 Bohr mag/cell

     iteration # 19     ecut=    60.00 Ry     beta= 0.30
     Davidson diagonalization with overlap
     ethr =  1.80E-11,  avg # of iterations =  3.0

     negative rho (up, down):  6.915E-04 7.552E-04

     total cpu time spent up to now is     2316.3 secs

     total energy              =    -414.83728028 Ry
     estimated scf accuracy    <          2.8E-09 Ry

     total magnetization       =     0.84 Bohr mag/cell
     absolute magnetization    =     0.87 Bohr mag/cell

     iteration # 20     ecut=    60.00 Ry     beta= 0.30
     Davidson diagonalization with overlap
     ethr =  1.06E-11,  avg # of iterations =  1.0

     negative rho (up, down):  6.915E-04 7.545E-04
 
     Magnetic moment per site  (integrated on atomic sphere of radius R)
     atom   1 (R=0.040)  charge= 13.9804  magn=  0.1861
     atom   2 (R=0.040)  charge=  0.7211  magn=  0.0096
     atom   3 (R=0.040)  charge=  0.7211  magn=  0.0096
     atom   4 (R=0.040)  charge=  0.7211  magn=  0.0096
     atom   5 (R=0.040)  charge=  0.7211  magn=  0.0096
     atom   6 (R=0.049)  charge=  0.1610  magn=  0.0152
     atom   7 (R=0.049)  charge=  0.1610  magn=  0.0152

     total cpu time spent up to now is     2320.8 secs

     End of self-consistent calculation

 ------ SPIN UP ------------


          k = 0.0000 0.0000 0.0000 (108616 PWs)   bands (ev):

  -106.5753 -67.1312 -66.8992 -66.8992  -9.1711  -7.3956  -7.1222  -7.1222
    -5.4462  -5.0331  -4.7910  -4.1643  -4.1643  -3.8730  -2.8042  -1.1887
    -1.1887

 ------ SPIN DOWN ----------


          k = 0.0000 0.0000 0.0000 (108616 PWs)   bands (ev):

  -106.2980 -66.7406 -66.6912 -66.6912  -9.0946  -7.3093  -6.9652  -6.9652
    -5.2805  -4.8103  -4.6244  -3.9213  -3.9213  -3.3351  -2.3482  -0.9170
    -0.9169

     the Fermi energy is    -3.8826 ev

!    total energy              =    -414.83728028 Ry
     estimated scf accuracy    <          9.3E-10 Ry
     smearing contrib. (-TS)   =      -0.00342240 Ry
     internal energy E=F+TS    =    -414.83385789 Ry

     The total energy is F=E-TS. E is the sum of the following terms:
     one-electron contribution =    -675.87259204 Ry
     hartree contribution      =     336.56566037 Ry
     xc contribution           =     -41.18077711 Ry
     ewald contribution        =      28.25110263 Ry
     DFT-D3 Dispersion         =      -0.01146781 Ry
     one-center paw contrib.   =     -62.58578393 Ry

     total magnetization       =     0.84 Bohr mag/cell
     absolute magnetization    =     0.87 Bohr mag/cell

     convergence has been achieved in  20 iterations

     negative rho (up, down):  6.915E-04 7.545E-04

     Forces acting on atoms (cartesian axes, Ry/au):

     atom    1 type  1   force =     0.00000000    0.00000000    0.00000000
     atom    2 type  3   force =    -0.00378186   -0.00133303   -0.00133303
     atom    3 type  3   force =    -0.00378186    0.00133303    0.00133303
     atom    4 type  3   force =     0.00378186   -0.00133303    0.00133303
     atom    5 type  3   force =     0.00378186    0.00133303   -0.00133303
     atom    6 type  2   force =    -0.00347529   -0.00000000    0.00000000
     atom    7 type  2   force =     0.00347529    0.00000000    0.00000000

     Total force =     0.009777     Total SCF correction =     0.000013
     Energy error            =      4.2E-04 Ry
     Gradient error          =      3.8E-03 Ry/Bohr

     number of scf cycles    =  26
     number of bfgs steps    =  25

     energy             old  =    -414.8368586077 Ry
     energy             new  =    -414.8372802836 Ry

     CASE: energy            _new < energy            _old


     WARNING: bfgs curvature condition failed, Theta= 0.150
     new trust radius        =       0.0747544797 bohr
     new conv_thr            =       0.0000000038 Ry


ATOMIC_POSITIONS (angstrom)
Ni               8.0000000000        8.0000000000        8.0000000000
H                8.7898664576        8.9969710994        8.9969710994
H                8.7898664576        7.0030289006        7.0030289006
H                7.2101335424        8.9969710994        7.0030289006
H                7.2101335424        7.0030289006        8.9969710994
Mg              10.2191750876        8.0000000000        8.0000000000
Mg               5.7808249124        8.0000000000        8.0000000000



     Writing config-only to output data dir ./outdir/mg2nih4_unit.save/ :
     XML data file
     NEW-OLD atomic charge density approx. for the potential

     negative rho (up, down):  7.541E-04 7.963E-04
     Generating pointlists ...

     total cpu time spent up to now is     2335.0 secs

     Self-consistent Calculation

     iteration #  1     ecut=    60.00 Ry     beta= 0.30
     Davidson diagonalization with overlap
     ethr =  1.00E-06,  avg # of iterations =  6.0

     negative rho (up, down):  3.006E-03 3.101E-03

     total cpu time spent up to now is     2340.3 secs

     total energy              =    -414.81794566 Ry
     estimated scf accuracy    <       0.05696255 Ry

     total magnetization       =     0.03 Bohr mag/cell
     absolute magnetization    =     0.20 Bohr mag/cell

     iteration #  2     ecut=    60.00 Ry     beta= 0.30
     Davidson diagonalization with overlap
     ethr =  2.19E-04,  avg # of iterations =  3.0

     negative rho (up, down):  2.300E-03 2.820E-03

     total cpu time spent up to now is     2345.1 secs

     total energy              =    -414.74709064 Ry
     estimated scf accuracy    <       2.62221947 Ry

     total magnetization       =     1.94 Bohr mag/cell
     absolute magnetization    =     1.95 Bohr mag/cell

     iteration #  3     ecut=    60.00 Ry     beta= 0.30
     Davidson diagonalization with overlap
     ethr =  2.19E-04,  avg # of iterations =  3.5

     negative rho (up, down):  1.737E-03 1.970E-03

     total cpu time spent up to now is     2349.8 secs

     total energy              =    -414.83872937 Ry
     estimated scf accuracy    <       0.01929655 Ry

     total magnetization       =     0.08 Bohr mag/cell
     absolute magnetization    =     0.20 Bohr mag/cell

     iteration #  4     ecut=    60.00 Ry     beta= 0.30
     Davidson diagonalization with overlap
     ethr =  7.42E-05,  avg # of iterations =  1.0

     negative rho (up, down):  1.340E-03 1.422E-03

     total cpu time spent up to now is     2354.3 secs

     total energy              =    -414.83853395 Ry
     estimated scf accuracy    <       0.01944642 Ry

     total magnetization       =     0.09 Bohr mag/cell
     absolute magnetization    =     0.19 Bohr mag/cell

     iteration #  5     ecut=    60.00 Ry     beta= 0.30
     Davidson diagonalization with overlap
     ethr =  7.42E-05,  avg # of iterations =  1.0

     negative rho (up, down):  1.098E-03 1.144E-03

     total cpu time spent up to now is     2358.9 secs

     total energy              =    -414.83858037 Ry
     estimated scf accuracy    <       0.00666958 Ry

     total magnetization       =     0.13 Bohr mag/cell
     absolute magnetization    =     0.20 Bohr mag/cell

     iteration #  6     ecut=    60.00 Ry     beta= 0.30
     Davidson diagonalization with overlap
     ethr =  2.57E-05,  avg # of iterations =  1.0

     negative rho (up, down):  1.023E-03 1.083E-03

     total cpu time spent up to now is     2363.4 secs

     total energy              =    -414.83894255 Ry
     estimated scf accuracy    <       0.00071560 Ry

     total magnetization       =     0.17 Bohr mag/cell
     absolute magnetization    =     0.20 Bohr mag/cell

     iteration #  7     ecut=    60.00 Ry     beta= 0.30
     Davidson diagonalization with overlap
     ethr =  2.75E-06,  avg # of iterations =  2.5

     negative rho (up, down):  9.447E-04 1.011E-03

     total cpu time spent up to now is     2368.2 secs

     total energy              =    -414.83902837 Ry
     estimated scf accuracy    <       0.00051975 Ry

     total magnetization       =     0.14 Bohr mag/cell
     absolute magnetization    =     0.16 Bohr mag/cell

     iteration #  8     ecut=    60.00 Ry     beta= 0.30
     Davidson diagonalization with overlap
     ethr =  2.00E-06,  avg # of iterations =  1.5

     negative rho (up, down):  8.628E-04 8.982E-04

     total cpu time spent up to now is     2373.0 secs

     total energy              =    -414.83904987 Ry
     estimated scf accuracy    <       0.00015768 Ry

     total magnetization       =     0.10 Bohr mag/cell
     absolute magnetization    =     0.11 Bohr mag/cell

     iteration #  9     ecut=    60.00 Ry     beta= 0.30
     Davidson diagonalization with overlap
     ethr =  6.06E-07,  avg # of iterations =  2.0

     negative rho (up, down):  8.167E-04 8.484E-04

     total cpu time spent up to now is     2377.8 secs

     total energy              =    -414.83905828 Ry
     estimated scf accuracy    <       0.00005153 Ry

     total magnetization       =     0.08 Bohr mag/cell
     absolute magnetization    =     0.10 Bohr mag/cell

     iteration # 10     ecut=    60.00 Ry     beta= 0.30
     Davidson diagonalization with overlap
     ethr =  1.98E-07,  avg # of iterations =  4.0

     negative rho (up, down):  7.946E-04 8.160E-04

     total cpu time spent up to now is     2382.8 secs

     total energy              =    -414.83908001 Ry
     estimated scf accuracy    <       0.00001052 Ry

     total magnetization       =     0.06 Bohr mag/cell
     absolute magnetization    =     0.07 Bohr mag/cell

     iteration # 11     ecut=    60.00 Ry     beta= 0.30
     Davidson diagonalization with overlap
     ethr =  4.04E-08,  avg # of iterations =  2.5

     negative rho (up, down):  7.791E-04 7.800E-04

     total cpu time spent up to now is     2387.5 secs

     total energy              =    -414.83907214 Ry
     estimated scf accuracy    <       0.00000916 Ry

     total magnetization       =     0.05 Bohr mag/cell
     absolute magnetization    =     0.06 Bohr mag/cell

     iteration # 12     ecut=    60.00 Ry     beta= 0.30
     Davidson diagonalization with overlap
     ethr =  3.52E-08,  avg # of iterations =  3.0

     negative rho (up, down):  7.671E-04 7.635E-04

     total cpu time spent up to now is     2392.4 secs

     total energy              =    -414.83908197 Ry
     estimated scf accuracy    <       0.00001482 Ry

     total magnetization       =     0.07 Bohr mag/cell
     absolute magnetization    =     0.08 Bohr mag/cell

     iteration # 13     ecut=    60.00 Ry     beta= 0.30
     Davidson diagonalization with overlap
     ethr =  3.52E-08,  avg # of iterations =  1.5

     negative rho (up, down):  7.609E-04 7.575E-04

     total cpu time spent up to now is     2397.0 secs

     total energy              =    -414.83908035 Ry
     estimated scf accuracy    <       0.00000876 Ry

     total magnetization       =     0.06 Bohr mag/cell
     absolute magnetization    =     0.07 Bohr mag/cell

     iteration # 14     ecut=    60.00 Ry     beta= 0.30
     Davidson diagonalization with overlap
     ethr =  3.37E-08,  avg # of iterations =  3.0

     negative rho (up, down):  7.589E-04 7.529E-04

     total cpu time spent up to now is     2402.2 secs

     total energy              =    -414.83908965 Ry
     estimated scf accuracy    <       0.00001423 Ry

     total magnetization       =     0.03 Bohr mag/cell
     absolute magnetization    =     0.08 Bohr mag/cell

     iteration # 15     ecut=    60.00 Ry     beta= 0.30
     Davidson diagonalization with overlap
     ethr =  3.37E-08,  avg # of iterations =  1.0

     negative rho (up, down):  7.510E-04 7.458E-04

     total cpu time spent up to now is     2406.7 secs

     total energy              =    -414.83908371 Ry
     estimated scf accuracy    <       0.00001991 Ry

     total magnetization       =     0.04 Bohr mag/cell
     absolute magnetization    =     0.07 Bohr mag/cell

     iteration # 16     ecut=    60.00 Ry     beta= 0.30
     Davidson diagonalization with overlap
     ethr =  3.37E-08,  avg # of iterations =  2.5

     negative rho (up, down):  7.530E-04 7.458E-04

     total cpu time spent up to now is     2411.7 secs

     total energy              =    -414.83909030 Ry
     estimated scf accuracy    <       0.00000244 Ry

     total magnetization       =     0.02 Bohr mag/cell
     absolute magnetization    =     0.09 Bohr mag/cell

     iteration # 17     ecut=    60.00 Ry     beta= 0.30
     Davidson diagonalization with overlap
     ethr =  9.40E-09,  avg # of iterations =  5.0

     negative rho (up, down):  7.509E-04 7.444E-04

     total cpu time spent up to now is     2416.8 secs

     total energy              =    -414.83909182 Ry
     estimated scf accuracy    <       0.00000957 Ry

     total magnetization       =     0.03 Bohr mag/cell
     absolute magnetization    =     0.08 Bohr mag/cell

     iteration # 18     ecut=    60.00 Ry     beta= 0.30
     Davidson diagonalization with overlap
     ethr =  9.40E-09,  avg # of iterations =  2.0

     negative rho (up, down):  7.496E-04 7.435E-04

     total cpu time spent up to now is     2421.5 secs

     total energy              =    -414.83909362 Ry
     estimated scf accuracy    <       0.00000557 Ry

     total magnetization       =     0.02 Bohr mag/cell
     absolute magnetization    =     0.10 Bohr mag/cell

     iteration # 19     ecut=    60.00 Ry     beta= 0.30
     Davidson diagonalization with overlap
     ethr =  9.40E-09,  avg # of iterations =  2.5

     negative rho (up, down):  7.485E-04 7.427E-04

     total cpu time spent up to now is     2426.3 secs

     total energy              =    -414.83908925 Ry
     estimated scf accuracy    <       0.00000437 Ry

     total magnetization       =     0.02 Bohr mag/cell
     absolute magnetization    =     0.11 Bohr mag/cell

     iteration # 20     ecut=    60.00 Ry     beta= 0.30
     Davidson diagonalization with overlap
     ethr =  9.40E-09,  avg # of iterations =  3.5

     negative rho (up, down):  7.492E-04 7.411E-04

     total cpu time spent up to now is     2431.3 secs

     total energy              =    -414.83909793 Ry
     estimated scf accuracy    <       0.00000917 Ry

     total magnetization       =     0.01 Bohr mag/cell
     absolute magnetization    =     0.14 Bohr mag/cell

     iteration # 21     ecut=    60.00 Ry     beta= 0.30
     Davidson diagonalization with overlap
     ethr =  9.40E-09,  avg # of iterations =  2.5

     negative rho (up, down):  7.494E-04 7.393E-04

     total cpu time spent up to now is     2436.0 secs

     total energy              =    -414.83910075 Ry
     estimated scf accuracy    <       0.00000268 Ry

     total magnetization       =     0.01 Bohr mag/cell
     absolute magnetization    =     0.15 Bohr mag/cell

     iteration # 22     ecut=    60.00 Ry     beta= 0.30
     Davidson diagonalization with overlap
     ethr =  9.40E-09,  avg # of iterations =  2.0

     negative rho (up, down):  7.480E-04 7.383E-04

     total cpu time spent up to now is     2440.7 secs

     total energy              =    -414.83909529 Ry
     estimated scf accuracy    <       0.00000029 Ry

     total magnetization       =     0.01 Bohr mag/cell
     absolute magnetization    =     0.16 Bohr mag/cell

     iteration # 23     ecut=    60.00 Ry     beta= 0.30
     Davidson diagonalization with overlap
     ethr =  1.11E-09,  avg # of iterations =  8.0

     negative rho (up, down):  7.485E-04 7.351E-04

     total cpu time spent up to now is     2446.0 secs

     total energy              =    -414.83910512 Ry
     estimated scf accuracy    <       0.00000032 Ry

     total magnetization       =     0.01 Bohr mag/cell
     absolute magnetization    =     0.19 Bohr mag/cell

     iteration # 24     ecut=    60.00 Ry     beta= 0.30
     Davidson diagonalization with overlap
     ethr =  1.11E-09,  avg # of iterations =  5.5

     negative rho (up, down):  7.501E-04 7.323E-04

     total cpu time spent up to now is     2450.7 secs

     total energy              =    -414.83910502 Ry
     estimated scf accuracy    <       0.00000244 Ry

     total magnetization       =     0.01 Bohr mag/cell
     absolute magnetization    =     0.19 Bohr mag/cell

     iteration # 25     ecut=    60.00 Ry     beta= 0.30
     Davidson diagonalization with overlap
     ethr =  1.11E-09,  avg # of iterations =  2.0

     negative rho (up, down):  7.503E-04 7.320E-04

     total cpu time spent up to now is     2455.5 secs

     total energy              =    -414.83910267 Ry
     estimated scf accuracy    <       0.00000038 Ry

     total magnetization       =     0.01 Bohr mag/cell
     absolute magnetization    =     0.19 Bohr mag/cell

     iteration # 26     ecut=    60.00 Ry     beta= 0.30
     Davidson diagonalization with overlap
     ethr =  1.11E-09,  avg # of iterations =  5.0

     negative rho (up, down):  7.510E-04 7.313E-04

     total cpu time spent up to now is     2460.6 secs

     total energy              =    -414.83910537 Ry
     estimated scf accuracy    <       0.00000084 Ry

     total magnetization       =     0.01 Bohr mag/cell
     absolute magnetization    =     0.21 Bohr mag/cell

     iteration # 27     ecut=    60.00 Ry     beta= 0.30
     Davidson diagonalization with overlap
     ethr =  1.11E-09,  avg # of iterations =  4.0

     negative rho (up, down):  7.514E-04 7.292E-04

     total cpu time spent up to now is     2465.6 secs

     total energy              =    -414.83910689 Ry
     estimated scf accuracy    <       0.00000184 Ry

     total magnetization       =     0.00 Bohr mag/cell
     absolute magnetization    =     0.22 Bohr mag/cell

     iteration # 28     ecut=    60.00 Ry     beta= 0.30
     Davidson diagonalization with overlap
     ethr =  1.11E-09,  avg # of iterations =  3.0

     negative rho (up, down):  7.519E-04 7.281E-04

     total cpu time spent up to now is     2470.3 secs

     total energy              =    -414.83910623 Ry
     estimated scf accuracy    <       0.00000008 Ry

     total magnetization       =     0.00 Bohr mag/cell
     absolute magnetization    =     0.22 Bohr mag/cell

     iteration # 29     ecut=    60.00 Ry     beta= 0.30
     Davidson diagonalization with overlap
     ethr =  3.07E-10,  avg # of iterations =  6.5

     negative rho (up, down):  7.523E-04 7.271E-04

     total cpu time spent up to now is     2475.7 secs

     total energy              =    -414.83910608 Ry
     estimated scf accuracy    <       0.00000018 Ry

     total magnetization       =     0.00 Bohr mag/cell
     absolute magnetization    =     0.24 Bohr mag/cell

     iteration # 30     ecut=    60.00 Ry     beta= 0.30
     Davidson diagonalization with overlap
     ethr =  3.07E-10,  avg # of iterations =  5.0

     negative rho (up, down):  7.530E-04 7.249E-04

     total cpu time spent up to now is     2481.2 secs

     total energy              =    -414.83910764 Ry
     estimated scf accuracy    <       0.00000005 Ry

     total magnetization       =     0.00 Bohr mag/cell
     absolute magnetization    =     0.25 Bohr mag/cell

     iteration # 31     ecut=    60.00 Ry     beta= 0.30
     Davidson diagonalization with overlap
     ethr =  1.77E-10,  avg # of iterations =  4.0

     negative rho (up, down):  7.536E-04 7.237E-04

     total cpu time spent up to now is     2486.2 secs

     total energy              =    -414.83910766 Ry
     estimated scf accuracy    <       0.00000004 Ry

     total magnetization       =     0.00 Bohr mag/cell
     absolute magnetization    =     0.25 Bohr mag/cell

     iteration # 32     ecut=    60.00 Ry     beta= 0.30
     Davidson diagonalization with overlap
     ethr =  1.57E-10,  avg # of iterations =  1.0

     negative rho (up, down):  7.539E-04 7.228E-04

     total cpu time spent up to now is     2490.8 secs

     total energy              =    -414.83910764 Ry
     estimated scf accuracy    <          6.7E-09 Ry

     total magnetization       =     0.00 Bohr mag/cell
     absolute magnetization    =     0.25 Bohr mag/cell

     iteration # 33     ecut=    60.00 Ry     beta= 0.30
     Davidson diagonalization with overlap
     ethr =  2.58E-11,  avg # of iterations =  6.0

     negative rho (up, down):  7.550E-04 7.205E-04
 
     Magnetic moment per site  (integrated on atomic sphere of radius R)
     atom   1 (R=0.040)  charge= 13.9877  magn= -0.0758
     atom   2 (R=0.040)  charge=  0.7155  magn= -0.0005
     atom   3 (R=0.040)  charge=  0.7155  magn= -0.0005
     atom   4 (R=0.040)  charge=  0.7155  magn= -0.0005
     atom   5 (R=0.040)  charge=  0.7155  magn= -0.0005
     atom   6 (R=0.049)  charge=  0.1625  magn=  0.0037
     atom   7 (R=0.049)  charge=  0.1625  magn=  0.0037

     total cpu time spent up to now is     2495.7 secs

     End of self-consistent calculation

 ------ SPIN UP ------------


          k = 0.0000 0.0000 0.0000 (108616 PWs)   bands (ev):

  -106.0750 -66.5205 -66.4682 -66.4682  -8.9060  -7.1057  -6.7625  -6.7625
    -5.0910  -4.7828  -4.4210  -3.8298  -3.8298  -3.6768  -2.5103  -1.0394
    -1.0393

 ------ SPIN DOWN ----------


          k = 0.0000 0.0000 0.0000 (108616 PWs)   bands (ev):

  -106.1886 -66.6313 -66.5780 -66.5780  -8.9198  -7.1249  -6.7994  -6.7994
    -5.1552  -4.7906  -4.4838  -3.8972  -3.8972  -3.5268  -2.4232  -0.9765
    -0.9764

     the Fermi energy is    -3.7448 ev

!    total energy              =    -414.83910766 Ry
     estimated scf accuracy    <          2.2E-10 Ry
     smearing contrib. (-TS)   =      -0.00113025 Ry
     internal energy E=F+TS    =    -414.83797741 Ry

     The total energy is F=E-TS. E is the sum of the following terms:
     one-electron contribution =    -677.07491510 Ry
     hartree contribution      =     337.41002899 Ry
     xc contribution           =     -41.19631654 Ry
     ewald contribution        =      28.62128575 Ry
     DFT-D3 Dispersion         =      -0.01157913 Ry
     one-center paw contrib.   =     -62.58648138 Ry

     total magnetization       =     0.00 Bohr mag/cell
     absolute magnetization    =     0.25 Bohr mag/cell

     convergence has been achieved in  33 iterations

     negative rho (up, down):  7.550E-04 7.205E-04

     Forces acting on atoms (cartesian axes, Ry/au):

     atom    1 type  1   force =     0.00000000    0.00000000    0.00000000
     atom    2 type  3   force =    -0.00711066   -0.00150438   -0.00150438
     atom    3 type  3   force =    -0.00711066    0.00150438    0.00150438
     atom    4 type  3   force =     0.00711066   -0.00150438    0.00150438
     atom    5 type  3   force =     0.00711066    0.00150438   -0.00150438
     atom    6 type  2   force =    -0.00695381    0.00000000    0.00000000
     atom    7 type  2   force =     0.00695381    0.00000000    0.00000000

     Total force =     0.017806     Total SCF correction =     0.000007
     Energy error            =      1.8E-03 Ry
     Gradient error          =      7.1E-03 Ry/Bohr

     number of scf cycles    =  27
     number of bfgs steps    =  26

     energy             old  =    -414.8372802836 Ry
     energy             new  =    -414.8391076604 Ry

     CASE: energy            _new < energy            _old


     WARNING: bfgs curvature condition failed, Theta= 0.115
     new trust radius        =       0.1121317196 bohr
     new conv_thr            =       0.0000000071 Ry


ATOMIC_POSITIONS (angstrom)
Ni               8.0000000000        8.0000000000        8.0000000000
H                8.7507933686        9.0235666845        9.0235666845
H                8.7507933686        6.9764333155        6.9764333155
H                7.2492066314        9.0235666845        6.9764333155
H                7.2492066314        6.9764333155        9.0235666845
Mg              10.1598375370        8.0000000000        8.0000000000
Mg               5.8401624630        8.0000000000        8.0000000000



     Writing config-only to output data dir ./outdir/mg2nih4_unit.save/ :
     XML data file
     NEW-OLD atomic charge density approx. for the potential

     negative rho (up, down):  7.515E-04 7.640E-04
     Generating pointlists ...

     total cpu time spent up to now is     2509.7 secs

     Self-consistent Calculation

     iteration #  1     ecut=    60.00 Ry     beta= 0.30
     Davidson diagonalization with overlap
     ethr =  1.00E-06,  avg # of iterations =  7.0

     negative rho (up, down):  7.746E-04 7.616E-04

     total cpu time spent up to now is     2515.2 secs

     total energy              =    -414.83706601 Ry
     estimated scf accuracy    <       0.00790743 Ry

     total magnetization       =     0.00 Bohr mag/cell
     absolute magnetization    =     0.12 Bohr mag/cell

     iteration #  2     ecut=    60.00 Ry     beta= 0.30
     Davidson diagonalization with overlap
     ethr =  3.04E-05,  avg # of iterations =  4.0

     negative rho (up, down):  7.946E-04 7.810E-04

     total cpu time spent up to now is     2520.4 secs

     total energy              =    -414.83314839 Ry
     estimated scf accuracy    <       0.10336720 Ry

     total magnetization       =     0.01 Bohr mag/cell
     absolute magnetization    =     0.28 Bohr mag/cell

     iteration #  3     ecut=    60.00 Ry     beta= 0.30
     Davidson diagonalization with overlap
     ethr =  3.04E-05,  avg # of iterations =  2.5

     negative rho (up, down):  7.914E-04 7.654E-04

     total cpu time spent up to now is     2525.0 secs

     total energy              =    -414.83967362 Ry
     estimated scf accuracy    <       0.00056944 Ry

     total magnetization       =     0.00 Bohr mag/cell
     absolute magnetization    =     0.10 Bohr mag/cell

     iteration #  4     ecut=    60.00 Ry     beta= 0.30
     Davidson diagonalization with overlap
     ethr =  2.19E-06,  avg # of iterations =  4.0

     negative rho (up, down):  7.896E-04 7.551E-04

     total cpu time spent up to now is     2530.3 secs

     total energy              =    -414.83990751 Ry
     estimated scf accuracy    <       0.00104746 Ry

     total magnetization       =     0.00 Bohr mag/cell
     absolute magnetization    =     0.09 Bohr mag/cell

     iteration #  5     ecut=    60.00 Ry     beta= 0.30
     Davidson diagonalization with overlap
     ethr =  2.19E-06,  avg # of iterations =  1.0

     negative rho (up, down):  7.899E-04 7.518E-04

     total cpu time spent up to now is     2535.0 secs

     total energy              =    -414.83993404 Ry
     estimated scf accuracy    <       0.00020642 Ry

     total magnetization       =     0.00 Bohr mag/cell
     absolute magnetization    =     0.07 Bohr mag/cell

     iteration #  6     ecut=    60.00 Ry     beta= 0.30
     Davidson diagonalization with overlap
     ethr =  7.94E-07,  avg # of iterations =  2.0

     negative rho (up, down):  7.869E-04 7.528E-04

     total cpu time spent up to now is     2539.7 secs

     total energy              =    -414.83998376 Ry
     estimated scf accuracy    <       0.00002232 Ry

     total magnetization       =     0.00 Bohr mag/cell
     absolute magnetization    =     0.05 Bohr mag/cell

     iteration #  7     ecut=    60.00 Ry     beta= 0.30
     Davidson diagonalization with overlap
     ethr =  8.58E-08,  avg # of iterations =  5.5

     negative rho (up, down):  7.873E-04 7.561E-04

     total cpu time spent up to now is     2544.7 secs

     total energy              =    -414.83999287 Ry
     estimated scf accuracy    <       0.00003469 Ry

     total magnetization       =     0.00 Bohr mag/cell
     absolute magnetization    =     0.04 Bohr mag/cell

     iteration #  8     ecut=    60.00 Ry     beta= 0.30
     Davidson diagonalization with overlap
     ethr =  8.58E-08,  avg # of iterations =  2.0

     negative rho (up, down):  7.821E-04 7.582E-04

     total cpu time spent up to now is     2549.5 secs

     total energy              =    -414.84000575 Ry
     estimated scf accuracy    <       0.00000625 Ry

     total magnetization       =     0.00 Bohr mag/cell
     absolute magnetization    =     0.02 Bohr mag/cell

     iteration #  9     ecut=    60.00 Ry     beta= 0.30
     Davidson diagonalization with overlap
     ethr =  2.41E-08,  avg # of iterations =  1.5

     negative rho (up, down):  7.799E-04 7.602E-04

     total cpu time spent up to now is     2554.2 secs

     total energy              =    -414.84000380 Ry
     estimated scf accuracy    <       0.00000230 Ry

     total magnetization       =     0.00 Bohr mag/cell
     absolute magnetization    =     0.01 Bohr mag/cell

     iteration # 10     ecut=    60.00 Ry     beta= 0.30
     Davidson diagonalization with overlap
     ethr =  8.85E-09,  avg # of iterations =  5.5

     negative rho (up, down):  7.756E-04 7.624E-04

     total cpu time spent up to now is     2559.6 secs

     total energy              =    -414.84000862 Ry
     estimated scf accuracy    <       0.00000047 Ry

     total magnetization       =    -0.00 Bohr mag/cell
     absolute magnetization    =     0.00 Bohr mag/cell

     iteration # 11     ecut=    60.00 Ry     beta= 0.30
     Davidson diagonalization with overlap
     ethr =  1.82E-09,  avg # of iterations =  2.0

     negative rho (up, down):  7.731E-04 7.641E-04

     total cpu time spent up to now is     2564.4 secs

     total energy              =    -414.84000876 Ry
     estimated scf accuracy    <       0.00000007 Ry

     total magnetization       =    -0.00 Bohr mag/cell
     absolute magnetization    =     0.00 Bohr mag/cell

     iteration # 12     ecut=    60.00 Ry     beta= 0.30
     Davidson diagonalization with overlap
     ethr =  2.88E-10,  avg # of iterations =  3.0

     negative rho (up, down):  7.714E-04 7.654E-04

     total cpu time spent up to now is     2569.4 secs

     total energy              =    -414.84000875 Ry
     estimated scf accuracy    <       0.00000023 Ry

     total magnetization       =    -0.00 Bohr mag/cell
     absolute magnetization    =     0.00 Bohr mag/cell

     iteration # 13     ecut=    60.00 Ry     beta= 0.30
     Davidson diagonalization with overlap
     ethr =  2.88E-10,  avg # of iterations =  3.0

     negative rho (up, down):  7.703E-04 7.661E-04

     total cpu time spent up to now is     2574.4 secs

     total energy              =    -414.84000880 Ry
     estimated scf accuracy    <       0.00000002 Ry

     total magnetization       =    -0.00 Bohr mag/cell
     absolute magnetization    =     0.00 Bohr mag/cell

     iteration # 14     ecut=    60.00 Ry     beta= 0.30
     Davidson diagonalization with overlap
     ethr =  9.21E-11,  avg # of iterations =  4.0

     negative rho (up, down):  7.680E-04 7.681E-04
 
     Magnetic moment per site  (integrated on atomic sphere of radius R)
     atom   1 (R=0.040)  charge= 13.9944  magn=  0.0000
     atom   2 (R=0.040)  charge=  0.7071  magn= -0.0000
     atom   3 (R=0.040)  charge=  0.7071  magn= -0.0000
     atom   4 (R=0.040)  charge=  0.7071  magn= -0.0000
     atom   5 (R=0.040)  charge=  0.7071  magn= -0.0000
     atom   6 (R=0.049)  charge=  0.1679  magn= -0.0000
     atom   7 (R=0.049)  charge=  0.1679  magn=  0.0000

     total cpu time spent up to now is     2578.9 secs

     End of self-consistent calculation

 ------ SPIN UP ------------


          k = 0.0000 0.0000 0.0000 (108616 PWs)   bands (ev):

  -106.1096 -66.5660 -66.4996 -66.4996  -8.8578  -7.0158  -6.7220  -6.7220
    -5.1878  -4.7629  -4.4391  -3.9484  -3.9484  -3.5200  -2.3360  -0.9546
    -0.9546

 ------ SPIN DOWN ----------


          k = 0.0000 0.0000 0.0000 (108616 PWs)   bands (ev):

  -106.1096 -66.5660 -66.4996 -66.4996  -8.8578  -7.0158  -6.7220  -6.7220
    -5.1878  -4.7629  -4.4391  -3.9484  -3.9484  -3.5201  -2.3361  -0.9546
    -0.9546

     the Fermi energy is    -3.7307 ev

!    total energy              =    -414.84000881 Ry
     estimated scf accuracy    <          2.1E-09 Ry
     smearing contrib. (-TS)   =      -0.00000039 Ry
     internal energy E=F+TS    =    -414.84000842 Ry

     The total energy is F=E-TS. E is the sum of the following terms:
     one-electron contribution =    -678.17956723 Ry
     hartree contribution      =     337.98971243 Ry
     xc contribution           =     -41.21669776 Ry
     ewald contribution        =      29.17111069 Ry
     DFT-D3 Dispersion         =      -0.01174241 Ry
     one-center paw contrib.   =     -62.59282414 Ry

     total magnetization       =    -0.00 Bohr mag/cell
     absolute magnetization    =     0.00 Bohr mag/cell

     convergence has been achieved in  14 iterations

     negative rho (up, down):  7.680E-04 7.681E-04

     Forces acting on atoms (cartesian axes, Ry/au):

     atom    1 type  1   force =     0.00000000    0.00000000    0.00000000
     atom    2 type  3   force =    -0.00927549   -0.00697088   -0.00697088
     atom    3 type  3   force =    -0.00927549    0.00697088    0.00697088
     atom    4 type  3   force =     0.00927549   -0.00697088    0.00697088
     atom    5 type  3   force =     0.00927549    0.00697088   -0.00697088
     atom    6 type  2   force =     0.01091885    0.00000000    0.00000000
     atom    7 type  2   force =    -0.01091885    0.00000000   -0.00000000

     Total force =     0.031166     Total SCF correction =     0.000016
     Energy error            =      9.0E-04 Ry
     Gradient error          =      1.1E-02 Ry/Bohr

     number of scf cycles    =  28
     number of bfgs steps    =  27

     energy             old  =    -414.8391076604 Ry
     energy             new  =    -414.8400088096 Ry

     CASE: energy            _new < energy            _old

     new trust radius        =       0.0467145675 bohr
     new conv_thr            =       0.0000000090 Ry


ATOMIC_POSITIONS (angstrom)
Ni               8.0000000000        8.0000000000        8.0000000000
H                8.7457645404        9.0143724175        9.0143724175
H                8.7457645404        6.9856275825        6.9856275825
H                7.2542354596        9.0143724175        6.9856275825
H                7.2542354596        6.9856275825        9.0143724175
Mg              10.1845578215        8.0000000000        8.0000000000
Mg               5.8154421785        8.0000000000        8.0000000000



     Writing config-only to output data dir ./outdir/mg2nih4_unit.save/ :
     XML data file
     NEW-OLD atomic charge density approx. for the potential

     negative rho (up, down):  7.687E-04 7.687E-04
     Generating pointlists ...

     total cpu time spent up to now is     2593.0 secs

     Self-consistent Calculation

     iteration #  1     ecut=    60.00 Ry     beta= 0.30
     Davidson diagonalization with overlap
     ethr =  1.00E-06,  avg # of iterations =  5.0

     negative rho (up, down):  7.714E-04 7.714E-04

     total cpu time spent up to now is     2597.9 secs

     total energy              =    -414.84122548 Ry
     estimated scf accuracy    <       0.00107463 Ry

     total magnetization       =    -0.00 Bohr mag/cell
     absolute magnetization    =     0.00 Bohr mag/cell

     iteration #  2     ecut=    60.00 Ry     beta= 0.30
     Davidson diagonalization with overlap
     ethr =  4.13E-06,  avg # of iterations =  3.0

     negative rho (up, down):  7.636E-04 7.636E-04

     total cpu time spent up to now is     2602.8 secs

     total energy              =    -414.84106964 Ry
     estimated scf accuracy    <       0.00871386 Ry

     total magnetization       =    -0.00 Bohr mag/cell
     absolute magnetization    =     0.00 Bohr mag/cell

     iteration #  3     ecut=    60.00 Ry     beta= 0.30
     Davidson diagonalization with overlap
     ethr =  4.13E-06,  avg # of iterations =  2.0

     negative rho (up, down):  7.647E-04 7.648E-04

     total cpu time spent up to now is     2607.4 secs

     total energy              =    -414.84158667 Ry
     estimated scf accuracy    <       0.00013233 Ry

     total magnetization       =    -0.00 Bohr mag/cell
     absolute magnetization    =     0.00 Bohr mag/cell

     iteration #  4     ecut=    60.00 Ry     beta= 0.30
     Davidson diagonalization with overlap
     ethr =  5.09E-07,  avg # of iterations =  4.0

     negative rho (up, down):  7.674E-04 7.675E-04

     total cpu time spent up to now is     2612.7 secs

     total energy              =    -414.84162663 Ry
     estimated scf accuracy    <       0.00025035 Ry

     total magnetization       =    -0.00 Bohr mag/cell
     absolute magnetization    =     0.00 Bohr mag/cell

     iteration #  5     ecut=    60.00 Ry     beta= 0.30
     Davidson diagonalization with overlap
     ethr =  5.09E-07,  avg # of iterations =  1.0

     negative rho (up, down):  7.693E-04 7.694E-04

     total cpu time spent up to now is     2617.4 secs

     total energy              =    -414.84163374 Ry
     estimated scf accuracy    <       0.00002879 Ry

     total magnetization       =    -0.00 Bohr mag/cell
     absolute magnetization    =     0.00 Bohr mag/cell

     iteration #  6     ecut=    60.00 Ry     beta= 0.30
     Davidson diagonalization with overlap
     ethr =  1.11E-07,  avg # of iterations =  1.0

     negative rho (up, down):  7.707E-04 7.708E-04

     total cpu time spent up to now is     2622.0 secs

     total energy              =    -414.84163397 Ry
     estimated scf accuracy    <       0.00001434 Ry

     total magnetization       =    -0.00 Bohr mag/cell
     absolute magnetization    =     0.00 Bohr mag/cell

     iteration #  7     ecut=    60.00 Ry     beta= 0.30
     Davidson diagonalization with overlap
     ethr =  5.52E-08,  avg # of iterations =  2.0

     negative rho (up, down):  7.716E-04 7.717E-04

     total cpu time spent up to now is     2626.8 secs

     total energy              =    -414.84163495 Ry
     estimated scf accuracy    <       0.00000135 Ry

     total magnetization       =    -0.00 Bohr mag/cell
     absolute magnetization    =     0.00 Bohr mag/cell

     iteration #  8     ecut=    60.00 Ry     beta= 0.30
     Davidson diagonalization with overlap
     ethr =  5.19E-09,  avg # of iterations =  5.0

     negative rho (up, down):  7.714E-04 7.715E-04

     total cpu time spent up to now is     2632.1 secs

     total energy              =    -414.84163521 Ry
     estimated scf accuracy    <       0.00000755 Ry

     total magnetization       =    -0.00 Bohr mag/cell
     absolute magnetization    =     0.00 Bohr mag/cell

     iteration #  9     ecut=    60.00 Ry     beta= 0.30
     Davidson diagonalization with overlap
     ethr =  5.19E-09,  avg # of iterations =  3.0

     negative rho (up, down):  7.718E-04 7.718E-04

     total cpu time spent up to now is     2637.0 secs

     total energy              =    -414.84163580 Ry
     estimated scf accuracy    <       0.00000002 Ry

     total magnetization       =    -0.00 Bohr mag/cell
     absolute magnetization    =     0.00 Bohr mag/cell

     iteration # 10     ecut=    60.00 Ry     beta= 0.30
     Davidson diagonalization with overlap
     ethr =  7.31E-11,  avg # of iterations = 10.0

     negative rho (up, down):  7.719E-04 7.719E-04

     total cpu time spent up to now is     2643.0 secs

     total energy              =    -414.84163595 Ry
     estimated scf accuracy    <       0.00000012 Ry

     total magnetization       =    -0.00 Bohr mag/cell
     absolute magnetization    =     0.00 Bohr mag/cell

     iteration # 11     ecut=    60.00 Ry     beta= 0.30
     Davidson diagonalization with overlap
     ethr =  7.31E-11,  avg # of iterations =  2.0

     negative rho (up, down):  7.720E-04 7.720E-04

     total cpu time spent up to now is     2647.8 secs

     total energy              =    -414.84163595 Ry
     estimated scf accuracy    <          9.3E-09 Ry

     total magnetization       =    -0.00 Bohr mag/cell
     absolute magnetization    =     0.00 Bohr mag/cell

     iteration # 12     ecut=    60.00 Ry     beta= 0.30
     Davidson diagonalization with overlap
     ethr =  3.59E-11,  avg # of iterations =  3.5

     negative rho (up, down):  7.724E-04 7.724E-04
 
     Magnetic moment per site  (integrated on atomic sphere of radius R)
     atom   1 (R=0.040)  charge= 13.9898  magn= -0.0000
     atom   2 (R=0.040)  charge=  0.7112  magn=  0.0000
     atom   3 (R=0.040)  charge=  0.7112  magn=  0.0000
     atom   4 (R=0.040)  charge=  0.7112  magn= -0.0000
     atom   5 (R=0.040)  charge=  0.7112  magn= -0.0000
     atom   6 (R=0.049)  charge=  0.1649  magn= -0.0000
     atom   7 (R=0.049)  charge=  0.1649  magn=  0.0000

     total cpu time spent up to now is     2652.4 secs

     End of self-consistent calculation

 ------ SPIN UP ------------


          k = 0.0000 0.0000 0.0000 (108616 PWs)   bands (ev):

  -106.1242 -66.5678 -66.5173 -66.5173  -8.8632  -7.0320  -6.7185  -6.7185
    -5.1835  -4.7868  -4.4506  -3.9125  -3.9125  -3.5643  -2.3616  -0.9708
    -0.9707

 ------ SPIN DOWN ----------


          k = 0.0000 0.0000 0.0000 (108616 PWs)   bands (ev):

  -106.1242 -66.5678 -66.5173 -66.5173  -8.8632  -7.0320  -6.7185  -6.7185
    -5.1835  -4.7868  -4.4506  -3.9125  -3.9125  -3.5643  -2.3616  -0.9708
    -0.9707

     the Fermi energy is    -3.7341 ev

!    total energy              =    -414.84163595 Ry
     estimated scf accuracy    <          5.5E-09 Ry
     smearing contrib. (-TS)   =      -0.00001138 Ry
     internal energy E=F+TS    =    -414.84162456 Ry

     The total energy is F=E-TS. E is the sum of the following terms:
     one-electron contribution =    -678.15184625 Ry
     hartree contribution      =     337.96302754 Ry
     xc contribution           =     -41.20454356 Ry
     ewald contribution        =      29.15216612 Ry
     DFT-D3 Dispersion         =      -0.01170016 Ry
     one-center paw contrib.   =     -62.58872825 Ry

     total magnetization       =    -0.00 Bohr mag/cell
     absolute magnetization    =     0.00 Bohr mag/cell

     convergence has been achieved in  12 iterations

     negative rho (up, down):  7.724E-04 7.724E-04

     Forces acting on atoms (cartesian axes, Ry/au):

     atom    1 type  1   force =     0.00000000    0.00000000    0.00000000
     atom    2 type  3   force =    -0.00793546   -0.00404733   -0.00404733
     atom    3 type  3   force =    -0.00793546    0.00404733    0.00404733
     atom    4 type  3   force =     0.00793546   -0.00404733    0.00404733
     atom    5 type  3   force =     0.00793546    0.00404733   -0.00404733
     atom    6 type  2   force =     0.00061773   -0.00000000    0.00000000
     atom    7 type  2   force =    -0.00061773    0.00000000    0.00000000

     Total force =     0.019588     Total SCF correction =     0.000026
     Energy error            =      1.6E-03 Ry
     Gradient error          =      7.9E-03 Ry/Bohr

     number of scf cycles    =  29
     number of bfgs steps    =  28

     energy             old  =    -414.8400088096 Ry
     energy             new  =    -414.8416359462 Ry

     CASE: energy            _new < energy            _old

     new trust radius        =       0.0899891857 bohr
     new conv_thr            =       0.0000000079 Ry


ATOMIC_POSITIONS (angstrom)
Ni               8.0000000000        8.0000000000        8.0000000000
H                8.6981579286        9.0135672888        9.0135672888
H                8.6981579286        6.9864327112        6.9864327112
H                7.3018420714        9.0135672888        6.9864327112
H                7.3018420714        6.9864327112        9.0135672888
Mg              10.1949379648        8.0000000000        8.0000000000
Mg               5.8050620352        8.0000000000        8.0000000000



     Writing config-only to output data dir ./outdir/mg2nih4_unit.save/ :
     XML data file
     NEW-OLD atomic charge density approx. for the potential

     negative rho (up, down):  7.718E-04 7.718E-04
     Generating pointlists ...

     total cpu time spent up to now is     2666.3 secs

     Self-consistent Calculation

     iteration #  1     ecut=    60.00 Ry     beta= 0.30
     Davidson diagonalization with overlap
     ethr =  1.00E-06,  avg # of iterations =  5.0

     negative rho (up, down):  7.792E-04 7.792E-04

     total cpu time spent up to now is     2672.0 secs

     total energy              =    -414.84387541 Ry
     estimated scf accuracy    <       0.00198541 Ry

     total magnetization       =    -0.00 Bohr mag/cell
     absolute magnetization    =     0.00 Bohr mag/cell

     iteration #  2     ecut=    60.00 Ry     beta= 0.30
     Davidson diagonalization with overlap
     ethr =  7.64E-06,  avg # of iterations =  2.0

     negative rho (up, down):  7.767E-04 7.767E-04

     total cpu time spent up to now is     2676.6 secs

     total energy              =    -414.84374598 Ry
     estimated scf accuracy    <       0.00507421 Ry

     total magnetization       =    -0.00 Bohr mag/cell
     absolute magnetization    =     0.00 Bohr mag/cell

     iteration #  3     ecut=    60.00 Ry     beta= 0.30
     Davidson diagonalization with overlap
     ethr =  7.64E-06,  avg # of iterations =  1.0

     negative rho (up, down):  7.838E-04 7.838E-04

     total cpu time spent up to now is     2681.2 secs

     total energy              =    -414.84404191 Ry
     estimated scf accuracy    <       0.00039033 Ry

     total magnetization       =    -0.00 Bohr mag/cell
     absolute magnetization    =     0.00 Bohr mag/cell

     iteration #  4     ecut=    60.00 Ry     beta= 0.30
     Davidson diagonalization with overlap
     ethr =  1.50E-06,  avg # of iterations =  2.0

     negative rho (up, down):  7.891E-04 7.891E-04

     total cpu time spent up to now is     2686.0 secs

     total energy              =    -414.84407756 Ry
     estimated scf accuracy    <       0.00020745 Ry

     total magnetization       =    -0.00 Bohr mag/cell
     absolute magnetization    =     0.00 Bohr mag/cell

     iteration #  5     ecut=    60.00 Ry     beta= 0.30
     Davidson diagonalization with overlap
     ethr =  7.98E-07,  avg # of iterations =  1.0

     negative rho (up, down):  7.927E-04 7.927E-04

     total cpu time spent up to now is     2690.6 secs

     total energy              =    -414.84409372 Ry
     estimated scf accuracy    <       0.00000642 Ry

     total magnetization       =    -0.00 Bohr mag/cell
     absolute magnetization    =     0.00 Bohr mag/cell

     iteration #  6     ecut=    60.00 Ry     beta= 0.30
     Davidson diagonalization with overlap
     ethr =  2.47E-08,  avg # of iterations =  3.0

     negative rho (up, down):  7.940E-04 7.940E-04

     total cpu time spent up to now is     2695.6 secs

     total energy              =    -414.84409452 Ry
     estimated scf accuracy    <       0.00001719 Ry

     total magnetization       =    -0.00 Bohr mag/cell
     absolute magnetization    =     0.00 Bohr mag/cell

     iteration #  7     ecut=    60.00 Ry     beta= 0.30
     Davidson diagonalization with overlap
     ethr =  2.47E-08,  avg # of iterations =  2.0

     negative rho (up, down):  7.949E-04 7.949E-04

     total cpu time spent up to now is     2700.4 secs

     total energy              =    -414.84409438 Ry
     estimated scf accuracy    <       0.00000341 Ry

     total magnetization       =    -0.00 Bohr mag/cell
     absolute magnetization    =     0.00 Bohr mag/cell

     iteration #  8     ecut=    60.00 Ry     beta= 0.30
     Davidson diagonalization with overlap
     ethr =  1.31E-08,  avg # of iterations =  2.0

     negative rho (up, down):  7.953E-04 7.953E-04

     total cpu time spent up to now is     2705.2 secs

     total energy              =    -414.84409489 Ry
     estimated scf accuracy    <       0.00000061 Ry

     total magnetization       =    -0.00 Bohr mag/cell
     absolute magnetization    =     0.00 Bohr mag/cell

     iteration #  9     ecut=    60.00 Ry     beta= 0.30
     Davidson diagonalization with overlap
     ethr =  2.34E-09,  avg # of iterations =  5.0

     negative rho (up, down):  7.957E-04 7.957E-04

     total cpu time spent up to now is     2710.7 secs

     total energy              =    -414.84409507 Ry
     estimated scf accuracy    <       0.00000002 Ry

     total magnetization       =    -0.00 Bohr mag/cell
     absolute magnetization    =     0.00 Bohr mag/cell

     iteration # 10     ecut=    60.00 Ry     beta= 0.30
     Davidson diagonalization with overlap
     ethr =  6.36E-11,  avg # of iterations =  6.0

     negative rho (up, down):  7.960E-04 7.960E-04

     total cpu time spent up to now is     2716.2 secs

     total energy              =    -414.84409509 Ry
     estimated scf accuracy    <       0.00000007 Ry

     total magnetization       =    -0.00 Bohr mag/cell
     absolute magnetization    =     0.00 Bohr mag/cell

     iteration # 11     ecut=    60.00 Ry     beta= 0.30
     Davidson diagonalization with overlap
     ethr =  6.36E-11,  avg # of iterations =  3.0

     negative rho (up, down):  7.966E-04 7.966E-04
 
     Magnetic moment per site  (integrated on atomic sphere of radius R)
     atom   1 (R=0.040)  charge= 13.9843  magn=  0.0000
     atom   2 (R=0.040)  charge=  0.7155  magn= -0.0000
     atom   3 (R=0.040)  charge=  0.7155  magn= -0.0000
     atom   4 (R=0.040)  charge=  0.7155  magn= -0.0000
     atom   5 (R=0.040)  charge=  0.7155  magn= -0.0000
     atom   6 (R=0.049)  charge=  0.1629  magn= -0.0000
     atom   7 (R=0.049)  charge=  0.1629  magn=  0.0000

     total cpu time spent up to now is     2720.8 secs

     End of self-consistent calculation

 ------ SPIN UP ------------


          k = 0.0000 0.0000 0.0000 (108616 PWs)   bands (ev):

  -106.2116 -66.6472 -66.6047 -66.6047  -8.8777  -7.0400  -6.7097  -6.7097
    -5.2979  -4.8495  -4.5304  -3.9579  -3.9579  -3.5965  -2.3180  -0.9697
    -0.9697

 ------ SPIN DOWN ----------


          k = 0.0000 0.0000 0.0000 (108616 PWs)   bands (ev):

  -106.2116 -66.6472 -66.6047 -66.6047  -8.8777  -7.0400  -6.7097  -6.7097
    -5.2979  -4.8495  -4.5304  -3.9579  -3.9579  -3.5965  -2.3180  -0.9697
    -0.9697

     the Fermi energy is    -3.7731 ev

!    total energy              =    -414.84409509 Ry
     estimated scf accuracy    <          7.8E-10 Ry
     smearing contrib. (-TS)   =      -0.00000687 Ry
     internal energy E=F+TS    =    -414.84408822 Ry

     The total energy is F=E-TS. E is the sum of the following terms:
     one-electron contribution =    -679.02311778 Ry
     hartree contribution      =     338.34124199 Ry
     xc contribution           =     -41.19394049 Ry
     ewald contribution        =      29.62885502 Ry
     DFT-D3 Dispersion         =      -0.01174767 Ry
     one-center paw contrib.   =     -62.58537929 Ry

     total magnetization       =     0.00 Bohr mag/cell
     absolute magnetization    =     0.00 Bohr mag/cell

     convergence has been achieved in  11 iterations

     negative rho (up, down):  7.966E-04 7.966E-04

     Forces acting on atoms (cartesian axes, Ry/au):

     atom    1 type  1   force =     0.00000000    0.00000000    0.00000000
     atom    2 type  3   force =    -0.00607151   -0.00150759   -0.00150759
     atom    3 type  3   force =    -0.00607151    0.00150759    0.00150759
     atom    4 type  3   force =     0.00607151   -0.00150759    0.00150759
     atom    5 type  3   force =     0.00607151    0.00150759   -0.00150759
     atom    6 type  2   force =    -0.00454278    0.00000000   -0.00000000
     atom    7 type  2   force =     0.00454278    0.00000000    0.00000000

     Total force =     0.014384     Total SCF correction =     0.000003
     Energy error            =      2.5E-03 Ry
     Gradient error          =      6.1E-03 Ry/Bohr

     number of scf cycles    =  30
     number of bfgs steps    =  29

     energy             old  =    -414.8416359462 Ry
     energy             new  =    -414.8440950879 Ry

     CASE: energy            _new < energy            _old

     new trust radius        =       0.0989881043 bohr
     new conv_thr            =       0.0000000061 Ry


ATOMIC_POSITIONS (angstrom)
Ni               8.0000000000        8.0000000000        8.0000000000
H                8.6461559794        9.0180224697        9.0180224697
H                8.6461559794        6.9819775303        6.9819775303
H                7.3538440206        9.0180224697        6.9819775303
H                7.3538440206        6.9819775303        9.0180224697
Mg              10.1950727858        8.0000000000        8.0000000000
Mg               5.8049272142        8.0000000000        8.0000000000



     Writing config-only to output data dir ./outdir/mg2nih4_unit.save/ :
     XML data file
     NEW-OLD atomic charge density approx. for the potential

     negative rho (up, down):  7.966E-04 7.966E-04
     Generating pointlists ...

     total cpu time spent up to now is     2734.5 secs

     Self-consistent Calculation

     iteration #  1     ecut=    60.00 Ry     beta= 0.30
     Davidson diagonalization with overlap
     ethr =  1.00E-06,  avg # of iterations =  6.0

     negative rho (up, down):  8.042E-04 8.042E-04

     total cpu time spent up to now is     2739.9 secs

     total energy              =    -414.84622551 Ry
     estimated scf accuracy    <       0.00163093 Ry

     total magnetization       =     0.00 Bohr mag/cell
     absolute magnetization    =     0.00 Bohr mag/cell

     iteration #  2     ecut=    60.00 Ry     beta= 0.30
     Davidson diagonalization with overlap
     ethr =  6.27E-06,  avg # of iterations =  2.0

     negative rho (up, down):  8.052E-04 8.052E-04

     total cpu time spent up to now is     2744.6 secs

     total energy              =    -414.84609415 Ry
     estimated scf accuracy    <       0.00205127 Ry

     total magnetization       =     0.00 Bohr mag/cell
     absolute magnetization    =     0.00 Bohr mag/cell

     iteration #  3     ecut=    60.00 Ry     beta= 0.30
     Davidson diagonalization with overlap
     ethr =  6.27E-06,  avg # of iterations =  1.0

     negative rho (up, down):  8.134E-04 8.134E-04

     total cpu time spent up to now is     2749.0 secs

     total energy              =    -414.84618351 Ry
     estimated scf accuracy    <       0.00063007 Ry

     total magnetization       =     0.00 Bohr mag/cell
     absolute magnetization    =     0.00 Bohr mag/cell

     iteration #  4     ecut=    60.00 Ry     beta= 0.30
     Davidson diagonalization with overlap
     ethr =  2.42E-06,  avg # of iterations =  2.0

     negative rho (up, down):  8.172E-04 8.172E-04

     total cpu time spent up to now is     2753.7 secs

     total energy              =    -414.84624042 Ry
     estimated scf accuracy    <       0.00003240 Ry

     total magnetization       =     0.00 Bohr mag/cell
     absolute magnetization    =     0.00 Bohr mag/cell

     iteration #  5     ecut=    60.00 Ry     beta= 0.30
     Davidson diagonalization with overlap
     ethr =  1.25E-07,  avg # of iterations =  2.0

     negative rho (up, down):  8.201E-04 8.201E-04

     total cpu time spent up to now is     2758.5 secs

     total energy              =    -414.84624249 Ry
     estimated scf accuracy    <       0.00000605 Ry

     total magnetization       =     0.00 Bohr mag/cell
     absolute magnetization    =     0.00 Bohr mag/cell

     iteration #  6     ecut=    60.00 Ry     beta= 0.30
     Davidson diagonalization with overlap
     ethr =  2.33E-08,  avg # of iterations =  2.0

     negative rho (up, down):  8.210E-04 8.210E-04

     total cpu time spent up to now is     2763.2 secs

     total energy              =    -414.84624324 Ry
     estimated scf accuracy    <       0.00000246 Ry

     total magnetization       =     0.00 Bohr mag/cell
     absolute magnetization    =     0.00 Bohr mag/cell

     iteration #  7     ecut=    60.00 Ry     beta= 0.30
     Davidson diagonalization with overlap
     ethr =  9.48E-09,  avg # of iterations =  2.0

     negative rho (up, down):  8.221E-04 8.221E-04

     total cpu time spent up to now is     2767.8 secs

     total energy              =    -414.84624370 Ry
     estimated scf accuracy    <       0.00000042 Ry

     total magnetization       =     0.00 Bohr mag/cell
     absolute magnetization    =     0.00 Bohr mag/cell

     iteration #  8     ecut=    60.00 Ry     beta= 0.30
     Davidson diagonalization with overlap
     ethr =  1.63E-09,  avg # of iterations =  5.0

     negative rho (up, down):  8.227E-04 8.227E-04

     total cpu time spent up to now is     2773.1 secs

     total energy              =    -414.84624385 Ry
     estimated scf accuracy    <       0.00000002 Ry

     total magnetization       =     0.00 Bohr mag/cell
     absolute magnetization    =     0.00 Bohr mag/cell

     iteration #  9     ecut=    60.00 Ry     beta= 0.30
     Davidson diagonalization with overlap
     ethr =  8.05E-11,  avg # of iterations =  6.0

     negative rho (up, down):  8.240E-04 8.240E-04
 
     Magnetic moment per site  (integrated on atomic sphere of radius R)
     atom   1 (R=0.040)  charge= 13.9806  magn=  0.0000
     atom   2 (R=0.040)  charge=  0.7179  magn=  0.0000
     atom   3 (R=0.040)  charge=  0.7179  magn=  0.0000
     atom   4 (R=0.040)  charge=  0.7179  magn= -0.0000
     atom   5 (R=0.040)  charge=  0.7179  magn= -0.0000
     atom   6 (R=0.049)  charge=  0.1622  magn= -0.0000
     atom   7 (R=0.049)  charge=  0.1622  magn=  0.0000

     total cpu time spent up to now is     2778.1 secs

     End of self-consistent calculation

 ------ SPIN UP ------------


          k = 0.0000 0.0000 0.0000 (108616 PWs)   bands (ev):

  -106.2958 -66.7281 -66.6880 -66.6880  -8.8903  -7.0486  -6.6865  -6.6865
    -5.4233  -4.8958  -4.6093  -4.0337  -4.0337  -3.6080  -2.2463  -0.9604
    -0.9604

 ------ SPIN DOWN ----------


          k = 0.0000 0.0000 0.0000 (108616 PWs)   bands (ev):

  -106.2958 -66.7281 -66.6880 -66.6880  -8.8903  -7.0486  -6.6865  -6.6865
    -5.4233  -4.8958  -4.6093  -4.0337  -4.0337  -3.6080  -2.2463  -0.9604
    -0.9604

     the Fermi energy is    -3.8173 ev

!    total energy              =    -414.84624385 Ry
     estimated scf accuracy    <          4.8E-09 Ry
     smearing contrib. (-TS)   =      -0.00000045 Ry
     internal energy E=F+TS    =    -414.84624340 Ry

     The total energy is F=E-TS. E is the sum of the following terms:
     one-electron contribution =    -679.88098536 Ry
     hartree contribution      =     338.71285101 Ry
     xc contribution           =     -41.18737738 Ry
     ewald contribution        =      30.10498433 Ry
     DFT-D3 Dispersion         =      -0.01186811 Ry
     one-center paw contrib.   =     -62.58384789 Ry

     total magnetization       =     0.00 Bohr mag/cell
     absolute magnetization    =     0.00 Bohr mag/cell

     convergence has been achieved in   9 iterations

     negative rho (up, down):  8.240E-04 8.240E-04

     Forces acting on atoms (cartesian axes, Ry/au):

     atom    1 type  1   force =     0.00000000    0.00000000    0.00000000
     atom    2 type  3   force =    -0.00527295   -0.00015263   -0.00015263
     atom    3 type  3   force =    -0.00527295    0.00015263    0.00015263
     atom    4 type  3   force =     0.00527295   -0.00015263    0.00015263
     atom    5 type  3   force =     0.00527295    0.00015263   -0.00015263
     atom    6 type  2   force =    -0.00479827    0.00000000   -0.00000000
     atom    7 type  2   force =     0.00479827    0.00000000    0.00000000

     Total force =     0.012548     Total SCF correction =     0.000020
     Energy error            =      2.1E-03 Ry
     Gradient error          =      5.3E-03 Ry/Bohr

     number of scf cycles    =  31
     number of bfgs steps    =  30

     energy             old  =    -414.8440950879 Ry
     energy             new  =    -414.8462438471 Ry

     CASE: energy            _new < energy            _old

     new trust radius        =       0.1484821564 bohr
     new conv_thr            =       0.0000000053 Ry


ATOMIC_POSITIONS (angstrom)
Ni               8.0000000000        8.0000000000        8.0000000000
H                8.5688535086        9.0279749323        9.0279749323
H                8.5688535086        6.9720250677        6.9720250677
H                7.4311464914        9.0279749323        6.9720250677
H                7.4311464914        6.9720250677        9.0279749323
Mg              10.1935045793        8.0000000000        8.0000000000
Mg               5.8064954207        8.0000000000        8.0000000000



     Writing config-only to output data dir ./outdir/mg2nih4_unit.save/ :
     XML data file
     NEW-OLD atomic charge density approx. for the potential

     negative rho (up, down):  8.244E-04 8.244E-04
     Generating pointlists ...

     total cpu time spent up to now is     2791.8 secs

     Self-consistent Calculation

     iteration #  1     ecut=    60.00 Ry     beta= 0.30
     Davidson diagonalization with overlap
     ethr =  1.00E-06,  avg # of iterations =  7.0

     negative rho (up, down):  8.362E-04 8.362E-04

     total cpu time spent up to now is     2797.5 secs

     total energy              =    -414.84946986 Ry
     estimated scf accuracy    <       0.00328526 Ry

     total magnetization       =    -0.00 Bohr mag/cell
     absolute magnetization    =     0.00 Bohr mag/cell

     iteration #  2     ecut=    60.00 Ry     beta= 0.30
     Davidson diagonalization with overlap
     ethr =  1.26E-05,  avg # of iterations =  2.0

     negative rho (up, down):  8.394E-04 8.394E-04

     total cpu time spent up to now is     2802.2 secs

     total energy              =    -414.84922105 Ry
     estimated scf accuracy    <       0.00353501 Ry

     total magnetization       =    -0.00 Bohr mag/cell
     absolute magnetization    =     0.00 Bohr mag/cell

     iteration #  3     ecut=    60.00 Ry     beta= 0.30
     Davidson diagonalization with overlap
     ethr =  1.26E-05,  avg # of iterations =  1.0

     negative rho (up, down):  8.521E-04 8.521E-04

     total cpu time spent up to now is     2806.7 secs

     total energy              =    -414.84937373 Ry
     estimated scf accuracy    <       0.00121119 Ry

     total magnetization       =     0.00 Bohr mag/cell
     absolute magnetization    =     0.00 Bohr mag/cell

     iteration #  4     ecut=    60.00 Ry     beta= 0.30
     Davidson diagonalization with overlap
     ethr =  4.66E-06,  avg # of iterations =  2.0

     negative rho (up, down):  8.569E-04 8.569E-04

     total cpu time spent up to now is     2811.3 secs

     total energy              =    -414.84947428 Ry
     estimated scf accuracy    <       0.00006469 Ry

     total magnetization       =     0.00 Bohr mag/cell
     absolute magnetization    =     0.00 Bohr mag/cell

     iteration #  5     ecut=    60.00 Ry     beta= 0.30
     Davidson diagonalization with overlap
     ethr =  2.49E-07,  avg # of iterations =  2.0

     negative rho (up, down):  8.612E-04 8.612E-04

     total cpu time spent up to now is     2816.1 secs

     total energy              =    -414.84947786 Ry
     estimated scf accuracy    <       0.00001808 Ry

     total magnetization       =     0.00 Bohr mag/cell
     absolute magnetization    =     0.00 Bohr mag/cell

     iteration #  6     ecut=    60.00 Ry     beta= 0.30
     Davidson diagonalization with overlap
     ethr =  6.96E-08,  avg # of iterations =  2.0

     negative rho (up, down):  8.626E-04 8.626E-04

     total cpu time spent up to now is     2821.0 secs

     total energy              =    -414.84948031 Ry
     estimated scf accuracy    <       0.00003017 Ry

     total magnetization       =    -0.00 Bohr mag/cell
     absolute magnetization    =     0.00 Bohr mag/cell

     iteration #  7     ecut=    60.00 Ry     beta= 0.30
     Davidson diagonalization with overlap
     ethr =  6.96E-08,  avg # of iterations =  1.0

     negative rho (up, down):  8.634E-04 8.634E-04

     total cpu time spent up to now is     2825.6 secs

     total energy              =    -414.84948215 Ry
     estimated scf accuracy    <       0.00000055 Ry

     total magnetization       =     0.00 Bohr mag/cell
     absolute magnetization    =     0.00 Bohr mag/cell

     iteration #  8     ecut=    60.00 Ry     beta= 0.30
     Davidson diagonalization with overlap
     ethr =  2.13E-09,  avg # of iterations =  5.0

     negative rho (up, down):  8.641E-04 8.641E-04

     total cpu time spent up to now is     2831.3 secs

     total energy              =    -414.84948269 Ry
     estimated scf accuracy    <       0.00000006 Ry

     total magnetization       =     0.00 Bohr mag/cell
     absolute magnetization    =     0.00 Bohr mag/cell

     iteration #  9     ecut=    60.00 Ry     beta= 0.30
     Davidson diagonalization with overlap
     ethr =  2.27E-10,  avg # of iterations =  5.0

     negative rho (up, down):  8.648E-04 8.648E-04

     total cpu time spent up to now is     2836.3 secs

     total energy              =    -414.84948269 Ry
     estimated scf accuracy    <       0.00000012 Ry

     total magnetization       =    -0.00 Bohr mag/cell
     absolute magnetization    =     0.00 Bohr mag/cell

     iteration # 10     ecut=    60.00 Ry     beta= 0.30
     Davidson diagonalization with overlap
     ethr =  2.27E-10,  avg # of iterations =  1.0

     negative rho (up, down):  8.653E-04 8.653E-04

     total cpu time spent up to now is     2840.9 secs

     total energy              =    -414.84948267 Ry
     estimated scf accuracy    <       0.00000007 Ry

     total magnetization       =     0.00 Bohr mag/cell
     absolute magnetization    =     0.00 Bohr mag/cell

     iteration # 11     ecut=    60.00 Ry     beta= 0.30
     Davidson diagonalization with overlap
     ethr =  2.27E-10,  avg # of iterations =  2.0

     negative rho (up, down):  8.655E-04 8.655E-04

     total cpu time spent up to now is     2845.6 secs

     total energy              =    -414.84948268 Ry
     estimated scf accuracy    <       0.00000001 Ry

     total magnetization       =    -0.00 Bohr mag/cell
     absolute magnetization    =     0.00 Bohr mag/cell

     iteration # 12     ecut=    60.00 Ry     beta= 0.30
     Davidson diagonalization with overlap
     ethr =  3.89E-11,  avg # of iterations =  1.0

     negative rho (up, down):  8.662E-04 8.662E-04
 
     Magnetic moment per site  (integrated on atomic sphere of radius R)
     atom   1 (R=0.040)  charge= 13.9764  magn=  0.0000
     atom   2 (R=0.040)  charge=  0.7195  magn=  0.0000
     atom   3 (R=0.040)  charge=  0.7195  magn=  0.0000
     atom   4 (R=0.040)  charge=  0.7195  magn= -0.0000
     atom   5 (R=0.040)  charge=  0.7195  magn= -0.0000
     atom   6 (R=0.049)  charge=  0.1619  magn= -0.0000
     atom   7 (R=0.049)  charge=  0.1619  magn=  0.0000

     total cpu time spent up to now is     2850.0 secs

     End of self-consistent calculation

 ------ SPIN UP ------------


          k = 0.0000 0.0000 0.0000 (108616 PWs)   bands (ev):

  -106.4044 -66.8332 -66.7950 -66.7950  -8.9042  -7.0673  -6.6198  -6.6198
    -5.5940  -4.9388  -4.7121  -4.1667  -4.1667  -3.6145  -2.1224  -0.9450
    -0.9450

 ------ SPIN DOWN ----------


          k = 0.0000 0.0000 0.0000 (108616 PWs)   bands (ev):

  -106.4044 -66.8332 -66.7950 -66.7950  -8.9042  -7.0673  -6.6198  -6.6198
    -5.5940  -4.9388  -4.7121  -4.1667  -4.1667  -3.6145  -2.1224  -0.9450
    -0.9450

     the Fermi energy is    -3.8877 ev

!    total energy              =    -414.84948268 Ry
     estimated scf accuracy    <          7.0E-10 Ry
     smearing contrib. (-TS)   =      -0.00000000 Ry
     internal energy E=F+TS    =    -414.84948268 Ry

     The total energy is F=E-TS. E is the sum of the following terms:
     one-electron contribution =    -680.80305428 Ry
     hartree contribution      =     339.10188831 Ry
     xc contribution           =     -41.17773820 Ry
     ewald contribution        =      30.62430679 Ry
     DFT-D3 Dispersion         =      -0.01238683 Ry
     one-center paw contrib.   =     -62.58249846 Ry

     total magnetization       =    -0.00 Bohr mag/cell
     absolute magnetization    =     0.00 Bohr mag/cell

     convergence has been achieved in  12 iterations

     negative rho (up, down):  8.662E-04 8.662E-04

     Forces acting on atoms (cartesian axes, Ry/au):

     atom    1 type  1   force =     0.00000000    0.00000000    0.00000000
     atom    2 type  3   force =    -0.00580924    0.00098953    0.00098953
     atom    3 type  3   force =    -0.00580924   -0.00098953   -0.00098953
     atom    4 type  3   force =     0.00580924    0.00098953   -0.00098953
     atom    5 type  3   force =     0.00580924   -0.00098953    0.00098953
     atom    6 type  2   force =    -0.00194097   -0.00000000    0.00000000
     atom    7 type  2   force =     0.00194097   -0.00000000    0.00000000

     Total force =     0.012262     Total SCF correction =     0.000010
     Energy error            =      3.2E-03 Ry
     Gradient error          =      5.8E-03 Ry/Bohr

     number of scf cycles    =  32
     number of bfgs steps    =  31

     energy             old  =    -414.8462438471 Ry
     energy             new  =    -414.8494826760 Ry

     CASE: energy            _new < energy            _old


     WARNING: bfgs curvature condition failed, Theta= 0.364
     new trust radius        =       0.2227232346 bohr
     new conv_thr            =       0.0000000058 Ry


ATOMIC_POSITIONS (angstrom)
Ni               8.0000000000        8.0000000000        8.0000000000
H                8.4526604460        9.0419421432        9.0419421432
H                8.4526604460        6.9580578568        6.9580578568
H                7.5473395540        9.0419421432        6.9580578568
H                7.5473395540        6.9580578568        9.0419421432
Mg              10.1881833597        8.0000000000        8.0000000000
Mg               5.8118166403        8.0000000000        8.0000000000



     Writing config-only to output data dir ./outdir/mg2nih4_unit.save/ :
     XML data file
     NEW-OLD atomic charge density approx. for the potential

     negative rho (up, down):  8.670E-04 8.670E-04
     Generating pointlists ...

     total cpu time spent up to now is     2863.7 secs

     Self-consistent Calculation

     iteration #  1     ecut=    60.00 Ry     beta= 0.30
     Davidson diagonalization with overlap
     ethr =  1.00E-06,  avg # of iterations =  8.0

     negative rho (up, down):  8.834E-04 8.834E-04

     total cpu time spent up to now is     2869.6 secs

     total energy              =    -414.85582571 Ry
     estimated scf accuracy    <       0.00603128 Ry

     total magnetization       =    -0.00 Bohr mag/cell
     absolute magnetization    =     0.00 Bohr mag/cell

     iteration #  2     ecut=    60.00 Ry     beta= 0.30
     Davidson diagonalization with overlap
     ethr =  2.32E-05,  avg # of iterations =  1.0

     negative rho (up, down):  8.909E-04 8.909E-04

     total cpu time spent up to now is     2874.0 secs

     total energy              =    -414.85535000 Ry
     estimated scf accuracy    <       0.00413023 Ry

     total magnetization       =     0.00 Bohr mag/cell
     absolute magnetization    =     0.00 Bohr mag/cell

     iteration #  3     ecut=    60.00 Ry     beta= 0.30
     Davidson diagonalization with overlap
     ethr =  1.59E-05,  avg # of iterations =  2.0

     negative rho (up, down):  9.074E-04 9.074E-04

     total cpu time spent up to now is     2878.4 secs

     total energy              =    -414.85542555 Ry
     estimated scf accuracy    <       0.00269435 Ry

     total magnetization       =    -0.00 Bohr mag/cell
     absolute magnetization    =     0.00 Bohr mag/cell

     iteration #  4     ecut=    60.00 Ry     beta= 0.30
     Davidson diagonalization with overlap
     ethr =  1.04E-05,  avg # of iterations =  1.0

     negative rho (up, down):  9.134E-04 9.134E-04

     total cpu time spent up to now is     2882.9 secs

     total energy              =    -414.85562763 Ry
     estimated scf accuracy    <       0.00007469 Ry

     total magnetization       =    -0.00 Bohr mag/cell
     absolute magnetization    =     0.00 Bohr mag/cell

     iteration #  5     ecut=    60.00 Ry     beta= 0.30
     Davidson diagonalization with overlap
     ethr =  2.87E-07,  avg # of iterations =  2.0

     negative rho (up, down):  9.188E-04 9.188E-04

     total cpu time spent up to now is     2887.6 secs

     total energy              =    -414.85564459 Ry
     estimated scf accuracy    <       0.00001373 Ry

     total magnetization       =     0.00 Bohr mag/cell
     absolute magnetization    =     0.00 Bohr mag/cell

     iteration #  6     ecut=    60.00 Ry     beta= 0.30
     Davidson diagonalization with overlap
     ethr =  5.28E-08,  avg # of iterations =  5.0

     negative rho (up, down):  9.200E-04 9.200E-04

     total cpu time spent up to now is     2892.6 secs

     total energy              =    -414.85564330 Ry
     estimated scf accuracy    <       0.00005316 Ry

     total magnetization       =    -0.00 Bohr mag/cell
     absolute magnetization    =     0.00 Bohr mag/cell

     iteration #  7     ecut=    60.00 Ry     beta= 0.30
     Davidson diagonalization with overlap
     ethr =  5.28E-08,  avg # of iterations =  2.0

     negative rho (up, down):  9.214E-04 9.214E-04

     total cpu time spent up to now is     2897.5 secs

     total energy              =    -414.85564495 Ry
     estimated scf accuracy    <       0.00000447 Ry

     total magnetization       =     0.00 Bohr mag/cell
     absolute magnetization    =     0.00 Bohr mag/cell

     iteration #  8     ecut=    60.00 Ry     beta= 0.30
     Davidson diagonalization with overlap
     ethr =  1.72E-08,  avg # of iterations =  4.0

     negative rho (up, down):  9.228E-04 9.228E-04

     total cpu time spent up to now is     2902.7 secs

     total energy              =    -414.85564625 Ry
     estimated scf accuracy    <       0.00000195 Ry

     total magnetization       =    -0.00 Bohr mag/cell
     absolute magnetization    =     0.00 Bohr mag/cell

     iteration #  9     ecut=    60.00 Ry     beta= 0.30
     Davidson diagonalization with overlap
     ethr =  7.49E-09,  avg # of iterations =  1.0

     negative rho (up, down):  9.239E-04 9.239E-04

     total cpu time spent up to now is     2907.2 secs

     total energy              =    -414.85564603 Ry
     estimated scf accuracy    <       0.00000137 Ry

     total magnetization       =    -0.00 Bohr mag/cell
     absolute magnetization    =     0.00 Bohr mag/cell

     iteration # 10     ecut=    60.00 Ry     beta= 0.30
     Davidson diagonalization with overlap
     ethr =  5.27E-09,  avg # of iterations =  2.0

     negative rho (up, down):  9.246E-04 9.246E-04

     total cpu time spent up to now is     2911.9 secs

     total energy              =    -414.85564612 Ry
     estimated scf accuracy    <       0.00000006 Ry

     total magnetization       =    -0.00 Bohr mag/cell
     absolute magnetization    =     0.00 Bohr mag/cell

     iteration # 11     ecut=    60.00 Ry     beta= 0.30
     Davidson diagonalization with overlap
     ethr =  2.15E-10,  avg # of iterations =  9.0

     negative rho (up, down):  9.250E-04 9.250E-04

     total cpu time spent up to now is     2917.7 secs

     total energy              =    -414.85564619 Ry
     estimated scf accuracy    <       0.00000052 Ry

     total magnetization       =     0.00 Bohr mag/cell
     absolute magnetization    =     0.00 Bohr mag/cell

     iteration # 12     ecut=    60.00 Ry     beta= 0.30
     Davidson diagonalization with overlap
     ethr =  2.15E-10,  avg # of iterations =  3.0

     negative rho (up, down):  9.253E-04 9.253E-04

     total cpu time spent up to now is     2922.4 secs

     total energy              =    -414.85564619 Ry
     estimated scf accuracy    <       0.00000008 Ry

     total magnetization       =     0.00 Bohr mag/cell
     absolute magnetization    =     0.00 Bohr mag/cell

     iteration # 13     ecut=    60.00 Ry     beta= 0.30
     Davidson diagonalization with overlap
     ethr =  2.15E-10,  avg # of iterations =  1.0

     negative rho (up, down):  9.255E-04 9.255E-04

     total cpu time spent up to now is     2927.0 secs

     total energy              =    -414.85564619 Ry
     estimated scf accuracy    <       0.00000002 Ry

     total magnetization       =    -0.00 Bohr mag/cell
     absolute magnetization    =     0.00 Bohr mag/cell

     iteration # 14     ecut=    60.00 Ry     beta= 0.30
     Davidson diagonalization with overlap
     ethr =  6.39E-11,  avg # of iterations =  2.0

     negative rho (up, down):  9.260E-04 9.260E-04
 
     Magnetic moment per site  (integrated on atomic sphere of radius R)
     atom   1 (R=0.040)  charge= 13.9724  magn= -0.0000
     atom   2 (R=0.040)  charge=  0.7227  magn=  0.0000
     atom   3 (R=0.040)  charge=  0.7227  magn=  0.0000
     atom   4 (R=0.040)  charge=  0.7227  magn= -0.0000
     atom   5 (R=0.040)  charge=  0.7227  magn= -0.0000
     atom   6 (R=0.049)  charge=  0.1624  magn= -0.0000
     atom   7 (R=0.049)  charge=  0.1624  magn=  0.0000

     total cpu time spent up to now is     2931.6 secs

     End of self-consistent calculation

 ------ SPIN UP ------------


          k = 0.0000 0.0000 0.0000 (108616 PWs)   bands (ev):

  -106.5337 -66.9597 -66.9225 -66.9225  -8.9387  -7.1214  -6.4731  -6.4731
    -5.8083  -4.9592  -4.8383  -4.3944  -4.3944  -3.6088  -1.9044  -0.9181
    -0.9181

 ------ SPIN DOWN ----------


          k = 0.0000 0.0000 0.0000 (108616 PWs)   bands (ev):

  -106.5337 -66.9597 -66.9225 -66.9225  -8.9387  -7.1214  -6.4731  -6.4731
    -5.8083  -4.9592  -4.8383  -4.3944  -4.3944  -3.6088  -1.9044  -0.9181
    -0.9181

     the Fermi energy is    -3.9987 ev

!    total energy              =    -414.85564619 Ry
     estimated scf accuracy    <          1.8E-09 Ry
     smearing contrib. (-TS)   =      -0.00000000 Ry
     internal energy E=F+TS    =    -414.85564619 Ry

     The total energy is F=E-TS. E is the sum of the following terms:
     one-electron contribution =    -682.00772915 Ry
     hartree contribution      =     339.61825532 Ry
     xc contribution           =     -41.17159509 Ry
     ewald contribution        =      31.30208586 Ry
     DFT-D3 Dispersion         =      -0.01444348 Ry
     one-center paw contrib.   =     -62.58221965 Ry

     total magnetization       =     0.00 Bohr mag/cell
     absolute magnetization    =     0.00 Bohr mag/cell

     convergence has been achieved in  14 iterations

     negative rho (up, down):  9.260E-04 9.260E-04

     Forces acting on atoms (cartesian axes, Ry/au):

     atom    1 type  1   force =     0.00000000    0.00000000    0.00000000
     atom    2 type  3   force =    -0.00702186    0.00210854    0.00210854
     atom    3 type  3   force =    -0.00702186   -0.00210854   -0.00210854
     atom    4 type  3   force =     0.00702186    0.00210854   -0.00210854
     atom    5 type  3   force =     0.00702186   -0.00210854    0.00210854
     atom    6 type  2   force =     0.00461962    0.00000000    0.00000000
     atom    7 type  2   force =    -0.00461962   -0.00000000    0.00000000

     Total force =     0.016597     Total SCF correction =     0.000009
     Energy error            =      6.2E-03 Ry
     Gradient error          =      7.0E-03 Ry/Bohr

     number of scf cycles    =  33
     number of bfgs steps    =  32

     energy             old  =    -414.8494826760 Ry
     energy             new  =    -414.8556461890 Ry

     CASE: energy            _new < energy            _old


     WARNING: bfgs curvature condition failed, Theta= 0.468
     new trust radius        =       0.2420600617 bohr
     new conv_thr            =       0.0000000070 Ry


ATOMIC_POSITIONS (angstrom)
Ni               8.0000000000        8.0000000000        8.0000000000
H                8.3259518423        9.0552211007        9.0552211007
H                8.3259518423        6.9447788993        6.9447788993
H                7.6740481577        9.0552211007        6.9447788993
H                7.6740481577        6.9447788993        9.0552211007
Mg              10.1651670238        8.0000000000        8.0000000000
Mg               5.8348329762        8.0000000000        8.0000000000



     Writing config-only to output data dir ./outdir/mg2nih4_unit.save/ :
     XML data file
     NEW-OLD atomic charge density approx. for the potential

     negative rho (up, down):  9.291E-04 9.291E-04
     Generating pointlists ...
     new r_m :   0.0394 (alat units)  1.1907 (a.u.) for type    1
     new r_m :   0.0394 (alat units)  1.1907 (a.u.) for type    3

     total cpu time spent up to now is     2945.3 secs

     Self-consistent Calculation

     iteration #  1     ecut=    60.00 Ry     beta= 0.30
     Davidson diagonalization with overlap
     ethr =  1.00E-06,  avg # of iterations =  7.0

     negative rho (up, down):  9.406E-04 9.406E-04

     total cpu time spent up to now is     2951.0 secs

     total energy              =    -414.86168337 Ry
     estimated scf accuracy    <       0.00533158 Ry

     total magnetization       =     0.00 Bohr mag/cell
     absolute magnetization    =     0.00 Bohr mag/cell

     iteration #  2     ecut=    60.00 Ry     beta= 0.30
     Davidson diagonalization with overlap
     ethr =  2.05E-05,  avg # of iterations =  1.0

     negative rho (up, down):  9.570E-04 9.570E-04

     total cpu time spent up to now is     2955.4 secs

     total energy              =    -414.86112827 Ry
     estimated scf accuracy    <       0.00212110 Ry

     total magnetization       =    -0.00 Bohr mag/cell
     absolute magnetization    =     0.00 Bohr mag/cell

     iteration #  3     ecut=    60.00 Ry     beta= 0.30
     Davidson diagonalization with overlap
     ethr =  8.16E-06,  avg # of iterations =  2.0

     negative rho (up, down):  9.619E-04 9.619E-04

     total cpu time spent up to now is     2960.1 secs

     total energy              =    -414.86128041 Ry
     estimated scf accuracy    <       0.00004868 Ry

     total magnetization       =    -0.00 Bohr mag/cell
     absolute magnetization    =     0.00 Bohr mag/cell

     iteration #  4     ecut=    60.00 Ry     beta= 0.30
     Davidson diagonalization with overlap
     ethr =  1.87E-07,  avg # of iterations =  5.0

     negative rho (up, down):  9.672E-04 9.672E-04

     total cpu time spent up to now is     2965.2 secs

     total energy              =    -414.86129075 Ry
     estimated scf accuracy    <       0.00008258 Ry

     total magnetization       =    -0.00 Bohr mag/cell
     absolute magnetization    =     0.00 Bohr mag/cell

     iteration #  5     ecut=    60.00 Ry     beta= 0.30
     Davidson diagonalization with overlap
     ethr =  1.87E-07,  avg # of iterations =  2.0

     negative rho (up, down):  9.713E-04 9.713E-04

     total cpu time spent up to now is     2969.8 secs

     total energy              =    -414.86129727 Ry
     estimated scf accuracy    <       0.00000712 Ry

     total magnetization       =     0.00 Bohr mag/cell
     absolute magnetization    =     0.00 Bohr mag/cell

     iteration #  6     ecut=    60.00 Ry     beta= 0.30
     Davidson diagonalization with overlap
     ethr =  2.74E-08,  avg # of iterations =  4.0

     negative rho (up, down):  9.723E-04 9.723E-04

     total cpu time spent up to now is     2975.0 secs

     total energy              =    -414.86129808 Ry
     estimated scf accuracy    <       0.00001433 Ry

     total magnetization       =     0.00 Bohr mag/cell
     absolute magnetization    =     0.00 Bohr mag/cell

     iteration #  7     ecut=    60.00 Ry     beta= 0.30
     Davidson diagonalization with overlap
     ethr =  2.74E-08,  avg # of iterations =  2.0

     negative rho (up, down):  9.733E-04 9.733E-04

     total cpu time spent up to now is     2979.6 secs

     total energy              =    -414.86129844 Ry
     estimated scf accuracy    <       0.00000142 Ry

     total magnetization       =    -0.00 Bohr mag/cell
     absolute magnetization    =     0.00 Bohr mag/cell

     iteration #  8     ecut=    60.00 Ry     beta= 0.30
     Davidson diagonalization with overlap
     ethr =  5.44E-09,  avg # of iterations =  4.0

     negative rho (up, down):  9.745E-04 9.745E-04

     total cpu time spent up to now is     2984.6 secs

     total energy              =    -414.86129875 Ry
     estimated scf accuracy    <       0.00000145 Ry

     total magnetization       =     0.00 Bohr mag/cell
     absolute magnetization    =     0.00 Bohr mag/cell

     iteration #  9     ecut=    60.00 Ry     beta= 0.30
     Davidson diagonalization with overlap
     ethr =  5.44E-09,  avg # of iterations =  2.0

     negative rho (up, down):  9.752E-04 9.752E-04

     total cpu time spent up to now is     2989.3 secs

     total energy              =    -414.86129892 Ry
     estimated scf accuracy    <          9.2E-09 Ry

     total magnetization       =    -0.00 Bohr mag/cell
     absolute magnetization    =     0.00 Bohr mag/cell

     iteration # 10     ecut=    60.00 Ry     beta= 0.30
     Davidson diagonalization with overlap
     ethr =  3.54E-11,  avg # of iterations = 11.0

     negative rho (up, down):  9.756E-04 9.756E-04

     total cpu time spent up to now is     2995.2 secs

     total energy              =    -414.86129902 Ry
     estimated scf accuracy    <       0.00000003 Ry

     total magnetization       =     0.00 Bohr mag/cell
     absolute magnetization    =     0.00 Bohr mag/cell

     iteration # 11     ecut=    60.00 Ry     beta= 0.30
     Davidson diagonalization with overlap
     ethr =  3.54E-11,  avg # of iterations =  3.0

     negative rho (up, down):  9.767E-04 9.767E-04
 
     Magnetic moment per site  (integrated on atomic sphere of radius R)
     atom   1 (R=0.039)  charge= 13.8635  magn=  0.0000
     atom   2 (R=0.039)  charge=  0.7070  magn= -0.0000
     atom   3 (R=0.039)  charge=  0.7070  magn= -0.0000
     atom   4 (R=0.039)  charge=  0.7070  magn= -0.0000
     atom   5 (R=0.039)  charge=  0.7070  magn= -0.0000
     atom   6 (R=0.049)  charge=  0.1652  magn= -0.0000
     atom   7 (R=0.049)  charge=  0.1652  magn=  0.0000

     total cpu time spent up to now is     2999.7 secs

     End of self-consistent calculation

 ------ SPIN UP ------------


          k = 0.0000 0.0000 0.0000 (108616 PWs)   bands (ev):

  -106.6441 -67.0729 -67.0315 -67.0315  -9.0094  -7.2059  -6.2810  -6.2810
    -5.9971  -4.9535  -4.9362  -4.6998  -4.6998  -3.5719  -1.6301  -0.8756
    -0.8756

 ------ SPIN DOWN ----------


          k = 0.0000 0.0000 0.0000 (108616 PWs)   bands (ev):

  -106.6441 -67.0729 -67.0315 -67.0315  -9.0094  -7.2059  -6.2810  -6.2810
    -5.9971  -4.9535  -4.9362  -4.6998  -4.6998  -3.5719  -1.6301  -0.8756
    -0.8756

     the Fermi energy is    -4.3801 ev

!    total energy              =    -414.86129901 Ry
     estimated scf accuracy    <          8.1E-10 Ry
     smearing contrib. (-TS)   =      -0.00000000 Ry
     internal energy E=F+TS    =    -414.86129901 Ry

     The total energy is F=E-TS. E is the sum of the following terms:
     one-electron contribution =    -683.52316510 Ry
     hartree contribution      =     340.30374501 Ry
     xc contribution           =     -41.18357845 Ry
     ewald contribution        =      32.14319447 Ry
     DFT-D3 Dispersion         =      -0.01615680 Ry
     one-center paw contrib.   =     -62.58533814 Ry

     total magnetization       =    -0.00 Bohr mag/cell
     absolute magnetization    =     0.00 Bohr mag/cell

     convergence has been achieved in  11 iterations

     negative rho (up, down):  9.767E-04 9.767E-04

     Forces acting on atoms (cartesian axes, Ry/au):

     atom    1 type  1   force =     0.00000000    0.00000000    0.00000000
     atom    2 type  3   force =    -0.00561819    0.00098780    0.00098780
     atom    3 type  3   force =    -0.00561819   -0.00098780   -0.00098780
     atom    4 type  3   force =     0.00561819    0.00098780   -0.00098780
     atom    5 type  3   force =     0.00561819   -0.00098780    0.00098780
     atom    6 type  2   force =     0.01399922    0.00000000    0.00000000
     atom    7 type  2   force =    -0.01399922   -0.00000000    0.00000000

     Total force =     0.022935     Total SCF correction =     0.000006
     Energy error            =      5.7E-03 Ry
     Gradient error          =      1.4E-02 Ry/Bohr

     number of scf cycles    =  34
     number of bfgs steps    =  33

     energy             old  =    -414.8556461890 Ry
     energy             new  =    -414.8612990097 Ry

     CASE: energy            _new < energy            _old

     new trust radius        =       0.2662660678 bohr
     new conv_thr            =       0.0000000100 Ry


ATOMIC_POSITIONS (angstrom)
Ni               8.0000000000        8.0000000000        8.0000000000
H                8.1861825442        9.0678286109        9.0678286109
H                8.1861825442        6.9321713891        6.9321713891
H                7.8138174558        9.0678286109        6.9321713891
H                7.8138174558        6.9321713891        9.0678286109
Mg              10.1578279948        8.0000000000        8.0000000000
Mg               5.8421720052        8.0000000000        8.0000000000



     Writing config-only to output data dir ./outdir/mg2nih4_unit.save/ :
     XML data file
     NEW-OLD atomic charge density approx. for the potential

     negative rho (up, down):  9.760E-04 9.760E-04
     Generating pointlists ...

     total cpu time spent up to now is     3013.4 secs

     Self-consistent Calculation

     iteration #  1     ecut=    60.00 Ry     beta= 0.30
     Davidson diagonalization with overlap
     ethr =  1.00E-06,  avg # of iterations =  8.0

     negative rho (up, down):  9.883E-04 9.883E-04

     total cpu time spent up to now is     3019.3 secs

     total energy              =    -414.86612469 Ry
     estimated scf accuracy    <       0.00540277 Ry

     total magnetization       =     0.00 Bohr mag/cell
     absolute magnetization    =     0.00 Bohr mag/cell

     iteration #  2     ecut=    60.00 Ry     beta= 0.30
     Davidson diagonalization with overlap
     ethr =  2.08E-05,  avg # of iterations =  1.0

     negative rho (up, down):  9.981E-04 9.981E-04

     total cpu time spent up to now is     3023.7 secs

     total energy              =    -414.86565825 Ry
     estimated scf accuracy    <       0.00238935 Ry

     total magnetization       =    -0.00 Bohr mag/cell
     absolute magnetization    =     0.00 Bohr mag/cell

     iteration #  3     ecut=    60.00 Ry     beta= 0.30
     Davidson diagonalization with overlap
     ethr =  9.19E-06,  avg # of iterations =  2.0

     negative rho (up, down):  1.008E-03 1.008E-03

     total cpu time spent up to now is     3028.5 secs

     total energy              =    -414.86557639 Ry
     estimated scf accuracy    <       0.00257013 Ry

     total magnetization       =    -0.00 Bohr mag/cell
     absolute magnetization    =     0.00 Bohr mag/cell

     iteration #  4     ecut=    60.00 Ry     beta= 0.30
     Davidson diagonalization with overlap
     ethr =  9.19E-06,  avg # of iterations =  1.0

     negative rho (up, down):  1.014E-03 1.014E-03

     total cpu time spent up to now is     3032.9 secs

     total energy              =    -414.86576879 Ry
     estimated scf accuracy    <       0.00004538 Ry

     total magnetization       =     0.00 Bohr mag/cell
     absolute magnetization    =     0.00 Bohr mag/cell

     iteration #  5     ecut=    60.00 Ry     beta= 0.30
     Davidson diagonalization with overlap
     ethr =  1.75E-07,  avg # of iterations =  4.0

     negative rho (up, down):  1.013E-03 1.013E-03

     total cpu time spent up to now is     3037.8 secs

     total energy              =    -414.86579988 Ry
     estimated scf accuracy    <       0.00028359 Ry

     total magnetization       =     0.00 Bohr mag/cell
     absolute magnetization    =     0.00 Bohr mag/cell

     iteration #  6     ecut=    60.00 Ry     beta= 0.30
     Davidson diagonalization with overlap
     ethr =  1.75E-07,  avg # of iterations =  3.0

     negative rho (up, down):  1.014E-03 1.014E-03

     total cpu time spent up to now is     3042.5 secs

     total energy              =    -414.86580060 Ry
     estimated scf accuracy    <       0.00007352 Ry

     total magnetization       =    -0.00 Bohr mag/cell
     absolute magnetization    =     0.00 Bohr mag/cell

     iteration #  7     ecut=    60.00 Ry     beta= 0.30
     Davidson diagonalization with overlap
     ethr =  1.75E-07,  avg # of iterations =  2.0

     negative rho (up, down):  1.014E-03 1.014E-03

     total cpu time spent up to now is     3047.1 secs

     total energy              =    -414.86579906 Ry
     estimated scf accuracy    <       0.00001993 Ry

     total magnetization       =     0.00 Bohr mag/cell
     absolute magnetization    =     0.00 Bohr mag/cell

     iteration #  8     ecut=    60.00 Ry     beta= 0.30
     Davidson diagonalization with overlap
     ethr =  7.67E-08,  avg # of iterations =  4.0

     negative rho (up, down):  1.015E-03 1.015E-03

     total cpu time spent up to now is     3051.9 secs

     total energy              =    -414.86580217 Ry
     estimated scf accuracy    <       0.00000069 Ry

     total magnetization       =     0.00 Bohr mag/cell
     absolute magnetization    =     0.00 Bohr mag/cell

     iteration #  9     ecut=    60.00 Ry     beta= 0.30
     Davidson diagonalization with overlap
     ethr =  2.65E-09,  avg # of iterations =  5.0

     negative rho (up, down):  1.016E-03 1.016E-03

     total cpu time spent up to now is     3057.2 secs

     total energy              =    -414.86580240 Ry
     estimated scf accuracy    <       0.00000016 Ry

     total magnetization       =     0.00 Bohr mag/cell
     absolute magnetization    =     0.00 Bohr mag/cell

     iteration # 10     ecut=    60.00 Ry     beta= 0.30
     Davidson diagonalization with overlap
     ethr =  6.26E-10,  avg # of iterations =  4.0

     negative rho (up, down):  1.017E-03 1.017E-03

     total cpu time spent up to now is     3061.8 secs

     total energy              =    -414.86580243 Ry
     estimated scf accuracy    <       0.00000011 Ry

     total magnetization       =    -0.00 Bohr mag/cell
     absolute magnetization    =     0.00 Bohr mag/cell

     iteration # 11     ecut=    60.00 Ry     beta= 0.30
     Davidson diagonalization with overlap
     ethr =  4.35E-10,  avg # of iterations =  1.0

     negative rho (up, down):  1.017E-03 1.017E-03

     total cpu time spent up to now is     3066.4 secs

     total energy              =    -414.86580242 Ry
     estimated scf accuracy    <       0.00000002 Ry

     total magnetization       =    -0.00 Bohr mag/cell
     absolute magnetization    =     0.00 Bohr mag/cell

     iteration # 12     ecut=    60.00 Ry     beta= 0.30
     Davidson diagonalization with overlap
     ethr =  6.98E-11,  avg # of iterations =  3.0

     negative rho (up, down):  1.018E-03 1.018E-03
 
     Magnetic moment per site  (integrated on atomic sphere of radius R)
     atom   1 (R=0.039)  charge= 13.8621  magn=  0.0000
     atom   2 (R=0.039)  charge=  0.7073  magn=  0.0000
     atom   3 (R=0.039)  charge=  0.7073  magn=  0.0000
     atom   4 (R=0.039)  charge=  0.7073  magn= -0.0000
     atom   5 (R=0.039)  charge=  0.7073  magn= -0.0000
     atom   6 (R=0.049)  charge=  0.1664  magn= -0.0000
     atom   7 (R=0.049)  charge=  0.1664  magn=  0.0000

     total cpu time spent up to now is     3070.9 secs

     End of self-consistent calculation

 ------ SPIN UP ------------


          k = 0.0000 0.0000 0.0000 (108616 PWs)   bands (ev):

  -106.7128 -67.1423 -67.0985 -67.0985  -9.0501  -7.2552  -6.1141  -5.9886
    -5.9886  -5.0392  -5.0392  -5.0230  -4.9114  -3.5543  -1.3629  -0.8492
    -0.8492

 ------ SPIN DOWN ----------


          k = 0.0000 0.0000 0.0000 (108616 PWs)   bands (ev):

  -106.7128 -67.1423 -67.0985 -67.0985  -9.0501  -7.2552  -6.1141  -5.9886
    -5.9886  -5.0392  -5.0392  -5.0230  -4.9114  -3.5543  -1.3629  -0.8492
    -0.8492

     the Fermi energy is    -4.3573 ev

!    total energy              =    -414.86580243 Ry
     estimated scf accuracy    <          8.2E-09 Ry
     smearing contrib. (-TS)   =      -0.00000000 Ry
     internal energy E=F+TS    =    -414.86580243 Ry

     The total energy is F=E-TS. E is the sum of the following terms:
     one-electron contribution =    -684.03128595 Ry
     hartree contribution      =     340.51052357 Ry
     xc contribution           =     -41.18185574 Ry
     ewald contribution        =      32.44044310 Ry
     DFT-D3 Dispersion         =      -0.01699175 Ry
     one-center paw contrib.   =     -62.58663565 Ry

     total magnetization       =     0.00 Bohr mag/cell
     absolute magnetization    =     0.00 Bohr mag/cell

     convergence has been achieved in  12 iterations

     negative rho (up, down):  1.018E-03 1.018E-03

     Forces acting on atoms (cartesian axes, Ry/au):

     atom    1 type  1   force =     0.00000000    0.00000000    0.00000000
     atom    2 type  3   force =    -0.00370291   -0.00135248   -0.00135248
     atom    3 type  3   force =    -0.00370291    0.00135248    0.00135248
     atom    4 type  3   force =     0.00370291   -0.00135248    0.00135248
     atom    5 type  3   force =     0.00370291    0.00135248   -0.00135248
     atom    6 type  2   force =     0.01820572   -0.00000000    0.00000000
     atom    7 type  2   force =    -0.01820572    0.00000000   -0.00000000

     Total force =     0.027062     Total SCF correction =     0.000034
     Energy error            =      4.5E-03 Ry
     Gradient error          =      1.8E-02 Ry/Bohr

     number of scf cycles    =  35
     number of bfgs steps    =  34

     energy             old  =    -414.8612990097 Ry
     energy             new  =    -414.8658024253 Ry

     CASE: energy            _new < energy            _old

     new trust radius        =       0.3948608456 bohr
     new conv_thr            =       0.0000000100 Ry


ATOMIC_POSITIONS (angstrom)
Ni               8.0000000000        8.0000000000        8.0000000000
H                7.9778313279        9.0790188283        9.0790188283
H                7.9778313279        6.9209811717        6.9209811717
H                8.0221686721        9.0790188283        6.9209811717
H                8.0221686721        6.9209811717        9.0790188283
Mg              10.1743663833        8.0000000000        8.0000000000
Mg               5.8256336167        8.0000000000        8.0000000000



     Writing config-only to output data dir ./outdir/mg2nih4_unit.save/ :
     XML data file
     NEW-OLD atomic charge density approx. for the potential

     negative rho (up, down):  1.017E-03 1.017E-03
     Generating pointlists ...

     total cpu time spent up to now is     3084.6 secs

     Self-consistent Calculation

     iteration #  1     ecut=    60.00 Ry     beta= 0.30
     Davidson diagonalization with overlap
     ethr =  1.00E-06,  avg # of iterations = 11.0

     negative rho (up, down):  1.029E-03 1.029E-03

     total cpu time spent up to now is     3090.7 secs

     total energy              =    -414.86927907 Ry
     estimated scf accuracy    <       0.01051540 Ry

     total magnetization       =     0.00 Bohr mag/cell
     absolute magnetization    =     0.00 Bohr mag/cell

     iteration #  2     ecut=    60.00 Ry     beta= 0.30
     Davidson diagonalization with overlap
     ethr =  4.04E-05,  avg # of iterations =  2.0

     negative rho (up, down):  1.034E-03 1.034E-03

     total cpu time spent up to now is     3095.2 secs

     total energy              =    -414.86871739 Ry
     estimated scf accuracy    <       0.00628135 Ry

     total magnetization       =     0.00 Bohr mag/cell
     absolute magnetization    =     0.00 Bohr mag/cell

     iteration #  3     ecut=    60.00 Ry     beta= 0.30
     Davidson diagonalization with overlap
     ethr =  2.42E-05,  avg # of iterations =  2.0

     negative rho (up, down):  1.041E-03 1.041E-03

     total cpu time spent up to now is     3099.7 secs

     total energy              =    -414.86884932 Ry
     estimated scf accuracy    <       0.00338687 Ry

     total magnetization       =     0.00 Bohr mag/cell
     absolute magnetization    =     0.00 Bohr mag/cell

     iteration #  4     ecut=    60.00 Ry     beta= 0.30
     Davidson diagonalization with overlap
     ethr =  1.30E-05,  avg # of iterations =  1.0

     negative rho (up, down):  1.042E-03 1.042E-03

     total cpu time spent up to now is     3104.2 secs

     total energy              =    -414.86900135 Ry
     estimated scf accuracy    <       0.00018970 Ry

     total magnetization       =     0.00 Bohr mag/cell
     absolute magnetization    =     0.00 Bohr mag/cell

     iteration #  5     ecut=    60.00 Ry     beta= 0.30
     Davidson diagonalization with overlap
     ethr =  7.30E-07,  avg # of iterations =  3.0

     negative rho (up, down):  1.042E-03 1.042E-03

     total cpu time spent up to now is     3108.9 secs

     total energy              =    -414.86905192 Ry
     estimated scf accuracy    <       0.00005057 Ry

     total magnetization       =     0.00 Bohr mag/cell
     absolute magnetization    =     0.00 Bohr mag/cell

     iteration #  6     ecut=    60.00 Ry     beta= 0.30
     Davidson diagonalization with overlap
     ethr =  1.94E-07,  avg # of iterations =  2.0

     negative rho (up, down):  1.041E-03 1.041E-03

     total cpu time spent up to now is     3113.5 secs

     total energy              =    -414.86904728 Ry
     estimated scf accuracy    <       0.00004163 Ry

     total magnetization       =    -0.00 Bohr mag/cell
     absolute magnetization    =     0.00 Bohr mag/cell

     iteration #  7     ecut=    60.00 Ry     beta= 0.30
     Davidson diagonalization with overlap
     ethr =  1.60E-07,  avg # of iterations =  2.0

     negative rho (up, down):  1.041E-03 1.041E-03

     total cpu time spent up to now is     3118.0 secs

     total energy              =    -414.86904975 Ry
     estimated scf accuracy    <       0.00000371 Ry

     total magnetization       =     0.00 Bohr mag/cell
     absolute magnetization    =     0.00 Bohr mag/cell

     iteration #  8     ecut=    60.00 Ry     beta= 0.30
     Davidson diagonalization with overlap
     ethr =  1.43E-08,  avg # of iterations =  5.0

     negative rho (up, down):  1.042E-03 1.042E-03

     total cpu time spent up to now is     3122.8 secs

     total energy              =    -414.86905144 Ry
     estimated scf accuracy    <       0.00000612 Ry

     total magnetization       =     0.00 Bohr mag/cell
     absolute magnetization    =     0.00 Bohr mag/cell

     iteration #  9     ecut=    60.00 Ry     beta= 0.30
     Davidson diagonalization with overlap
     ethr =  1.43E-08,  avg # of iterations =  2.0

     negative rho (up, down):  1.042E-03 1.042E-03

     total cpu time spent up to now is     3127.4 secs

     total energy              =    -414.86905138 Ry
     estimated scf accuracy    <       0.00000114 Ry

     total magnetization       =     0.00 Bohr mag/cell
     absolute magnetization    =     0.00 Bohr mag/cell

     iteration # 10     ecut=    60.00 Ry     beta= 0.30
     Davidson diagonalization with overlap
     ethr =  4.39E-09,  avg # of iterations =  4.0

     negative rho (up, down):  1.043E-03 1.043E-03

     total cpu time spent up to now is     3132.1 secs

     total energy              =    -414.86905165 Ry
     estimated scf accuracy    <       0.00000036 Ry

     total magnetization       =    -0.00 Bohr mag/cell
     absolute magnetization    =     0.00 Bohr mag/cell

     iteration # 11     ecut=    60.00 Ry     beta= 0.30
     Davidson diagonalization with overlap
     ethr =  1.39E-09,  avg # of iterations =  2.0

     negative rho (up, down):  1.043E-03 1.043E-03

     total cpu time spent up to now is     3136.6 secs

     total energy              =    -414.86905166 Ry
     estimated scf accuracy    <       0.00000005 Ry

     total magnetization       =    -0.00 Bohr mag/cell
     absolute magnetization    =     0.00 Bohr mag/cell

     iteration # 12     ecut=    60.00 Ry     beta= 0.30
     Davidson diagonalization with overlap
     ethr =  1.78E-10,  avg # of iterations =  5.0

     negative rho (up, down):  1.043E-03 1.043E-03

     total cpu time spent up to now is     3141.4 secs

     total energy              =    -414.86905168 Ry
     estimated scf accuracy    <       0.00000001 Ry

     total magnetization       =    -0.00 Bohr mag/cell
     absolute magnetization    =     0.00 Bohr mag/cell

     iteration # 13     ecut=    60.00 Ry     beta= 0.30
     Davidson diagonalization with overlap
     ethr =  4.71E-11,  avg # of iterations =  4.0

     negative rho (up, down):  1.043E-03 1.043E-03
 
     Magnetic moment per site  (integrated on atomic sphere of radius R)
     atom   1 (R=0.039)  charge= 13.8585  magn=  0.0000
     atom   2 (R=0.039)  charge=  0.7032  magn= -0.0000
     atom   3 (R=0.039)  charge=  0.7032  magn= -0.0000
     atom   4 (R=0.039)  charge=  0.7032  magn=  0.0000
     atom   5 (R=0.039)  charge=  0.7032  magn=  0.0000
     atom   6 (R=0.049)  charge=  0.1650  magn= -0.0000
     atom   7 (R=0.049)  charge=  0.1650  magn=  0.0000

     total cpu time spent up to now is     3145.8 secs

     End of self-consistent calculation

 ------ SPIN UP ------------


          k = 0.0000 0.0000 0.0000 (108616 PWs)   bands (ev):

  -106.7216 -67.1498 -67.1040 -67.1040  -9.0176  -7.2224  -6.1352  -5.6236
    -5.6236  -5.3491  -5.3491  -5.0223  -4.9139  -3.5711  -1.2133  -0.8529
    -0.8529

 ------ SPIN DOWN ----------


          k = 0.0000 0.0000 0.0000 (108616 PWs)   bands (ev):

  -106.7216 -67.1498 -67.1040 -67.1040  -9.0176  -7.2224  -6.1352  -5.6236
    -5.6236  -5.3491  -5.3491  -5.0223  -4.9139  -3.5711  -1.2133  -0.8529
    -0.8529

     the Fermi energy is    -4.3613 ev

!    total energy              =    -414.86905168 Ry
     estimated scf accuracy    <          3.6E-10 Ry
     smearing contrib. (-TS)   =      -0.00000000 Ry
     internal energy E=F+TS    =    -414.86905168 Ry

     The total energy is F=E-TS. E is the sum of the following terms:
     one-electron contribution =    -683.09711863 Ry
     hartree contribution      =     340.03655410 Ry
     xc contribution           =     -41.15721281 Ry
     ewald contribution        =      31.95051982 Ry
     DFT-D3 Dispersion         =      -0.01721371 Ry
     one-center paw contrib.   =     -62.58458045 Ry

     total magnetization       =    -0.00 Bohr mag/cell
     absolute magnetization    =     0.00 Bohr mag/cell

     convergence has been achieved in  13 iterations

     negative rho (up, down):  1.043E-03 1.043E-03

     Forces acting on atoms (cartesian axes, Ry/au):

     atom    1 type  1   force =     0.00000000    0.00000000    0.00000000
     atom    2 type  3   force =     0.00052635   -0.00495510   -0.00495510
     atom    3 type  3   force =     0.00052635    0.00495510    0.00495510
     atom    4 type  3   force =    -0.00052635   -0.00495510    0.00495510
     atom    5 type  3   force =    -0.00052635    0.00495510   -0.00495510
     atom    6 type  2   force =     0.01315543    0.00000000    0.00000000
     atom    7 type  2   force =    -0.01315543    0.00000000    0.00000000

     Total force =     0.023317     Total SCF correction =     0.000008
     Energy error            =      3.2E-03 Ry
     Gradient error          =      1.3E-02 Ry/Bohr

     number of scf cycles    =  36
     number of bfgs steps    =  35

     energy             old  =    -414.8658024253 Ry
     energy             new  =    -414.8690516813 Ry

     CASE: energy            _new < energy            _old

     new trust radius        =       0.0485391828 bohr
     new conv_thr            =       0.0000000100 Ry


ATOMIC_POSITIONS (angstrom)
Ni               8.0000000000        8.0000000000        8.0000000000
H                8.0003520532        9.0702844489        9.0702844489
H                8.0003520532        6.9297155511        6.9297155511
H                7.9996479468        9.0702844489        6.9297155511
H                7.9996479468        6.9297155511        9.0702844489
Mg              10.1927420605        8.0000000000        8.0000000000
Mg               5.8072579395        8.0000000000        8.0000000000



     Writing config-only to output data dir ./outdir/mg2nih4_unit.save/ :
     XML data file
     NEW-OLD atomic charge density approx. for the potential

     negative rho (up, down):  1.043E-03 1.043E-03
     Generating pointlists ...

     total cpu time spent up to now is     3159.5 secs

     Self-consistent Calculation

     iteration #  1     ecut=    60.00 Ry     beta= 0.30
     Davidson diagonalization with overlap
     ethr =  1.00E-06,  avg # of iterations =  6.0

     negative rho (up, down):  1.044E-03 1.044E-03

     total cpu time spent up to now is     3164.8 secs

     total energy              =    -414.87012651 Ry
     estimated scf accuracy    <       0.00023456 Ry

     total magnetization       =     0.00 Bohr mag/cell
     absolute magnetization    =     0.00 Bohr mag/cell

     iteration #  2     ecut=    60.00 Ry     beta= 0.30
     Davidson diagonalization with overlap
     ethr =  9.02E-07,  avg # of iterations =  1.0

     negative rho (up, down):  1.045E-03 1.045E-03

     total cpu time spent up to now is     3169.3 secs

     total energy              =    -414.87011170 Ry
     estimated scf accuracy    <       0.00009008 Ry

     total magnetization       =     0.00 Bohr mag/cell
     absolute magnetization    =     0.00 Bohr mag/cell

     iteration #  3     ecut=    60.00 Ry     beta= 0.30
     Davidson diagonalization with overlap
     ethr =  3.46E-07,  avg # of iterations =  2.0

     negative rho (up, down):  1.045E-03 1.045E-03

     total cpu time spent up to now is     3173.8 secs

     total energy              =    -414.87011230 Ry
     estimated scf accuracy    <       0.00006745 Ry

     total magnetization       =     0.00 Bohr mag/cell
     absolute magnetization    =     0.00 Bohr mag/cell

     iteration #  4     ecut=    60.00 Ry     beta= 0.30
     Davidson diagonalization with overlap
     ethr =  2.59E-07,  avg # of iterations =  1.0

     negative rho (up, down):  1.045E-03 1.045E-03

     total cpu time spent up to now is     3178.3 secs

     total energy              =    -414.87011829 Ry
     estimated scf accuracy    <       0.00000394 Ry

     total magnetization       =     0.00 Bohr mag/cell
     absolute magnetization    =     0.00 Bohr mag/cell

     iteration #  5     ecut=    60.00 Ry     beta= 0.30
     Davidson diagonalization with overlap
     ethr =  1.52E-08,  avg # of iterations =  4.0

     negative rho (up, down):  1.045E-03 1.045E-03

     total cpu time spent up to now is     3183.1 secs

     total energy              =    -414.87011884 Ry
     estimated scf accuracy    <       0.00000265 Ry

     total magnetization       =     0.00 Bohr mag/cell
     absolute magnetization    =     0.00 Bohr mag/cell

     iteration #  6     ecut=    60.00 Ry     beta= 0.30
     Davidson diagonalization with overlap
     ethr =  1.02E-08,  avg # of iterations =  4.0

     negative rho (up, down):  1.045E-03 1.045E-03

     total cpu time spent up to now is     3187.9 secs

     total energy              =    -414.87011933 Ry
     estimated scf accuracy    <       0.00000059 Ry

     total magnetization       =    -0.00 Bohr mag/cell
     absolute magnetization    =     0.00 Bohr mag/cell

     iteration #  7     ecut=    60.00 Ry     beta= 0.30
     Davidson diagonalization with overlap
     ethr =  2.28E-09,  avg # of iterations =  5.0

     negative rho (up, down):  1.045E-03 1.045E-03

     total cpu time spent up to now is     3193.5 secs

     total energy              =    -414.87011956 Ry
     estimated scf accuracy    <       0.00000011 Ry

     total magnetization       =     0.00 Bohr mag/cell
     absolute magnetization    =     0.00 Bohr mag/cell

     iteration #  8     ecut=    60.00 Ry     beta= 0.30
     Davidson diagonalization with overlap
     ethr =  4.07E-10,  avg # of iterations =  4.0

     negative rho (up, down):  1.045E-03 1.045E-03

     total cpu time spent up to now is     3198.3 secs

     total energy              =    -414.87011958 Ry
     estimated scf accuracy    <       0.00000002 Ry

     total magnetization       =     0.00 Bohr mag/cell
     absolute magnetization    =     0.00 Bohr mag/cell

     iteration #  9     ecut=    60.00 Ry     beta= 0.30
     Davidson diagonalization with overlap
     ethr =  7.85E-11,  avg # of iterations =  2.0

     negative rho (up, down):  1.046E-03 1.046E-03
 
     Magnetic moment per site  (integrated on atomic sphere of radius R)
     atom   1 (R=0.039)  charge= 13.8574  magn=  0.0000
     atom   2 (R=0.039)  charge=  0.7105  magn= -0.0000
     atom   3 (R=0.039)  charge=  0.7105  magn= -0.0000
     atom   4 (R=0.039)  charge=  0.7105  magn=  0.0000
     atom   5 (R=0.039)  charge=  0.7105  magn=  0.0000
     atom   6 (R=0.049)  charge=  0.1632  magn= -0.0000
     atom   7 (R=0.049)  charge=  0.1632  magn=  0.0000

     total cpu time spent up to now is     3202.7 secs

     End of self-consistent calculation

 ------ SPIN UP ------------


          k = 0.0000 0.0000 0.0000 (108616 PWs)   bands (ev):

  -106.7030 -67.1286 -67.0863 -67.0863  -9.0231  -7.2466  -6.1181  -5.5779
    -5.5779  -5.3288  -5.3288  -5.0069  -4.9251  -3.5912  -1.2378  -0.8650
    -0.8650

 ------ SPIN DOWN ----------


          k = 0.0000 0.0000 0.0000 (108616 PWs)   bands (ev):

  -106.7030 -67.1286 -67.0863 -67.0863  -9.0231  -7.2466  -6.1181  -5.5779
    -5.5779  -5.3288  -5.3288  -5.0069  -4.9251  -3.5912  -1.2378  -0.8650
    -0.8650

     the Fermi energy is    -4.3721 ev

!    total energy              =    -414.87011957 Ry
     estimated scf accuracy    <          1.1E-09 Ry
     smearing contrib. (-TS)   =      -0.00000000 Ry
     internal energy E=F+TS    =    -414.87011957 Ry

     The total energy is F=E-TS. E is the sum of the following terms:
     one-electron contribution =    -683.36342828 Ry
     hartree contribution      =     340.18688243 Ry
     xc contribution           =     -41.16106834 Ry
     ewald contribution        =      32.06687535 Ry
     DFT-D3 Dispersion         =      -0.01715531 Ry
     one-center paw contrib.   =     -62.58222542 Ry

     total magnetization       =    -0.00 Bohr mag/cell
     absolute magnetization    =     0.00 Bohr mag/cell

     convergence has been achieved in   9 iterations

     negative rho (up, down):  1.046E-03 1.046E-03

     Forces acting on atoms (cartesian axes, Ry/au):

     atom    1 type  1   force =     0.00000000    0.00000000    0.00000000
     atom    2 type  3   force =    -0.00000836   -0.00033462   -0.00033462
     atom    3 type  3   force =    -0.00000836    0.00033462    0.00033462
     atom    4 type  3   force =     0.00000836   -0.00033462    0.00033462
     atom    5 type  3   force =     0.00000836    0.00033462   -0.00033462
     atom    6 type  2   force =     0.00630380    0.00000000    0.00000000
     atom    7 type  2   force =    -0.00630380    0.00000000    0.00000000

     Total force =     0.008965     Total SCF correction =     0.000017
     Energy error            =      1.1E-03 Ry
     Gradient error          =      6.3E-03 Ry/Bohr

     number of scf cycles    =  37
     number of bfgs steps    =  36

     energy             old  =    -414.8690516813 Ry
     energy             new  =    -414.8701195673 Ry

     CASE: energy            _new < energy            _old

     new trust radius        =       0.0277792906 bohr
     new conv_thr            =       0.0000000063 Ry


ATOMIC_POSITIONS (angstrom)
Ni               8.0000000000        8.0000000000        8.0000000000
H                7.9931505996        9.0684376616        9.0684376616
H                7.9931505996        6.9315623384        6.9315623384
H                8.0068494004        9.0684376616        6.9315623384
H                8.0068494004        6.9315623384        9.0684376616
Mg              10.2074422280        8.0000000000        8.0000000000
Mg               5.7925577720        8.0000000000        8.0000000000



     Writing config-only to output data dir ./outdir/mg2nih4_unit.save/ :
     XML data file
     NEW-OLD atomic charge density approx. for the potential

     negative rho (up, down):  1.045E-03 1.045E-03
     Generating pointlists ...
     new r_m :   0.0390 (alat units)  1.1779 (a.u.) for type    1
     new r_m :   0.0390 (alat units)  1.1779 (a.u.) for type    3

     total cpu time spent up to now is     3216.6 secs

     Self-consistent Calculation

     iteration #  1     ecut=    60.00 Ry     beta= 0.30
     Davidson diagonalization with overlap
     ethr =  1.00E-06,  avg # of iterations =  3.0

     negative rho (up, down):  1.047E-03 1.047E-03

     total cpu time spent up to now is     3221.4 secs

     total energy              =    -414.87028671 Ry
     estimated scf accuracy    <       0.00011620 Ry

     total magnetization       =     0.00 Bohr mag/cell
     absolute magnetization    =     0.00 Bohr mag/cell

     iteration #  2     ecut=    60.00 Ry     beta= 0.30
     Davidson diagonalization with overlap
     ethr =  4.47E-07,  avg # of iterations =  4.0

     negative rho (up, down):  1.046E-03 1.046E-03

     total cpu time spent up to now is     3226.3 secs

     total energy              =    -414.87028919 Ry
     estimated scf accuracy    <       0.00034970 Ry

     total magnetization       =    -0.00 Bohr mag/cell
     absolute magnetization    =     0.00 Bohr mag/cell

     iteration #  3     ecut=    60.00 Ry     beta= 0.30
     Davidson diagonalization with overlap
     ethr =  4.47E-07,  avg # of iterations =  4.0

     negative rho (up, down):  1.047E-03 1.047E-03

     total cpu time spent up to now is     3231.2 secs

     total energy              =    -414.87031607 Ry
     estimated scf accuracy    <       0.00001173 Ry

     total magnetization       =     0.00 Bohr mag/cell
     absolute magnetization    =     0.00 Bohr mag/cell

     iteration #  4     ecut=    60.00 Ry     beta= 0.30
     Davidson diagonalization with overlap
     ethr =  4.51E-08,  avg # of iterations =  4.0

     negative rho (up, down):  1.047E-03 1.047E-03

     total cpu time spent up to now is     3236.2 secs

     total energy              =    -414.87031793 Ry
     estimated scf accuracy    <       0.00001697 Ry

     total magnetization       =     0.00 Bohr mag/cell
     absolute magnetization    =     0.00 Bohr mag/cell

     iteration #  5     ecut=    60.00 Ry     beta= 0.30
     Davidson diagonalization with overlap
     ethr =  4.51E-08,  avg # of iterations =  1.0

     negative rho (up, down):  1.048E-03 1.048E-03

     total cpu time spent up to now is     3240.8 secs

     total energy              =    -414.87031801 Ry
     estimated scf accuracy    <       0.00000284 Ry

     total magnetization       =    -0.00 Bohr mag/cell
     absolute magnetization    =     0.00 Bohr mag/cell

     iteration #  6     ecut=    60.00 Ry     beta= 0.30
     Davidson diagonalization with overlap
     ethr =  1.09E-08,  avg # of iterations =  2.0

     negative rho (up, down):  1.048E-03 1.048E-03

     total cpu time spent up to now is     3245.6 secs

     total energy              =    -414.87031862 Ry
     estimated scf accuracy    <       0.00000052 Ry

     total magnetization       =    -0.00 Bohr mag/cell
     absolute magnetization    =     0.00 Bohr mag/cell

     iteration #  7     ecut=    60.00 Ry     beta= 0.30
     Davidson diagonalization with overlap
     ethr =  1.98E-09,  avg # of iterations =  5.0

     negative rho (up, down):  1.048E-03 1.048E-03

     total cpu time spent up to now is     3250.2 secs

     total energy              =    -414.87031870 Ry
     estimated scf accuracy    <       0.00000036 Ry

     total magnetization       =     0.00 Bohr mag/cell
     absolute magnetization    =     0.00 Bohr mag/cell

     iteration #  8     ecut=    60.00 Ry     beta= 0.30
     Davidson diagonalization with overlap
     ethr =  1.40E-09,  avg # of iterations =  1.0

     negative rho (up, down):  1.048E-03 1.048E-03

     total cpu time spent up to now is     3254.7 secs

     total energy              =    -414.87031868 Ry
     estimated scf accuracy    <       0.00000013 Ry

     total magnetization       =    -0.00 Bohr mag/cell
     absolute magnetization    =     0.00 Bohr mag/cell

     iteration #  9     ecut=    60.00 Ry     beta= 0.30
     Davidson diagonalization with overlap
     ethr =  4.88E-10,  avg # of iterations =  5.0

     negative rho (up, down):  1.048E-03 1.048E-03

     total cpu time spent up to now is     3260.0 secs

     total energy              =    -414.87031875 Ry
     estimated scf accuracy    <       0.00000004 Ry

     total magnetization       =     0.00 Bohr mag/cell
     absolute magnetization    =     0.00 Bohr mag/cell

     iteration # 10     ecut=    60.00 Ry     beta= 0.30
     Davidson diagonalization with overlap
     ethr =  1.68E-10,  avg # of iterations =  1.0

     negative rho (up, down):  1.048E-03 1.048E-03

     total cpu time spent up to now is     3264.6 secs

     total energy              =    -414.87031874 Ry
     estimated scf accuracy    <       0.00000004 Ry

     total magnetization       =    -0.00 Bohr mag/cell
     absolute magnetization    =     0.00 Bohr mag/cell

     iteration # 11     ecut=    60.00 Ry     beta= 0.30
     Davidson diagonalization with overlap
     ethr =  1.39E-10,  avg # of iterations =  4.0

     negative rho (up, down):  1.049E-03 1.049E-03
 
     Magnetic moment per site  (integrated on atomic sphere of radius R)
     atom   1 (R=0.039)  charge= 13.7696  magn=  0.0000
     atom   2 (R=0.039)  charge=  0.6984  magn= -0.0000
     atom   3 (R=0.039)  charge=  0.6984  magn= -0.0000
     atom   4 (R=0.039)  charge=  0.6984  magn=  0.0000
     atom   5 (R=0.039)  charge=  0.6984  magn=  0.0000
     atom   6 (R=0.049)  charge=  0.1619  magn= -0.0000
     atom   7 (R=0.049)  charge=  0.1619  magn=  0.0000

     total cpu time spent up to now is     3269.3 secs

     End of self-consistent calculation

 ------ SPIN UP ------------


          k = 0.0000 0.0000 0.0000 (108616 PWs)   bands (ev):

  -106.6889 -67.1132 -67.0716 -67.0716  -9.0062  -7.2372  -6.1009  -5.5537
    -5.5537  -5.3020  -5.3020  -4.9904  -4.9359  -3.6085  -1.2605  -0.8762
    -0.8762

 ------ SPIN DOWN ----------


          k = 0.0000 0.0000 0.0000 (108616 PWs)   bands (ev):

  -106.6889 -67.1132 -67.0716 -67.0716  -9.0062  -7.2372  -6.1009  -5.5537
    -5.5537  -5.3020  -5.3020  -4.9904  -4.9359  -3.6085  -1.2605  -0.8762
    -0.8762

     the Fermi energy is    -4.3824 ev

!    total energy              =    -414.87031874 Ry
     estimated scf accuracy    <          2.8E-09 Ry
     smearing contrib. (-TS)   =      -0.00000000 Ry
     internal energy E=F+TS    =    -414.87031874 Ry

     The total energy is F=E-TS. E is the sum of the following terms:
     one-electron contribution =    -683.06529818 Ry
     hartree contribution      =     340.04849020 Ry
     xc contribution           =     -41.15435704 Ry
     ewald contribution        =      31.89835423 Ry
     DFT-D3 Dispersion         =      -0.01711154 Ry
     one-center paw contrib.   =     -62.58039641 Ry

     total magnetization       =     0.00 Bohr mag/cell
     absolute magnetization    =     0.00 Bohr mag/cell

     convergence has been achieved in  11 iterations

     negative rho (up, down):  1.049E-03 1.049E-03

     Forces acting on atoms (cartesian axes, Ry/au):

     atom    1 type  1   force =     0.00000000    0.00000000    0.00000000
     atom    2 type  3   force =     0.00015412    0.00073512    0.00073512
     atom    3 type  3   force =     0.00015412   -0.00073512   -0.00073512
     atom    4 type  3   force =    -0.00015412    0.00073512   -0.00073512
     atom    5 type  3   force =    -0.00015412   -0.00073512    0.00073512
     atom    6 type  2   force =     0.00126065    0.00000000    0.00000000
     atom    7 type  2   force =    -0.00126065    0.00000000    0.00000000

     Total force =     0.002756     Total SCF correction =     0.000020
     Energy error            =      2.0E-04 Ry
     Gradient error          =      1.3E-03 Ry/Bohr

     number of scf cycles    =  38
     number of bfgs steps    =  37

     energy             old  =    -414.8701195673 Ry
     energy             new  =    -414.8703187394 Ry

     CASE: energy            _new < energy            _old

     new trust radius        =       0.0077766715 bohr
     new conv_thr            =       0.0000000013 Ry


ATOMIC_POSITIONS (angstrom)
Ni               8.0000000000        8.0000000000        8.0000000000
H                7.9971566110        9.0691036385        9.0691036385
H                7.9971566110        6.9308963615        6.9308963615
H                8.0028433890        9.0691036385        6.9308963615
H                8.0028433890        6.9308963615        9.0691036385
Mg              10.2104231051        8.0000000000        8.0000000000
Mg               5.7895768949        8.0000000000        8.0000000000



     Writing config-only to output data dir ./outdir/mg2nih4_unit.save/ :
     XML data file
     NEW-OLD atomic charge density approx. for the potential

     negative rho (up, down):  1.048E-03 1.048E-03
     Generating pointlists ...

     total cpu time spent up to now is     3283.1 secs

     Self-consistent Calculation

     iteration #  1     ecut=    60.00 Ry     beta= 0.30
     Davidson diagonalization with overlap
     ethr =  1.00E-06,  avg # of iterations =  2.0

     Threshold (ethr) on eigenvalues was too large:
     Diagonalizing with lowered threshold

     Davidson diagonalization with overlap
     ethr =  5.36E-08,  avg # of iterations =  2.0

     negative rho (up, down):  1.049E-03 1.049E-03

     total cpu time spent up to now is     3288.9 secs

     total energy              =    -414.87033206 Ry
     estimated scf accuracy    <       0.00001689 Ry

     total magnetization       =    -0.00 Bohr mag/cell
     absolute magnetization    =     0.00 Bohr mag/cell

     iteration #  2     ecut=    60.00 Ry     beta= 0.30
     Davidson diagonalization with overlap
     ethr =  6.50E-08,  avg # of iterations =  3.0

     negative rho (up, down):  1.048E-03 1.048E-03

     total cpu time spent up to now is     3293.5 secs

     total energy              =    -414.87033326 Ry
     estimated scf accuracy    <       0.00004046 Ry

     total magnetization       =     0.00 Bohr mag/cell
     absolute magnetization    =     0.00 Bohr mag/cell

     iteration #  3     ecut=    60.00 Ry     beta= 0.30
     Davidson diagonalization with overlap
     ethr =  6.50E-08,  avg # of iterations =  4.0

     negative rho (up, down):  1.049E-03 1.049E-03

     total cpu time spent up to now is     3298.2 secs

     total energy              =    -414.87033630 Ry
     estimated scf accuracy    <       0.00000159 Ry

     total magnetization       =    -0.00 Bohr mag/cell
     absolute magnetization    =     0.00 Bohr mag/cell

     iteration #  4     ecut=    60.00 Ry     beta= 0.30
     Davidson diagonalization with overlap
     ethr =  6.10E-09,  avg # of iterations =  4.0

     negative rho (up, down):  1.049E-03 1.049E-03

     total cpu time spent up to now is     3303.0 secs

     total energy              =    -414.87033653 Ry
     estimated scf accuracy    <       0.00000182 Ry

     total magnetization       =     0.00 Bohr mag/cell
     absolute magnetization    =     0.00 Bohr mag/cell

     iteration #  5     ecut=    60.00 Ry     beta= 0.30
     Davidson diagonalization with overlap
     ethr =  6.10E-09,  avg # of iterations =  1.0

     negative rho (up, down):  1.049E-03 1.049E-03

     total cpu time spent up to now is     3307.6 secs

     total energy              =    -414.87033646 Ry
     estimated scf accuracy    <       0.00000046 Ry

     total magnetization       =    -0.00 Bohr mag/cell
     absolute magnetization    =     0.00 Bohr mag/cell

     iteration #  6     ecut=    60.00 Ry     beta= 0.30
     Davidson diagonalization with overlap
     ethr =  1.77E-09,  avg # of iterations =  3.0

     negative rho (up, down):  1.049E-03 1.049E-03

     total cpu time spent up to now is     3312.9 secs

     total energy              =    -414.87033656 Ry
     estimated scf accuracy    <       0.00000018 Ry

     total magnetization       =     0.00 Bohr mag/cell
     absolute magnetization    =     0.00 Bohr mag/cell

     iteration #  7     ecut=    60.00 Ry     beta= 0.30
     Davidson diagonalization with overlap
     ethr =  6.89E-10,  avg # of iterations =  1.0

     negative rho (up, down):  1.049E-03 1.049E-03

     total cpu time spent up to now is     3317.5 secs

     total energy              =    -414.87033656 Ry
     estimated scf accuracy    <       0.00000004 Ry

     total magnetization       =    -0.00 Bohr mag/cell
     absolute magnetization    =     0.00 Bohr mag/cell

     iteration #  8     ecut=    60.00 Ry     beta= 0.30
     Davidson diagonalization with overlap
     ethr =  1.63E-10,  avg # of iterations =  2.0

     negative rho (up, down):  1.049E-03 1.049E-03

     total cpu time spent up to now is     3322.3 secs

     total energy              =    -414.87033656 Ry
     estimated scf accuracy    <          1.4E-09 Ry

     total magnetization       =     0.00 Bohr mag/cell
     absolute magnetization    =     0.00 Bohr mag/cell

     iteration #  9     ecut=    60.00 Ry     beta= 0.30
     Davidson diagonalization with overlap
     ethr =  5.32E-12,  avg # of iterations =  5.0

     negative rho (up, down):  1.049E-03 1.049E-03

     total cpu time spent up to now is     3327.9 secs

     total energy              =    -414.87033657 Ry
     estimated scf accuracy    <          9.0E-09 Ry

     total magnetization       =    -0.00 Bohr mag/cell
     absolute magnetization    =     0.00 Bohr mag/cell

     iteration # 10     ecut=    60.00 Ry     beta= 0.30
     Davidson diagonalization with overlap
     ethr =  5.32E-12,  avg # of iterations =  3.0

     negative rho (up, down):  1.049E-03 1.049E-03

     total cpu time spent up to now is     3332.7 secs

     total energy              =    -414.87033657 Ry
     estimated scf accuracy    <          1.5E-09 Ry

     total magnetization       =     0.00 Bohr mag/cell
     absolute magnetization    =     0.00 Bohr mag/cell

     iteration # 11     ecut=    60.00 Ry     beta= 0.30
     Davidson diagonalization with overlap
     ethr =  5.32E-12,  avg # of iterations =  3.0

     negative rho (up, down):  1.049E-03 1.049E-03
 
     Magnetic moment per site  (integrated on atomic sphere of radius R)
     atom   1 (R=0.039)  charge= 13.7691  magn=  0.0000
     atom   2 (R=0.039)  charge=  0.6978  magn= -0.0000
     atom   3 (R=0.039)  charge=  0.6978  magn= -0.0000
     atom   4 (R=0.039)  charge=  0.6978  magn=  0.0000
     atom   5 (R=0.039)  charge=  0.6978  magn=  0.0000
     atom   6 (R=0.049)  charge=  0.1617  magn= -0.0000
     atom   7 (R=0.049)  charge=  0.1617  magn=  0.0000

     total cpu time spent up to now is     3337.2 secs

     End of self-consistent calculation

 ------ SPIN UP ------------


          k = 0.0000 0.0000 0.0000 (108616 PWs)   bands (ev):

  -106.6859 -67.1101 -67.0683 -67.0683  -8.9985  -7.2293  -6.0966  -5.5479
    -5.5479  -5.2974  -5.2974  -4.9859  -4.9385  -3.6123  -1.2649  -0.8789
    -0.8789

 ------ SPIN DOWN ----------


          k = 0.0000 0.0000 0.0000 (108616 PWs)   bands (ev):

  -106.6859 -67.1101 -67.0683 -67.0683  -8.9985  -7.2293  -6.0966  -5.5479
    -5.5479  -5.2974  -5.2974  -4.9859  -4.9385  -3.6123  -1.2649  -0.8789
    -0.8789

     the Fermi energy is    -4.3848 ev

!    total energy              =    -414.87033657 Ry
     estimated scf accuracy    <          1.1E-10 Ry
     smearing contrib. (-TS)   =      -0.00000000 Ry
     internal energy E=F+TS    =    -414.87033657 Ry

     The total energy is F=E-TS. E is the sum of the following terms:
     one-electron contribution =    -682.90171825 Ry
     hartree contribution      =     339.96767012 Ry
     xc contribution           =     -41.15090391 Ry
     ewald contribution        =      31.81175004 Ry
     DFT-D3 Dispersion         =      -0.01710366 Ry
     one-center paw contrib.   =     -62.58003091 Ry

     total magnetization       =     0.00 Bohr mag/cell
     absolute magnetization    =     0.00 Bohr mag/cell

     convergence has been achieved in  11 iterations

     negative rho (up, down):  1.049E-03 1.049E-03

     Forces acting on atoms (cartesian axes, Ry/au):

     atom    1 type  1   force =     0.00000000    0.00000000    0.00000000
     atom    2 type  3   force =     0.00006488    0.00040233    0.00040233
     atom    3 type  3   force =     0.00006488   -0.00040233   -0.00040233
     atom    4 type  3   force =    -0.00006488    0.00040233   -0.00040233
     atom    5 type  3   force =    -0.00006488   -0.00040233    0.00040233
     atom    6 type  2   force =     0.00030252    0.00000000    0.00000000
     atom    7 type  2   force =    -0.00030252    0.00000000    0.00000000

     Total force =     0.001223     Total SCF correction =     0.000003
     Energy error            =      1.8E-05 Ry
     Gradient error          =      4.0E-04 Ry/Bohr

     number of scf cycles    =  39
     number of bfgs steps    =  38

     energy             old  =    -414.8703187394 Ry
     energy             new  =    -414.8703365678 Ry

     CASE: energy            _new < energy            _old

     new trust radius        =       0.0055613174 bohr
     new conv_thr            =       0.0000000002 Ry


ATOMIC_POSITIONS (angstrom)
Ni               8.0000000000        8.0000000000        8.0000000000
H                7.9999195435        9.0698202266        9.0698202266
H                7.9999195435        6.9301797734        6.9301797734
H                8.0000804565        9.0698202266        6.9301797734
H                8.0000804565        6.9301797734        9.0698202266
Mg              10.2115151775        8.0000000000        8.0000000000
Mg               5.7884848225        8.0000000000        8.0000000000



     Writing config-only to output data dir ./outdir/mg2nih4_unit.save/ :
     XML data file
     NEW-OLD atomic charge density approx. for the potential

     negative rho (up, down):  1.049E-03 1.049E-03
     Generating pointlists ...

     total cpu time spent up to now is     3350.9 secs

     Self-consistent Calculation

     iteration #  1     ecut=    60.00 Ry     beta= 0.30
     Davidson diagonalization with overlap
     ethr =  1.00E-06,  avg # of iterations =  2.0

     Threshold (ethr) on eigenvalues was too large:
     Diagonalizing with lowered threshold

     Davidson diagonalization with overlap
     ethr =  1.75E-08,  avg # of iterations =  2.0

     negative rho (up, down):  1.050E-03 1.050E-03

     total cpu time spent up to now is     3356.5 secs

     total energy              =    -414.87033891 Ry
     estimated scf accuracy    <       0.00000566 Ry

     total magnetization       =    -0.00 Bohr mag/cell
     absolute magnetization    =     0.00 Bohr mag/cell

     iteration #  2     ecut=    60.00 Ry     beta= 0.30
     Davidson diagonalization with overlap
     ethr =  2.18E-08,  avg # of iterations =  3.0

     negative rho (up, down):  1.049E-03 1.049E-03

     total cpu time spent up to now is     3361.2 secs

     total energy              =    -414.87033930 Ry
     estimated scf accuracy    <       0.00001075 Ry

     total magnetization       =     0.00 Bohr mag/cell
     absolute magnetization    =     0.00 Bohr mag/cell

     iteration #  3     ecut=    60.00 Ry     beta= 0.30
     Davidson diagonalization with overlap
     ethr =  2.18E-08,  avg # of iterations =  3.0

     negative rho (up, down):  1.049E-03 1.049E-03

     total cpu time spent up to now is     3366.0 secs

     total energy              =    -414.87034007 Ry
     estimated scf accuracy    <       0.00000068 Ry

     total magnetization       =    -0.00 Bohr mag/cell
     absolute magnetization    =     0.00 Bohr mag/cell

     iteration #  4     ecut=    60.00 Ry     beta= 0.30
     Davidson diagonalization with overlap
     ethr =  2.61E-09,  avg # of iterations =  2.0

     negative rho (up, down):  1.050E-03 1.050E-03

     total cpu time spent up to now is     3370.7 secs

     total energy              =    -414.87034008 Ry
     estimated scf accuracy    <       0.00000049 Ry

     total magnetization       =     0.00 Bohr mag/cell
     absolute magnetization    =     0.00 Bohr mag/cell

     iteration #  5     ecut=    60.00 Ry     beta= 0.30
     Davidson diagonalization with overlap
     ethr =  1.87E-09,  avg # of iterations =  2.0

     negative rho (up, down):  1.050E-03 1.050E-03

     total cpu time spent up to now is     3375.5 secs

     total energy              =    -414.87034014 Ry
     estimated scf accuracy    <          8.5E-09 Ry

     total magnetization       =    -0.00 Bohr mag/cell
     absolute magnetization    =     0.00 Bohr mag/cell

     iteration #  6     ecut=    60.00 Ry     beta= 0.30
     Davidson diagonalization with overlap
     ethr =  3.27E-11,  avg # of iterations =  5.0

     negative rho (up, down):  1.050E-03 1.050E-03

     total cpu time spent up to now is     3380.5 secs

     total energy              =    -414.87034014 Ry
     estimated scf accuracy    <       0.00000006 Ry

     total magnetization       =     0.00 Bohr mag/cell
     absolute magnetization    =     0.00 Bohr mag/cell

     iteration #  7     ecut=    60.00 Ry     beta= 0.30
     Davidson diagonalization with overlap
     ethr =  3.27E-11,  avg # of iterations =  4.0

     negative rho (up, down):  1.050E-03 1.050E-03

     total cpu time spent up to now is     3385.2 secs

     total energy              =    -414.87034015 Ry
     estimated scf accuracy    <          2.0E-09 Ry

     total magnetization       =     0.00 Bohr mag/cell
     absolute magnetization    =     0.00 Bohr mag/cell

     iteration #  8     ecut=    60.00 Ry     beta= 0.30
     Davidson diagonalization with overlap
     ethr =  7.55E-12,  avg # of iterations =  5.0

     negative rho (up, down):  1.050E-03 1.050E-03

     total cpu time spent up to now is     3390.5 secs

     total energy              =    -414.87034015 Ry
     estimated scf accuracy    <          6.0E-10 Ry

     total magnetization       =    -0.00 Bohr mag/cell
     absolute magnetization    =     0.00 Bohr mag/cell

     iteration #  9     ecut=    60.00 Ry     beta= 0.30
     Davidson diagonalization with overlap
     ethr =  2.30E-12,  avg # of iterations =  6.0

     negative rho (up, down):  1.050E-03 1.050E-03

     total cpu time spent up to now is     3395.2 secs

     total energy              =    -414.87034015 Ry
     estimated scf accuracy    <          3.6E-10 Ry

     total magnetization       =     0.00 Bohr mag/cell
     absolute magnetization    =     0.00 Bohr mag/cell

     iteration # 10     ecut=    60.00 Ry     beta= 0.30
     Davidson diagonalization with overlap
     ethr =  1.40E-12,  avg # of iterations =  1.0

     negative rho (up, down):  1.050E-03 1.050E-03

     total cpu time spent up to now is     3399.8 secs

     total energy              =    -414.87034014 Ry
     estimated scf accuracy    <          2.0E-10 Ry

     total magnetization       =     0.00 Bohr mag/cell
     absolute magnetization    =     0.00 Bohr mag/cell

     iteration # 11     ecut=    60.00 Ry     beta= 0.30
     Davidson diagonalization with overlap
     ethr =  7.88E-13,  avg # of iterations =  3.0

     negative rho (up, down):  1.050E-03 1.050E-03
 
     Magnetic moment per site  (integrated on atomic sphere of radius R)
     atom   1 (R=0.039)  charge= 13.7689  magn= -0.0000
     atom   2 (R=0.039)  charge=  0.6972  magn=  0.0000
     atom   3 (R=0.039)  charge=  0.6972  magn=  0.0000
     atom   4 (R=0.039)  charge=  0.6972  magn= -0.0000
     atom   5 (R=0.039)  charge=  0.6972  magn= -0.0000
     atom   6 (R=0.049)  charge=  0.1616  magn= -0.0000
     atom   7 (R=0.049)  charge=  0.1616  magn=  0.0000

     total cpu time spent up to now is     3404.4 secs

     End of self-consistent calculation

 ------ SPIN UP ------------


          k = 0.0000 0.0000 0.0000 (108616 PWs)   bands (ev):

  -106.6848 -67.1091 -67.0669 -67.0669  -8.9938  -7.2237  -6.0947  -5.5462
    -5.5462  -5.2954  -5.2954  -4.9839  -4.9396  -3.6138  -1.2667  -0.8800
    -0.8800

 ------ SPIN DOWN ----------


          k = 0.0000 0.0000 0.0000 (108616 PWs)   bands (ev):

  -106.6848 -67.1091 -67.0669 -67.0669  -8.9938  -7.2237  -6.0947  -5.5462
    -5.5462  -5.2954  -5.2954  -4.9839  -4.9396  -3.6138  -1.2667  -0.8800
    -0.8800

     the Fermi energy is    -4.3859 ev

!    total energy              =    -414.87034014 Ry
     estimated scf accuracy    <          2.4E-12 Ry
     smearing contrib. (-TS)   =      -0.00000000 Ry
     internal energy E=F+TS    =    -414.87034014 Ry

     The total energy is F=E-TS. E is the sum of the following terms:
     one-electron contribution =    -682.79492213 Ry
     hartree contribution      =     339.91452916 Ry
     xc contribution           =     -41.14872804 Ry
     ewald contribution        =      31.75577706 Ry
     DFT-D3 Dispersion         =      -0.01710124 Ry
     one-center paw contrib.   =     -62.57989495 Ry

     total magnetization       =    -0.00 Bohr mag/cell
     absolute magnetization    =     0.00 Bohr mag/cell

     convergence has been achieved in  11 iterations

     negative rho (up, down):  1.050E-03 1.050E-03

     Forces acting on atoms (cartesian axes, Ry/au):

     atom    1 type  1   force =     0.00000000    0.00000000    0.00000000
     atom    2 type  3   force =     0.00000181    0.00002982    0.00002982
     atom    3 type  3   force =     0.00000181   -0.00002982   -0.00002982
     atom    4 type  3   force =    -0.00000181    0.00002982   -0.00002982
     atom    5 type  3   force =    -0.00000181   -0.00002982    0.00002982
     atom    6 type  2   force =    -0.00003400    0.00000000    0.00000000
     atom    7 type  2   force =     0.00003400    0.00000000    0.00000000

     Total force =     0.000097     Total SCF correction =     0.000001
     Energy error            =      3.6E-06 Ry
     Gradient error          =      3.4E-05 Ry/Bohr

     bfgs converged in  40 scf cycles and  39 bfgs steps
     (criteria: energy <  1.0E-05 Ry, force <  1.0E-04 Ry/Bohr)

     End of BFGS Geometry Optimization

     Final energy             =    -414.8703401449 Ry

     File ./outdir/mg2nih4_unit.bfgs deleted, as requested
Begin final coordinates

ATOMIC_POSITIONS (angstrom)
Ni               8.0000000000        8.0000000000        8.0000000000
H                7.9999195435        9.0698202266        9.0698202266
H                7.9999195435        6.9301797734        6.9301797734
H                8.0000804565        9.0698202266        6.9301797734
H                8.0000804565        6.9301797734        9.0698202266
Mg              10.2115151775        8.0000000000        8.0000000000
Mg               5.7884848225        8.0000000000        8.0000000000
End final coordinates



     Writing all to output data dir ./outdir/mg2nih4_unit.save/ :
     XML data file, charge density, pseudopotentials, collected wavefunctions
 
     init_run     :    210.50s CPU     15.87s WALL (       1 calls)
     electrons    :   3770.38s CPU   2850.87s WALL (      40 calls)
     update_pot   :     35.60s CPU     14.13s WALL (      39 calls)
     forces       :    394.66s CPU    374.48s WALL (      40 calls)
     force_dftd3  :      0.76s CPU      0.04s WALL (      40 calls)

     Called by init_run:
     wfcinit      :      0.21s CPU      0.23s WALL (       1 calls)
     potinit      :    204.90s CPU     10.39s WALL (       1 calls)
     hinit0       :      1.70s CPU      1.42s WALL (       1 calls)

     Called by electrons:
     c_bands      :    421.53s CPU    412.07s WALL (     594 calls)
     sum_band     :    268.85s CPU    262.53s WALL (     594 calls)
     v_of_rho     :     97.14s CPU     93.05s WALL (     632 calls)
     newd         :   1893.33s CPU   1861.11s WALL (     632 calls)
     PAW_pot      :    149.70s CPU     11.12s WALL (     671 calls)
     mix_rho      :    109.66s CPU    105.06s WALL (     594 calls)
     energy_dftd3 :      0.06s CPU      0.05s WALL (      40 calls)

     Called by c_bands:
     init_us_2    :      1.48s CPU      1.25s WALL (    2536 calls)
     regterg      :    413.29s CPU    404.48s WALL (    1188 calls)

     Called by *egterg:
     rdiaghg      :      3.50s CPU      3.56s WALL (    4401 calls)
                                        3.52s GPU  (    4401 calls)
     h_psi        :    215.21s CPU    210.30s WALL (    4485 calls)
     s_psi        :      0.31s CPU      0.30s WALL (    4485 calls)
     g_psi        :      0.21s CPU      0.21s WALL (    3295 calls)

     Called by h_psi:
     h_psi:calbec :      0.19s CPU      0.15s WALL (    4485 calls)
     vloc_psi     :     31.74s CPU     29.93s WALL (    4485 calls)
                                       29.91s GPU  (    4485 calls)
     add_vuspsi   :    181.68s CPU    178.72s WALL (    4485 calls)

     General routines
     calbec       :      0.25s CPU      0.20s WALL (    6071 calls)
     fft          :    894.22s CPU     70.99s WALL (   11937 calls)
                                       21.29s GPU  (   10673 calls)
     ffts         :    176.13s CPU      7.34s WALL (    1858 calls)
                                        0.30s GPU  (     594 calls)
     fftw         :      0.27s CPU     30.68s WALL (   19662 calls)
                                       30.54s GPU  (   19662 calls)
     interpolate  :   1125.35s CPU    142.02s WALL (    1264 calls)
 
 
     PWSCF        :      1h17m CPU  56m54.08s WALL

 
   This run was terminated on:   2:35: 9  14Jun2026            

=------------------------------------------------------------------------------=
   JOB DONE.
=------------------------------------------------------------------------------=
