
     Program PWSCF v.7.5 starts on 14Jun2026 at  1:32:53 

     This program is part of the open-source Quantum ESPRESSO suite
     for quantum simulation of materials; please cite
         "P. Giannozzi et al., J. Phys.:Condens. Matter 21 395502 (2009);
         "P. Giannozzi et al., J. Phys.:Condens. Matter 29 465901 (2017);
         "P. Giannozzi et al., J. Chem. Phys. 152 154105 (2020);
          URL http://www.quantum-espresso.org", 
     in publications or presentations arising from this work. More details at
     http://www.quantum-espresso.org/quote

     Serial multi-threaded version, running on   32 processor cores
     26478 MiB available memory on the printing compute node when the environment starts
 
     Reading input from inputs/mg2ni_unit.in

     Current dimensions of program PWSCF are:
     Max number of different atomic species (ntypx) = 10
     Max number of k-points (npk) =  40000
     Max angular momentum in pseudopotentials (lmaxx) =  4
     file Mg.pbe-n-kjpaw_psl.0.3.0.UPF: wavefunction(s)  3S renormalized

     gamma-point specific algorithms are used
 
 
     G-vector sticks info
     --------------------
     sticks:   dense  smooth     PW     G-vecs:    dense   smooth      PW
     Sum       33421   13381   3341              4595891  1162695  145165
 
     Using Slab Decomposition
 


     bravais-lattice index     =            1
     lattice parameter (alat)  =      26.4562  a.u.
     unit-cell volume          =   18517.4299 (a.u.)^3
     number of atoms/cell      =            3
     number of atomic types    =            2
     number of electrons       =        22.00
     number of Kohn-Sham states=           15
     kinetic-energy cutoff     =      60.0000  Ry
     charge density cutoff     =     600.0000  Ry
     scf convergence threshold =      1.0E-08
     mixing beta               =       0.3000
     number of iterations used =            8  plain     mixing
     energy convergence thresh.=      1.0E-05
     force convergence thresh. =      1.0E-04
     Exchange-correlation= SLA  PW   PBX  PBC
                           (   1   4   3   4   0   0   0)
     nstep                     =          150


     GPU acceleration is ACTIVE.  1 visible GPUs per MPI rank


     celldm(1)=  26.456166  celldm(2)=   0.000000  celldm(3)=   0.000000
     celldm(4)=   0.000000  celldm(5)=   0.000000  celldm(6)=   0.000000

     crystal axes: (cart. coord. in units of alat)
               a(1) = (   1.000000   0.000000   0.000000 )  
               a(2) = (   0.000000   1.000000   0.000000 )  
               a(3) = (   0.000000   0.000000   1.000000 )  

     reciprocal axes: (cart. coord. in units 2 pi/alat)
               b(1) = (  1.000000  0.000000  0.000000 )  
               b(2) = (  0.000000  1.000000  0.000000 )  
               b(3) = (  0.000000  0.000000  1.000000 )  


     PseudoPot. # 1 for Ni read from file:
     /home/x/Workspace/3-hEspesso/pseudo/ni_pbe_v1.4.uspp.F.UPF
     MD5 check sum: 1ee80287db30b12d2bc1f57a5b5d6409
     Pseudo is Ultrasoft + core correction, Zval = 18.0
     Generated by new atomic code, or converted to UPF format
     Using radial grid of  865 points,  6 beta functions with: 
                l(1) =   0
                l(2) =   0
                l(3) =   1
                l(4) =   1
                l(5) =   2
                l(6) =   2
     Q(r) pseudized with 10 coefficients,  rinner =    0.980   0.980   0.980
                                                       0.980   0.980

     PseudoPot. # 2 for Mg read from file:
     /home/x/Workspace/3-hEspesso/pseudo/Mg.pbe-n-kjpaw_psl.0.3.0.UPF
     MD5 check sum: 24ecedc7f3e3cbe212e682f4413594e4
     Pseudo is Projector augmented-wave + core cor, Zval =  2.0
     Generated using "atomic" code by A. Dal Corso  v.5.0.99 svn rev. 10869
     Shape of augmentation charge: PSQ
     Using radial grid of 1129 points,  4 beta functions with: 
                l(1) =   0
                l(2) =   0
                l(3) =   1
                l(4) =   1
     Q(r) pseudized with 0 coefficients 


     atomic species   valence    mass     pseudopotential
     Ni               18.00    58.69340     Ni( 1.00)
     Mg                2.00    24.30500     Mg( 1.00)

     Starting magnetic structure 
     atomic species   magnetization
     Ni              0.300
     Mg              0.000

      2 Sym. Ops. (no inversion) found



   Cartesian axes

     site n.     atom                  positions (alat units)
         1        Ni     tau(   1) = (   0.5000000   0.5000000   0.5000000  )
         2        Mg     tau(   2) = (   0.6857143   0.5000000   0.5000000  )
         3        Mg     tau(   3) = (   0.4071429   0.6607143   0.5000000  )

     --------------------------------------------
     DFT-D3 Dispersion Correction (3-body terms):
     --------------------------------------------
       Reference C6 values for interpolation: 

         atom   Coordination number   C6
         Mg         0.000          1366.75
         Mg         0.963           902.54
         Mg         1.950           351.12
         Ni         0.000          1149.49
         Ni         1.794           356.66
         Ni         6.546           257.56
         Ni         6.292           283.75

       Values used:

         atom   Coordination number  R0_AB[au]  C6      C8
         Ni         1.831            3.162    356.66  29885.79
         Mg         0.931            3.292    904.24  80957.77
         Mg         0.932            3.292    904.09  80945.08

         Molecular C6 ( Ry / a.u.^6 ) =      6130.70


     number of k points=     1  Gaussian smearing, width (Ry)=  0.0050
                       cart. coord. in units 2pi/alat
        k(    1) = (   0.0000000   0.0000000   0.0000000), wk =   1.0000000

     Dense  grid:  2297946 G-vectors     FFT dimensions: ( 216, 216, 216)

     Smooth grid:   581348 G-vectors     FFT dimensions: ( 135, 135, 135)

     Estimated max dynamical RAM per process >       9.35 GB
     Generating pointlists ...
     new r_m :   0.0766 (alat units)  2.0256 (a.u.) for type    1
     new r_m :   0.0766 (alat units)  2.0256 (a.u.) for type    2

     Initial potential from superposition of free atoms

     starting charge      19.9982, renormalised to      22.0000

     negative rho (up, down):  2.633E-04 1.585E-04
     Starting wfcs are   21 randomized atomic wfcs

     total cpu time spent up to now is       11.1 secs

     Self-consistent Calculation

     iteration #  1     ecut=    60.00 Ry     beta= 0.30
     Davidson diagonalization with overlap
     ethr =  1.00E-02,  avg # of iterations =  8.0

     negative rho (up, down):  4.495E-05 1.611E-05

     total cpu time spent up to now is       15.1 secs

     total energy              =    -385.61943796 Ry
     estimated scf accuracy    <      75.62419251 Ry

     total magnetization       =     0.00 Bohr mag/cell
     absolute magnetization    =     0.35 Bohr mag/cell

     iteration #  2     ecut=    60.00 Ry     beta= 0.30
     Davidson diagonalization with overlap
     ethr =  1.00E-02,  avg # of iterations =  5.0

     negative rho (up, down):  2.281E-05 2.478E-05

     total cpu time spent up to now is       18.6 secs

     total energy              =    -411.75269311 Ry
     estimated scf accuracy    <      28.03109470 Ry

     total magnetization       =     1.96 Bohr mag/cell
     absolute magnetization    =     1.97 Bohr mag/cell

     iteration #  3     ecut=    60.00 Ry     beta= 0.30
     Davidson diagonalization with overlap
     ethr =  1.00E-02,  avg # of iterations =  2.0

     negative rho (up, down):  8.324E-05 9.865E-05

     total cpu time spent up to now is       21.7 secs

     total energy              =    -411.01388206 Ry
     estimated scf accuracy    <      10.18356469 Ry

     total magnetization       =     0.00 Bohr mag/cell
     absolute magnetization    =     0.31 Bohr mag/cell

     iteration #  4     ecut=    60.00 Ry     beta= 0.30
     Davidson diagonalization with overlap
     ethr =  1.00E-02,  avg # of iterations =  2.0

     negative rho (up, down):  8.659E-05 8.891E-05

     total cpu time spent up to now is       24.7 secs

     total energy              =    -409.83119568 Ry
     estimated scf accuracy    <       5.29318978 Ry

     total magnetization       =     0.00 Bohr mag/cell
     absolute magnetization    =     0.35 Bohr mag/cell

     iteration #  5     ecut=    60.00 Ry     beta= 0.30
     Davidson diagonalization with overlap
     ethr =  1.00E-02,  avg # of iterations =  2.0

     negative rho (up, down):  1.252E-04 1.186E-04

     total cpu time spent up to now is       27.8 secs

     total energy              =    -409.49923317 Ry
     estimated scf accuracy    <       1.21241088 Ry

     total magnetization       =     0.00 Bohr mag/cell
     absolute magnetization    =     0.40 Bohr mag/cell

     iteration #  6     ecut=    60.00 Ry     beta= 0.30
     Davidson diagonalization with overlap
     ethr =  5.51E-03,  avg # of iterations =  8.0

     negative rho (up, down):  3.423E-05 4.690E-05

     total cpu time spent up to now is       31.5 secs

     total energy              =    -407.93046270 Ry
     estimated scf accuracy    <      64.97711789 Ry

     total magnetization       =    -0.35 Bohr mag/cell
     absolute magnetization    =     1.12 Bohr mag/cell

     iteration #  7     ecut=    60.00 Ry     beta= 0.30
     Davidson diagonalization with overlap
     ethr =  5.51E-03,  avg # of iterations =  7.5

     negative rho (up, down):  6.206E-04 5.117E-04

     total cpu time spent up to now is       35.4 secs

     total energy              =    -409.94280962 Ry
     estimated scf accuracy    <       0.93552368 Ry

     total magnetization       =     0.00 Bohr mag/cell
     absolute magnetization    =     1.21 Bohr mag/cell

     iteration #  8     ecut=    60.00 Ry     beta= 0.30
     Davidson diagonalization with overlap
     ethr =  4.25E-03,  avg # of iterations =  1.0

     negative rho (up, down):  1.295E-03 1.185E-03

     total cpu time spent up to now is       38.4 secs

     total energy              =    -409.95005541 Ry
     estimated scf accuracy    <       0.89705907 Ry

     total magnetization       =     0.00 Bohr mag/cell
     absolute magnetization    =     1.20 Bohr mag/cell

     iteration #  9     ecut=    60.00 Ry     beta= 0.30
     Davidson diagonalization with overlap
     ethr =  4.08E-03,  avg # of iterations =  1.0

     negative rho (up, down):  1.340E-03 7.806E-04

     total cpu time spent up to now is       41.5 secs

     total energy              =    -409.68891945 Ry
     estimated scf accuracy    <       0.90076654 Ry

     total magnetization       =    -0.00 Bohr mag/cell
     absolute magnetization    =     1.21 Bohr mag/cell

     iteration # 10     ecut=    60.00 Ry     beta= 0.30
     Davidson diagonalization with overlap
     ethr =  4.08E-03,  avg # of iterations =  2.0

     negative rho (up, down):  1.801E-03 1.141E-03

     total cpu time spent up to now is       44.6 secs

     total energy              =    -409.78239665 Ry
     estimated scf accuracy    <       0.14509852 Ry

     total magnetization       =    -0.00 Bohr mag/cell
     absolute magnetization    =     1.21 Bohr mag/cell

     iteration # 11     ecut=    60.00 Ry     beta= 0.30
     Davidson diagonalization with overlap
     ethr =  6.60E-04,  avg # of iterations =  4.0

     negative rho (up, down):  1.922E-03 1.504E-03

     total cpu time spent up to now is       47.9 secs

     total energy              =    -410.26093998 Ry
     estimated scf accuracy    <       0.34944317 Ry

     total magnetization       =    -0.70 Bohr mag/cell
     absolute magnetization    =     1.25 Bohr mag/cell

     iteration # 12     ecut=    60.00 Ry     beta= 0.30
     Davidson diagonalization with overlap
     ethr =  6.60E-04,  avg # of iterations =  2.0

     negative rho (up, down):  1.577E-03 1.019E-03

     total cpu time spent up to now is       51.1 secs

     total energy              =    -410.24458586 Ry
     estimated scf accuracy    <       1.09882429 Ry

     total magnetization       =    -0.51 Bohr mag/cell
     absolute magnetization    =     1.44 Bohr mag/cell

     iteration # 13     ecut=    60.00 Ry     beta= 0.30
     Davidson diagonalization with overlap
     ethr =  6.60E-04,  avg # of iterations =  4.0

     negative rho (up, down):  1.076E-03 1.096E-03

     total cpu time spent up to now is       54.3 secs

     total energy              =    -410.58126302 Ry
     estimated scf accuracy    <       3.05547888 Ry

     total magnetization       =    -0.00 Bohr mag/cell
     absolute magnetization    =     0.14 Bohr mag/cell

     iteration # 14     ecut=    60.00 Ry     beta= 0.30
     Davidson diagonalization with overlap
     ethr =  6.60E-04,  avg # of iterations =  1.0

     negative rho (up, down):  4.612E-04 4.054E-04

     total cpu time spent up to now is       57.3 secs

     total energy              =    -410.35998597 Ry
     estimated scf accuracy    <       2.63436873 Ry

     total magnetization       =     0.00 Bohr mag/cell
     absolute magnetization    =     0.14 Bohr mag/cell

     iteration # 15     ecut=    60.00 Ry     beta= 0.30
     Davidson diagonalization with overlap
     ethr =  6.60E-04,  avg # of iterations =  2.0

     negative rho (up, down):  2.818E-03 3.511E-03

     total cpu time spent up to now is       60.4 secs

     total energy              =    -410.51228532 Ry
     estimated scf accuracy    <       1.75494610 Ry

     total magnetization       =    -0.00 Bohr mag/cell
     absolute magnetization    =     0.10 Bohr mag/cell

     iteration # 16     ecut=    60.00 Ry     beta= 0.30
     Davidson diagonalization with overlap
     ethr =  6.60E-04,  avg # of iterations =  1.5

     negative rho (up, down):  3.645E-04 7.602E-04

     total cpu time spent up to now is       63.4 secs

     total energy              =    -409.96770554 Ry
     estimated scf accuracy    <       2.34252943 Ry

     total magnetization       =     0.00 Bohr mag/cell
     absolute magnetization    =     0.19 Bohr mag/cell

     iteration # 17     ecut=    60.00 Ry     beta= 0.30
     Davidson diagonalization with overlap
     ethr =  6.60E-04,  avg # of iterations =  4.0

     negative rho (up, down):  2.887E-04 4.994E-04

     total cpu time spent up to now is       66.8 secs

     total energy              =    -410.11495885 Ry
     estimated scf accuracy    <       0.27441037 Ry

     total magnetization       =     0.00 Bohr mag/cell
     absolute magnetization    =     0.08 Bohr mag/cell

     iteration # 18     ecut=    60.00 Ry     beta= 0.30
     Davidson diagonalization with overlap
     ethr =  6.60E-04,  avg # of iterations =  1.0

     negative rho (up, down):  4.271E-04 6.945E-04

     total cpu time spent up to now is       69.8 secs

     total energy              =    -410.09916902 Ry
     estimated scf accuracy    <       0.36569662 Ry

     total magnetization       =    -0.00 Bohr mag/cell
     absolute magnetization    =     0.06 Bohr mag/cell

     iteration # 19     ecut=    60.00 Ry     beta= 0.30
     Davidson diagonalization with overlap
     ethr =  6.60E-04,  avg # of iterations =  1.0

     negative rho (up, down):  2.663E-04 6.029E-04

     total cpu time spent up to now is       72.8 secs

     total energy              =    -410.01908523 Ry
     estimated scf accuracy    <       0.27327349 Ry

     total magnetization       =    -0.00 Bohr mag/cell
     absolute magnetization    =     0.06 Bohr mag/cell

     iteration # 20     ecut=    60.00 Ry     beta= 0.30
     Davidson diagonalization with overlap
     ethr =  6.60E-04,  avg # of iterations =  5.0

     negative rho (up, down):  3.758E-04 5.622E-04

     total cpu time spent up to now is       76.3 secs

     total energy              =    -409.86097981 Ry
     estimated scf accuracy    <       7.42666690 Ry

     total magnetization       =     0.05 Bohr mag/cell
     absolute magnetization    =     0.20 Bohr mag/cell

     iteration # 21     ecut=    60.00 Ry     beta= 0.30
     Davidson diagonalization with overlap
     ethr =  6.60E-04,  avg # of iterations =  4.0

     negative rho (up, down):  1.614E-04 2.589E-04

     total cpu time spent up to now is       79.7 secs

     total energy              =    -410.08581263 Ry
     estimated scf accuracy    <       0.13103559 Ry

     total magnetization       =    -0.00 Bohr mag/cell
     absolute magnetization    =     0.06 Bohr mag/cell

     iteration # 22     ecut=    60.00 Ry     beta= 0.30
     Davidson diagonalization with overlap
     ethr =  5.96E-04,  avg # of iterations =  1.0

     negative rho (up, down):  1.387E-04 1.871E-04

     total cpu time spent up to now is       82.7 secs

     total energy              =    -410.07677138 Ry
     estimated scf accuracy    <       0.09631048 Ry

     total magnetization       =     0.00 Bohr mag/cell
     absolute magnetization    =     0.04 Bohr mag/cell

     iteration # 23     ecut=    60.00 Ry     beta= 0.30
     Davidson diagonalization with overlap
     ethr =  4.38E-04,  avg # of iterations =  1.0

     negative rho (up, down):  1.801E-04 3.884E-04

     total cpu time spent up to now is       85.7 secs

     total energy              =    -410.08432526 Ry
     estimated scf accuracy    <       0.31395727 Ry

     total magnetization       =     0.21 Bohr mag/cell
     absolute magnetization    =     0.23 Bohr mag/cell

     iteration # 24     ecut=    60.00 Ry     beta= 0.30
     Davidson diagonalization with overlap
     ethr =  4.38E-04,  avg # of iterations =  1.0

     negative rho (up, down):  2.003E-04 5.879E-04

     total cpu time spent up to now is       88.8 secs

     total energy              =    -410.08458770 Ry
     estimated scf accuracy    <       0.31501460 Ry

     total magnetization       =     0.17 Bohr mag/cell
     absolute magnetization    =     0.20 Bohr mag/cell

     iteration # 25     ecut=    60.00 Ry     beta= 0.30
     Davidson diagonalization with overlap
     ethr =  4.38E-04,  avg # of iterations =  1.0

     negative rho (up, down):  2.890E-04 6.618E-04

     total cpu time spent up to now is       91.8 secs

     total energy              =    -410.07643717 Ry
     estimated scf accuracy    <       0.32519408 Ry

     total magnetization       =     0.04 Bohr mag/cell
     absolute magnetization    =     0.11 Bohr mag/cell

     iteration # 26     ecut=    60.00 Ry     beta= 0.30
     Davidson diagonalization with overlap
     ethr =  4.38E-04,  avg # of iterations =  1.0

     negative rho (up, down):  2.064E-04 3.947E-04

     total cpu time spent up to now is       94.8 secs

     total energy              =    -410.08206156 Ry
     estimated scf accuracy    <       0.01714024 Ry

     total magnetization       =     0.04 Bohr mag/cell
     absolute magnetization    =     0.06 Bohr mag/cell

     iteration # 27     ecut=    60.00 Ry     beta= 0.30
     Davidson diagonalization with overlap
     ethr =  7.79E-05,  avg # of iterations =  1.0

     negative rho (up, down):  1.582E-04 3.501E-04

     total cpu time spent up to now is       97.8 secs

     total energy              =    -410.08243020 Ry
     estimated scf accuracy    <       0.00178412 Ry

     total magnetization       =     0.17 Bohr mag/cell
     absolute magnetization    =     0.18 Bohr mag/cell

     iteration # 28     ecut=    60.00 Ry     beta= 0.30
     Davidson diagonalization with overlap
     ethr =  8.11E-06,  avg # of iterations =  1.0

     negative rho (up, down):  1.331E-04 3.327E-04

     total cpu time spent up to now is      100.8 secs

     total energy              =    -410.08248707 Ry
     estimated scf accuracy    <       0.00187852 Ry

     total magnetization       =     0.17 Bohr mag/cell
     absolute magnetization    =     0.17 Bohr mag/cell

     iteration # 29     ecut=    60.00 Ry     beta= 0.30
     Davidson diagonalization with overlap
     ethr =  8.11E-06,  avg # of iterations =  1.0

     negative rho (up, down):  1.489E-04 2.847E-04

     total cpu time spent up to now is      103.8 secs

     total energy              =    -410.08271953 Ry
     estimated scf accuracy    <       0.00353513 Ry

     total magnetization       =     0.24 Bohr mag/cell
     absolute magnetization    =     0.25 Bohr mag/cell

     iteration # 30     ecut=    60.00 Ry     beta= 0.30
     Davidson diagonalization with overlap
     ethr =  8.11E-06,  avg # of iterations =  2.0

     negative rho (up, down):  1.508E-04 5.047E-04

     total cpu time spent up to now is      107.0 secs

     total energy              =    -410.08322949 Ry
     estimated scf accuracy    <       0.13475768 Ry

     total magnetization       =     0.53 Bohr mag/cell
     absolute magnetization    =     0.53 Bohr mag/cell

     iteration # 31     ecut=    60.00 Ry     beta= 0.30
     Davidson diagonalization with overlap
     ethr =  8.11E-06,  avg # of iterations =  1.0

     negative rho (up, down):  1.525E-04 5.474E-04

     total cpu time spent up to now is      110.0 secs

     total energy              =    -410.08253523 Ry
     estimated scf accuracy    <       0.07932967 Ry

     total magnetization       =     0.42 Bohr mag/cell
     absolute magnetization    =     0.42 Bohr mag/cell

     iteration # 32     ecut=    60.00 Ry     beta= 0.30
     Davidson diagonalization with overlap
     ethr =  8.11E-06,  avg # of iterations =  1.0

     negative rho (up, down):  1.546E-04 5.201E-04

     total cpu time spent up to now is      113.0 secs

     total energy              =    -410.08201715 Ry
     estimated scf accuracy    <       0.01746927 Ry

     total magnetization       =     0.30 Bohr mag/cell
     absolute magnetization    =     0.31 Bohr mag/cell

     iteration # 33     ecut=    60.00 Ry     beta= 0.30
     Davidson diagonalization with overlap
     ethr =  8.11E-06,  avg # of iterations =  2.0

     negative rho (up, down):  1.815E-04 4.260E-04

     total cpu time spent up to now is      116.1 secs

     total energy              =    -410.08246786 Ry
     estimated scf accuracy    <       0.00215053 Ry

     total magnetization       =     0.17 Bohr mag/cell
     absolute magnetization    =     0.18 Bohr mag/cell

     iteration # 34     ecut=    60.00 Ry     beta= 0.30
     Davidson diagonalization with overlap
     ethr =  8.11E-06,  avg # of iterations =  1.0

     negative rho (up, down):  2.222E-04 3.603E-04

     total cpu time spent up to now is      119.1 secs

     total energy              =    -410.08233136 Ry
     estimated scf accuracy    <       0.00622988 Ry

     total magnetization       =     0.12 Bohr mag/cell
     absolute magnetization    =     0.15 Bohr mag/cell

     iteration # 35     ecut=    60.00 Ry     beta= 0.30
     Davidson diagonalization with overlap
     ethr =  8.11E-06,  avg # of iterations =  1.0

     negative rho (up, down):  2.417E-04 2.970E-04

     total cpu time spent up to now is      122.1 secs

     total energy              =    -410.08243278 Ry
     estimated scf accuracy    <       0.00058640 Ry

     total magnetization       =     0.12 Bohr mag/cell
     absolute magnetization    =     0.21 Bohr mag/cell

     iteration # 36     ecut=    60.00 Ry     beta= 0.30
     Davidson diagonalization with overlap
     ethr =  2.67E-06,  avg # of iterations =  1.0

     negative rho (up, down):  2.514E-04 2.230E-04

     total cpu time spent up to now is      125.1 secs

     total energy              =    -410.08248852 Ry
     estimated scf accuracy    <       0.00346185 Ry

     total magnetization       =     0.09 Bohr mag/cell
     absolute magnetization    =     0.19 Bohr mag/cell

     iteration # 37     ecut=    60.00 Ry     beta= 0.30
     Davidson diagonalization with overlap
     ethr =  2.67E-06,  avg # of iterations =  1.0

     negative rho (up, down):  2.546E-04 2.165E-04

     total cpu time spent up to now is      128.1 secs

     total energy              =    -410.08241814 Ry
     estimated scf accuracy    <       0.00520191 Ry

     total magnetization       =     0.10 Bohr mag/cell
     absolute magnetization    =     0.17 Bohr mag/cell

     iteration # 38     ecut=    60.00 Ry     beta= 0.30
     Davidson diagonalization with overlap
     ethr =  2.67E-06,  avg # of iterations =  1.0

     negative rho (up, down):  3.136E-04 2.134E-04

     total cpu time spent up to now is      131.1 secs

     total energy              =    -410.08225547 Ry
     estimated scf accuracy    <       0.00068775 Ry

     total magnetization       =     0.15 Bohr mag/cell
     absolute magnetization    =     0.27 Bohr mag/cell

     iteration # 39     ecut=    60.00 Ry     beta= 0.30
     Davidson diagonalization with overlap
     ethr =  2.67E-06,  avg # of iterations =  1.0

     negative rho (up, down):  3.492E-04 1.978E-04

     total cpu time spent up to now is      134.1 secs

     total energy              =    -410.08219961 Ry
     estimated scf accuracy    <       0.00037638 Ry

     total magnetization       =     0.05 Bohr mag/cell
     absolute magnetization    =     0.17 Bohr mag/cell

     iteration # 40     ecut=    60.00 Ry     beta= 0.30
     Davidson diagonalization with overlap
     ethr =  1.71E-06,  avg # of iterations =  1.0

     negative rho (up, down):  3.000E-04 1.836E-04

     total cpu time spent up to now is      137.2 secs

     total energy              =    -410.08226625 Ry
     estimated scf accuracy    <       0.00039289 Ry

     total magnetization       =    -0.05 Bohr mag/cell
     absolute magnetization    =     0.10 Bohr mag/cell

     iteration # 41     ecut=    60.00 Ry     beta= 0.30
     Davidson diagonalization with overlap
     ethr =  1.71E-06,  avg # of iterations =  1.0

     negative rho (up, down):  2.616E-04 1.723E-04

     total cpu time spent up to now is      140.2 secs

     total energy              =    -410.08232305 Ry
     estimated scf accuracy    <       0.00065568 Ry

     total magnetization       =    -0.08 Bohr mag/cell
     absolute magnetization    =     0.14 Bohr mag/cell

     iteration # 42     ecut=    60.00 Ry     beta= 0.30
     Davidson diagonalization with overlap
     ethr =  1.71E-06,  avg # of iterations =  1.0

     negative rho (up, down):  2.351E-04 1.713E-04

     total cpu time spent up to now is      143.2 secs

     total energy              =    -410.08231617 Ry
     estimated scf accuracy    <       0.00024200 Ry

     total magnetization       =    -0.10 Bohr mag/cell
     absolute magnetization    =     0.20 Bohr mag/cell

     iteration # 43     ecut=    60.00 Ry     beta= 0.30
     Davidson diagonalization with overlap
     ethr =  1.10E-06,  avg # of iterations =  1.0

     negative rho (up, down):  2.552E-04 1.810E-04

     total cpu time spent up to now is      146.2 secs

     total energy              =    -410.08225340 Ry
     estimated scf accuracy    <       0.00011376 Ry

     total magnetization       =    -0.07 Bohr mag/cell
     absolute magnetization    =     0.17 Bohr mag/cell

     iteration # 44     ecut=    60.00 Ry     beta= 0.30
     Davidson diagonalization with overlap
     ethr =  5.17E-07,  avg # of iterations =  1.0

     negative rho (up, down):  2.273E-04 1.768E-04

     total cpu time spent up to now is      149.2 secs

     total energy              =    -410.08228692 Ry
     estimated scf accuracy    <       0.00100218 Ry

     total magnetization       =    -0.07 Bohr mag/cell
     absolute magnetization    =     0.11 Bohr mag/cell

     iteration # 45     ecut=    60.00 Ry     beta= 0.30
     Davidson diagonalization with overlap
     ethr =  5.17E-07,  avg # of iterations =  1.0

     negative rho (up, down):  2.073E-04 1.693E-04

     total cpu time spent up to now is      152.2 secs

     total energy              =    -410.08231173 Ry
     estimated scf accuracy    <       0.00033700 Ry

     total magnetization       =    -0.09 Bohr mag/cell
     absolute magnetization    =     0.13 Bohr mag/cell

     iteration # 46     ecut=    60.00 Ry     beta= 0.30
     Davidson diagonalization with overlap
     ethr =  5.17E-07,  avg # of iterations =  1.0

     negative rho (up, down):  1.990E-04 1.632E-04

     total cpu time spent up to now is      155.2 secs

     total energy              =    -410.08231417 Ry
     estimated scf accuracy    <       0.00058026 Ry

     total magnetization       =    -0.12 Bohr mag/cell
     absolute magnetization    =     0.15 Bohr mag/cell

     iteration # 47     ecut=    60.00 Ry     beta= 0.30
     Davidson diagonalization with overlap
     ethr =  5.17E-07,  avg # of iterations =  1.0

     negative rho (up, down):  1.822E-04 1.641E-04

     total cpu time spent up to now is      158.2 secs

     total energy              =    -410.08230985 Ry
     estimated scf accuracy    <       0.00139207 Ry

     total magnetization       =    -0.12 Bohr mag/cell
     absolute magnetization    =     0.15 Bohr mag/cell

     iteration # 48     ecut=    60.00 Ry     beta= 0.30
     Davidson diagonalization with overlap
     ethr =  5.17E-07,  avg # of iterations =  1.0

     negative rho (up, down):  1.744E-04 1.647E-04

     total cpu time spent up to now is      161.2 secs

     total energy              =    -410.08229316 Ry
     estimated scf accuracy    <       0.00044248 Ry

     total magnetization       =    -0.11 Bohr mag/cell
     absolute magnetization    =     0.16 Bohr mag/cell

     iteration # 49     ecut=    60.00 Ry     beta= 0.30
     Davidson diagonalization with overlap
     ethr =  5.17E-07,  avg # of iterations =  1.0

     negative rho (up, down):  1.715E-04 1.702E-04

     total cpu time spent up to now is      164.3 secs

     total energy              =    -410.08219796 Ry
     estimated scf accuracy    <       0.00011873 Ry

     total magnetization       =    -0.09 Bohr mag/cell
     absolute magnetization    =     0.13 Bohr mag/cell

     iteration # 50     ecut=    60.00 Ry     beta= 0.30
     Davidson diagonalization with overlap
     ethr =  5.17E-07,  avg # of iterations =  2.0

     negative rho (up, down):  1.713E-04 1.710E-04

     total cpu time spent up to now is      167.3 secs

     total energy              =    -410.08225297 Ry
     estimated scf accuracy    <       0.00016103 Ry

     total magnetization       =     0.00 Bohr mag/cell
     absolute magnetization    =     0.05 Bohr mag/cell

     iteration # 51     ecut=    60.00 Ry     beta= 0.30
     Davidson diagonalization with overlap
     ethr =  5.17E-07,  avg # of iterations =  1.0

     negative rho (up, down):  1.713E-04 1.723E-04

     total cpu time spent up to now is      170.3 secs

     total energy              =    -410.08227325 Ry
     estimated scf accuracy    <       0.00001502 Ry

     total magnetization       =     0.04 Bohr mag/cell
     absolute magnetization    =     0.08 Bohr mag/cell

     iteration # 52     ecut=    60.00 Ry     beta= 0.30
     Davidson diagonalization with overlap
     ethr =  6.83E-08,  avg # of iterations =  2.0

     negative rho (up, down):  1.715E-04 1.723E-04

     total cpu time spent up to now is      173.4 secs

     total energy              =    -410.08228507 Ry
     estimated scf accuracy    <       0.00000506 Ry

     total magnetization       =     0.08 Bohr mag/cell
     absolute magnetization    =     0.11 Bohr mag/cell

     iteration # 53     ecut=    60.00 Ry     beta= 0.30
     Davidson diagonalization with overlap
     ethr =  2.30E-08,  avg # of iterations =  4.0

     negative rho (up, down):  1.715E-04 1.725E-04

     total cpu time spent up to now is      176.7 secs

     total energy              =    -410.08227851 Ry
     estimated scf accuracy    <       0.00001255 Ry

     total magnetization       =     0.09 Bohr mag/cell
     absolute magnetization    =     0.12 Bohr mag/cell

     iteration # 54     ecut=    60.00 Ry     beta= 0.30
     Davidson diagonalization with overlap
     ethr =  2.30E-08,  avg # of iterations =  1.0

     negative rho (up, down):  1.719E-04 1.729E-04

     total cpu time spent up to now is      179.7 secs

     total energy              =    -410.08228176 Ry
     estimated scf accuracy    <       0.00000424 Ry

     total magnetization       =     0.07 Bohr mag/cell
     absolute magnetization    =     0.10 Bohr mag/cell

     iteration # 55     ecut=    60.00 Ry     beta= 0.30
     Davidson diagonalization with overlap
     ethr =  1.93E-08,  avg # of iterations =  1.0

     negative rho (up, down):  1.721E-04 1.729E-04

     total cpu time spent up to now is      182.7 secs

     total energy              =    -410.08227910 Ry
     estimated scf accuracy    <       0.00000546 Ry

     total magnetization       =     0.07 Bohr mag/cell
     absolute magnetization    =     0.11 Bohr mag/cell

     iteration # 56     ecut=    60.00 Ry     beta= 0.30
     Davidson diagonalization with overlap
     ethr =  1.93E-08,  avg # of iterations =  1.0

     negative rho (up, down):  1.722E-04 1.729E-04

     total cpu time spent up to now is      185.8 secs

     total energy              =    -410.08227789 Ry
     estimated scf accuracy    <       0.00000506 Ry

     total magnetization       =     0.07 Bohr mag/cell
     absolute magnetization    =     0.10 Bohr mag/cell

     iteration # 57     ecut=    60.00 Ry     beta= 0.30
     Davidson diagonalization with overlap
     ethr =  1.93E-08,  avg # of iterations =  1.0

     negative rho (up, down):  1.723E-04 1.724E-04

     total cpu time spent up to now is      188.9 secs

     total energy              =    -410.08227621 Ry
     estimated scf accuracy    <       0.00000917 Ry

     total magnetization       =     0.06 Bohr mag/cell
     absolute magnetization    =     0.10 Bohr mag/cell

     iteration # 58     ecut=    60.00 Ry     beta= 0.30
     Davidson diagonalization with overlap
     ethr =  1.93E-08,  avg # of iterations =  1.0

     negative rho (up, down):  1.724E-04 1.728E-04

     total cpu time spent up to now is      191.9 secs

     total energy              =    -410.08228049 Ry
     estimated scf accuracy    <       0.00000676 Ry

     total magnetization       =     0.06 Bohr mag/cell
     absolute magnetization    =     0.10 Bohr mag/cell

     iteration # 59     ecut=    60.00 Ry     beta= 0.30
     Davidson diagonalization with overlap
     ethr =  1.93E-08,  avg # of iterations =  1.0

     negative rho (up, down):  1.724E-04 1.730E-04

     total cpu time spent up to now is      194.9 secs

     total energy              =    -410.08228530 Ry
     estimated scf accuracy    <       0.00000961 Ry

     total magnetization       =     0.07 Bohr mag/cell
     absolute magnetization    =     0.11 Bohr mag/cell

     iteration # 60     ecut=    60.00 Ry     beta= 0.30
     Davidson diagonalization with overlap
     ethr =  1.93E-08,  avg # of iterations =  1.0

     negative rho (up, down):  1.733E-04 1.733E-04

     total cpu time spent up to now is      198.0 secs

     total energy              =    -410.08226113 Ry
     estimated scf accuracy    <       0.00001565 Ry

     total magnetization       =     0.08 Bohr mag/cell
     absolute magnetization    =     0.11 Bohr mag/cell

     iteration # 61     ecut=    60.00 Ry     beta= 0.30
     Davidson diagonalization with overlap
     ethr =  1.93E-08,  avg # of iterations =  2.0

     negative rho (up, down):  1.735E-04 1.741E-04

     total cpu time spent up to now is      201.2 secs

     total energy              =    -410.08226509 Ry
     estimated scf accuracy    <       0.00001243 Ry

     total magnetization       =     0.06 Bohr mag/cell
     absolute magnetization    =     0.09 Bohr mag/cell

     iteration # 62     ecut=    60.00 Ry     beta= 0.30
     Davidson diagonalization with overlap
     ethr =  1.93E-08,  avg # of iterations =  2.0

     negative rho (up, down):  1.734E-04 1.743E-04

     total cpu time spent up to now is      204.3 secs

     total energy              =    -410.08226785 Ry
     estimated scf accuracy    <       0.00001033 Ry

     total magnetization       =     0.05 Bohr mag/cell
     absolute magnetization    =     0.08 Bohr mag/cell

     iteration # 63     ecut=    60.00 Ry     beta= 0.30
     Davidson diagonalization with overlap
     ethr =  1.93E-08,  avg # of iterations =  1.0

     negative rho (up, down):  1.730E-04 1.740E-04

     total cpu time spent up to now is      207.4 secs

     total energy              =    -410.08226813 Ry
     estimated scf accuracy    <       0.00001313 Ry

     total magnetization       =     0.06 Bohr mag/cell
     absolute magnetization    =     0.08 Bohr mag/cell

     iteration # 64     ecut=    60.00 Ry     beta= 0.30
     Davidson diagonalization with overlap
     ethr =  1.93E-08,  avg # of iterations =  1.0

     negative rho (up, down):  1.727E-04 1.744E-04

     total cpu time spent up to now is      210.4 secs

     total energy              =    -410.08226862 Ry
     estimated scf accuracy    <       0.00001316 Ry

     total magnetization       =     0.06 Bohr mag/cell
     absolute magnetization    =     0.08 Bohr mag/cell

     iteration # 65     ecut=    60.00 Ry     beta= 0.30
     Davidson diagonalization with overlap
     ethr =  1.93E-08,  avg # of iterations =  2.0

     negative rho (up, down):  1.724E-04 1.746E-04

     total cpu time spent up to now is      213.5 secs

     total energy              =    -410.08227188 Ry
     estimated scf accuracy    <       0.00001442 Ry

     total magnetization       =     0.07 Bohr mag/cell
     absolute magnetization    =     0.09 Bohr mag/cell

     iteration # 66     ecut=    60.00 Ry     beta= 0.30
     Davidson diagonalization with overlap
     ethr =  1.93E-08,  avg # of iterations =  1.0

     negative rho (up, down):  1.733E-04 1.745E-04

     total cpu time spent up to now is      216.5 secs

     total energy              =    -410.08226056 Ry
     estimated scf accuracy    <       0.00001476 Ry

     total magnetization       =     0.07 Bohr mag/cell
     absolute magnetization    =     0.09 Bohr mag/cell

     iteration # 67     ecut=    60.00 Ry     beta= 0.30
     Davidson diagonalization with overlap
     ethr =  1.93E-08,  avg # of iterations =  2.0

     negative rho (up, down):  1.744E-04 1.747E-04

     total cpu time spent up to now is      219.6 secs

     total energy              =    -410.08225876 Ry
     estimated scf accuracy    <       0.00000814 Ry

     total magnetization       =     0.04 Bohr mag/cell
     absolute magnetization    =     0.07 Bohr mag/cell

     iteration # 68     ecut=    60.00 Ry     beta= 0.30
     Davidson diagonalization with overlap
     ethr =  1.93E-08,  avg # of iterations =  2.0

     negative rho (up, down):  1.751E-04 1.751E-04

     total cpu time spent up to now is      222.7 secs

     total energy              =    -410.08225672 Ry
     estimated scf accuracy    <       0.00000535 Ry

     total magnetization       =     0.02 Bohr mag/cell
     absolute magnetization    =     0.06 Bohr mag/cell

     iteration # 69     ecut=    60.00 Ry     beta= 0.30
     Davidson diagonalization with overlap
     ethr =  1.93E-08,  avg # of iterations =  2.0

     negative rho (up, down):  1.751E-04 1.756E-04

     total cpu time spent up to now is      225.8 secs

     total energy              =    -410.08225821 Ry
     estimated scf accuracy    <       0.00000925 Ry

     total magnetization       =     0.01 Bohr mag/cell
     absolute magnetization    =     0.05 Bohr mag/cell

     iteration # 70     ecut=    60.00 Ry     beta= 0.30
     Davidson diagonalization with overlap
     ethr =  1.93E-08,  avg # of iterations =  2.0

     negative rho (up, down):  1.750E-04 1.756E-04

     total cpu time spent up to now is      228.9 secs

     total energy              =    -410.08226085 Ry
     estimated scf accuracy    <       0.00000308 Ry

     total magnetization       =     0.03 Bohr mag/cell
     absolute magnetization    =     0.06 Bohr mag/cell

     iteration # 71     ecut=    60.00 Ry     beta= 0.30
     Davidson diagonalization with overlap
     ethr =  1.40E-08,  avg # of iterations =  1.0

     negative rho (up, down):  1.745E-04 1.752E-04

     total cpu time spent up to now is      231.9 secs

     total energy              =    -410.08226083 Ry
     estimated scf accuracy    <       0.00000310 Ry

     total magnetization       =     0.03 Bohr mag/cell
     absolute magnetization    =     0.06 Bohr mag/cell

     iteration # 72     ecut=    60.00 Ry     beta= 0.30
     Davidson diagonalization with overlap
     ethr =  1.40E-08,  avg # of iterations =  1.0

     negative rho (up, down):  1.743E-04 1.752E-04

     total cpu time spent up to now is      234.9 secs

     total energy              =    -410.08226256 Ry
     estimated scf accuracy    <       0.00000207 Ry

     total magnetization       =     0.03 Bohr mag/cell
     absolute magnetization    =     0.06 Bohr mag/cell

     iteration # 73     ecut=    60.00 Ry     beta= 0.30
     Davidson diagonalization with overlap
     ethr =  9.42E-09,  avg # of iterations =  1.0

     negative rho (up, down):  1.744E-04 1.752E-04

     total cpu time spent up to now is      238.0 secs

     total energy              =    -410.08226227 Ry
     estimated scf accuracy    <       0.00000214 Ry

     total magnetization       =     0.04 Bohr mag/cell
     absolute magnetization    =     0.06 Bohr mag/cell

     iteration # 74     ecut=    60.00 Ry     beta= 0.30
     Davidson diagonalization with overlap
     ethr =  9.42E-09,  avg # of iterations =  1.0

     negative rho (up, down):  1.747E-04 1.752E-04

     total cpu time spent up to now is      241.0 secs

     total energy              =    -410.08226173 Ry
     estimated scf accuracy    <       0.00000185 Ry

     total magnetization       =     0.03 Bohr mag/cell
     absolute magnetization    =     0.06 Bohr mag/cell

     iteration # 75     ecut=    60.00 Ry     beta= 0.30
     Davidson diagonalization with overlap
     ethr =  8.41E-09,  avg # of iterations =  1.0

     negative rho (up, down):  1.746E-04 1.754E-04

     total cpu time spent up to now is      244.0 secs

     total energy              =    -410.08226232 Ry
     estimated scf accuracy    <       0.00000190 Ry

     total magnetization       =     0.03 Bohr mag/cell
     absolute magnetization    =     0.06 Bohr mag/cell

     iteration # 76     ecut=    60.00 Ry     beta= 0.30
     Davidson diagonalization with overlap
     ethr =  8.41E-09,  avg # of iterations =  1.0

     negative rho (up, down):  1.746E-04 1.753E-04

     total cpu time spent up to now is      247.1 secs

     total energy              =    -410.08226261 Ry
     estimated scf accuracy    <       0.00000211 Ry

     total magnetization       =     0.03 Bohr mag/cell
     absolute magnetization    =     0.06 Bohr mag/cell

     iteration # 77     ecut=    60.00 Ry     beta= 0.30
     Davidson diagonalization with overlap
     ethr =  8.41E-09,  avg # of iterations =  1.0

     negative rho (up, down):  1.747E-04 1.754E-04

     total cpu time spent up to now is      250.1 secs

     total energy              =    -410.08226223 Ry
     estimated scf accuracy    <       0.00000218 Ry

     total magnetization       =     0.03 Bohr mag/cell
     absolute magnetization    =     0.06 Bohr mag/cell

     iteration # 78     ecut=    60.00 Ry     beta= 0.30
     Davidson diagonalization with overlap
     ethr =  8.41E-09,  avg # of iterations =  1.0

     negative rho (up, down):  1.744E-04 1.755E-04

     total cpu time spent up to now is      253.1 secs

     total energy              =    -410.08226349 Ry
     estimated scf accuracy    <       0.00000218 Ry

     total magnetization       =     0.03 Bohr mag/cell
     absolute magnetization    =     0.06 Bohr mag/cell

     iteration # 79     ecut=    60.00 Ry     beta= 0.30
     Davidson diagonalization with overlap
     ethr =  8.41E-09,  avg # of iterations =  1.0

     negative rho (up, down):  1.748E-04 1.754E-04

     total cpu time spent up to now is      256.2 secs

     total energy              =    -410.08226219 Ry
     estimated scf accuracy    <       0.00000220 Ry

     total magnetization       =     0.04 Bohr mag/cell
     absolute magnetization    =     0.07 Bohr mag/cell

     iteration # 80     ecut=    60.00 Ry     beta= 0.30
     Davidson diagonalization with overlap
     ethr =  8.41E-09,  avg # of iterations =  2.0

     negative rho (up, down):  1.752E-04 1.744E-04

     total cpu time spent up to now is      259.3 secs

     total energy              =    -410.08225886 Ry
     estimated scf accuracy    <       0.00000309 Ry

     total magnetization       =     0.03 Bohr mag/cell
     absolute magnetization    =     0.06 Bohr mag/cell

     iteration # 81     ecut=    60.00 Ry     beta= 0.30
     Davidson diagonalization with overlap
     ethr =  8.41E-09,  avg # of iterations =  2.0

     negative rho (up, down):  1.752E-04 1.740E-04

     total cpu time spent up to now is      262.5 secs

     total energy              =    -410.08226110 Ry
     estimated scf accuracy    <       0.00000253 Ry

     total magnetization       =     0.01 Bohr mag/cell
     absolute magnetization    =     0.06 Bohr mag/cell

     iteration # 82     ecut=    60.00 Ry     beta= 0.30
     Davidson diagonalization with overlap
     ethr =  8.41E-09,  avg # of iterations =  1.0

     negative rho (up, down):  1.750E-04 1.745E-04

     total cpu time spent up to now is      265.5 secs

     total energy              =    -410.08225927 Ry
     estimated scf accuracy    <       0.00000268 Ry

     total magnetization       =     0.01 Bohr mag/cell
     absolute magnetization    =     0.06 Bohr mag/cell

     iteration # 83     ecut=    60.00 Ry     beta= 0.30
     Davidson diagonalization with overlap
     ethr =  8.41E-09,  avg # of iterations =  2.0

     negative rho (up, down):  1.752E-04 1.743E-04

     total cpu time spent up to now is      268.7 secs

     total energy              =    -410.08226132 Ry
     estimated scf accuracy    <       0.00000126 Ry

     total magnetization       =     0.03 Bohr mag/cell
     absolute magnetization    =     0.06 Bohr mag/cell

     iteration # 84     ecut=    60.00 Ry     beta= 0.30
     Davidson diagonalization with overlap
     ethr =  5.72E-09,  avg # of iterations =  1.0

     negative rho (up, down):  1.748E-04 1.741E-04

     total cpu time spent up to now is      271.7 secs

     total energy              =    -410.08226190 Ry
     estimated scf accuracy    <       0.00000121 Ry

     total magnetization       =     0.03 Bohr mag/cell
     absolute magnetization    =     0.06 Bohr mag/cell

     iteration # 85     ecut=    60.00 Ry     beta= 0.30
     Davidson diagonalization with overlap
     ethr =  5.48E-09,  avg # of iterations =  1.0

     negative rho (up, down):  1.747E-04 1.742E-04

     total cpu time spent up to now is      274.8 secs

     total energy              =    -410.08226223 Ry
     estimated scf accuracy    <       0.00000111 Ry

     total magnetization       =     0.03 Bohr mag/cell
     absolute magnetization    =     0.06 Bohr mag/cell

     iteration # 86     ecut=    60.00 Ry     beta= 0.30
     Davidson diagonalization with overlap
     ethr =  5.04E-09,  avg # of iterations =  1.0

     negative rho (up, down):  1.749E-04 1.741E-04

     total cpu time spent up to now is      277.8 secs

     total energy              =    -410.08226041 Ry
     estimated scf accuracy    <       0.00000122 Ry

     total magnetization       =     0.03 Bohr mag/cell
     absolute magnetization    =     0.06 Bohr mag/cell

     iteration # 87     ecut=    60.00 Ry     beta= 0.30
     Davidson diagonalization with overlap
     ethr =  5.04E-09,  avg # of iterations =  1.0

     negative rho (up, down):  1.761E-04 1.746E-04

     total cpu time spent up to now is      280.9 secs

     total energy              =    -410.08225336 Ry
     estimated scf accuracy    <       0.00000122 Ry

     total magnetization       =     0.02 Bohr mag/cell
     absolute magnetization    =     0.06 Bohr mag/cell

     iteration # 88     ecut=    60.00 Ry     beta= 0.30
     Davidson diagonalization with overlap
     ethr =  5.04E-09,  avg # of iterations =  3.0

     negative rho (up, down):  1.770E-04 1.744E-04

     total cpu time spent up to now is      284.0 secs

     total energy              =    -410.08225355 Ry
     estimated scf accuracy    <       0.00000045 Ry

     total magnetization       =     0.01 Bohr mag/cell
     absolute magnetization    =     0.04 Bohr mag/cell

     iteration # 89     ecut=    60.00 Ry     beta= 0.30
     Davidson diagonalization with overlap
     ethr =  2.06E-09,  avg # of iterations =  4.0

     negative rho (up, down):  1.768E-04 1.742E-04

     total cpu time spent up to now is      287.5 secs

     total energy              =    -410.08225711 Ry
     estimated scf accuracy    <       0.00000044 Ry

     total magnetization       =    -0.01 Bohr mag/cell
     absolute magnetization    =     0.04 Bohr mag/cell

     iteration # 90     ecut=    60.00 Ry     beta= 0.30
     Davidson diagonalization with overlap
     ethr =  1.98E-09,  avg # of iterations =  2.0

     negative rho (up, down):  1.766E-04 1.745E-04

     total cpu time spent up to now is      290.5 secs

     total energy              =    -410.08225614 Ry
     estimated scf accuracy    <       0.00000075 Ry

     total magnetization       =    -0.02 Bohr mag/cell
     absolute magnetization    =     0.04 Bohr mag/cell

     iteration # 91     ecut=    60.00 Ry     beta= 0.30
     Davidson diagonalization with overlap
     ethr =  1.98E-09,  avg # of iterations =  2.0

     negative rho (up, down):  1.765E-04 1.745E-04

     total cpu time spent up to now is      293.7 secs

     total energy              =    -410.08225663 Ry
     estimated scf accuracy    <       0.00000067 Ry

     total magnetization       =    -0.01 Bohr mag/cell
     absolute magnetization    =     0.04 Bohr mag/cell

     iteration # 92     ecut=    60.00 Ry     beta= 0.30
     Davidson diagonalization with overlap
     ethr =  1.98E-09,  avg # of iterations =  1.0

     negative rho (up, down):  1.764E-04 1.746E-04

     total cpu time spent up to now is      296.8 secs

     total energy              =    -410.08225625 Ry
     estimated scf accuracy    <       0.00000098 Ry

     total magnetization       =    -0.01 Bohr mag/cell
     absolute magnetization    =     0.04 Bohr mag/cell

     iteration # 93     ecut=    60.00 Ry     beta= 0.30
     Davidson diagonalization with overlap
     ethr =  1.98E-09,  avg # of iterations =  1.0

     negative rho (up, down):  1.764E-04 1.746E-04

     total cpu time spent up to now is      299.8 secs

     total energy              =    -410.08225646 Ry
     estimated scf accuracy    <       0.00000052 Ry

     total magnetization       =    -0.01 Bohr mag/cell
     absolute magnetization    =     0.04 Bohr mag/cell

     iteration # 94     ecut=    60.00 Ry     beta= 0.30
     Davidson diagonalization with overlap
     ethr =  1.98E-09,  avg # of iterations =  1.0

     negative rho (up, down):  1.762E-04 1.747E-04

     total cpu time spent up to now is      302.9 secs

     total energy              =    -410.08225620 Ry
     estimated scf accuracy    <       0.00000054 Ry

     total magnetization       =    -0.01 Bohr mag/cell
     absolute magnetization    =     0.04 Bohr mag/cell

     iteration # 95     ecut=    60.00 Ry     beta= 0.30
     Davidson diagonalization with overlap
     ethr =  1.98E-09,  avg # of iterations =  1.5

     negative rho (up, down):  1.763E-04 1.748E-04

     total cpu time spent up to now is      305.9 secs

     total energy              =    -410.08225633 Ry
     estimated scf accuracy    <       0.00000086 Ry

     total magnetization       =    -0.00 Bohr mag/cell
     absolute magnetization    =     0.04 Bohr mag/cell

     iteration # 96     ecut=    60.00 Ry     beta= 0.30
     Davidson diagonalization with overlap
     ethr =  1.98E-09,  avg # of iterations =  2.0

     negative rho (up, down):  1.765E-04 1.747E-04

     total cpu time spent up to now is      308.9 secs

     total energy              =    -410.08225629 Ry
     estimated scf accuracy    <       0.00000109 Ry

     total magnetization       =    -0.00 Bohr mag/cell
     absolute magnetization    =     0.04 Bohr mag/cell

     iteration # 97     ecut=    60.00 Ry     beta= 0.30
     Davidson diagonalization with overlap
     ethr =  1.98E-09,  avg # of iterations =  2.0

     negative rho (up, down):  1.767E-04 1.746E-04

     total cpu time spent up to now is      312.0 secs

     total energy              =    -410.08225619 Ry
     estimated scf accuracy    <       0.00000088 Ry

     total magnetization       =    -0.01 Bohr mag/cell
     absolute magnetization    =     0.04 Bohr mag/cell

     iteration # 98     ecut=    60.00 Ry     beta= 0.30
     Davidson diagonalization with overlap
     ethr =  1.98E-09,  avg # of iterations =  2.0

     negative rho (up, down):  1.767E-04 1.745E-04

     total cpu time spent up to now is      315.3 secs

     total energy              =    -410.08225680 Ry
     estimated scf accuracy    <       0.00000045 Ry

     total magnetization       =    -0.01 Bohr mag/cell
     absolute magnetization    =     0.04 Bohr mag/cell

     iteration # 99     ecut=    60.00 Ry     beta= 0.30
     Davidson diagonalization with overlap
     ethr =  1.98E-09,  avg # of iterations =  1.0

     negative rho (up, down):  1.767E-04 1.744E-04

     total cpu time spent up to now is      318.4 secs

     total energy              =    -410.08225705 Ry
     estimated scf accuracy    <       0.00000047 Ry

     total magnetization       =    -0.01 Bohr mag/cell
     absolute magnetization    =     0.04 Bohr mag/cell

     iteration #100     ecut=    60.00 Ry     beta= 0.30
     Davidson diagonalization with overlap
     ethr =  1.98E-09,  avg # of iterations =  1.0

     negative rho (up, down):  1.767E-04 1.746E-04

     total cpu time spent up to now is      321.4 secs

     total energy              =    -410.08225668 Ry
     estimated scf accuracy    <       0.00000056 Ry

     total magnetization       =    -0.02 Bohr mag/cell
     absolute magnetization    =     0.04 Bohr mag/cell

     End of self-consistent calculation

     convergence NOT achieved after 100 iterations: stopping

     Writing config to output data dir ./outdir/mg2ni_unit.save/ :
     XML data file, charge density
 
     init_run     :    161.87s CPU     10.93s WALL (       1 calls)
     electrons    :    440.25s CPU    310.50s WALL (       1 calls)

     Called by init_run:
     wfcinit      :      0.11s CPU      0.14s WALL (       1 calls)
     potinit      :    158.61s CPU      7.52s WALL (       1 calls)
     hinit0       :      0.75s CPU      0.75s WALL (       1 calls)

     Called by electrons:
     c_bands      :     37.42s CPU     36.40s WALL (     100 calls)
     sum_band     :     29.75s CPU     28.87s WALL (     100 calls)
     v_of_rho     :     11.67s CPU     11.11s WALL (     101 calls)
     newd         :    203.09s CPU    199.10s WALL (     101 calls)
     PAW_pot      :     23.72s CPU      1.68s WALL (     101 calls)
     mix_rho      :     16.69s CPU     14.85s WALL (     100 calls)
     energy_dftd3 :      0.00s CPU      0.00s WALL (       1 calls)

     Called by c_bands:
     init_us_2    :      0.13s CPU      0.13s WALL (     402 calls)
     regterg      :     36.51s CPU     35.61s WALL (     200 calls)

     Called by *egterg:
     rdiaghg      :      0.35s CPU      0.37s WALL (     549 calls)
                                        0.36s GPU  (     549 calls)
     h_psi        :     19.20s CPU     18.70s WALL (     551 calls)
     s_psi        :      0.03s CPU      0.03s WALL (     551 calls)
     g_psi        :      0.02s CPU      0.02s WALL (     349 calls)

     Called by h_psi:
     h_psi:calbec :      0.02s CPU      0.02s WALL (     551 calls)
     vloc_psi     :      3.06s CPU      2.86s WALL (     551 calls)
                                        2.85s GPU  (     551 calls)
     add_vuspsi   :     15.96s CPU     15.67s WALL (     551 calls)

     General routines
     calbec       :      0.02s CPU      0.02s WALL (     751 calls)
     fft          :    201.01s CPU     12.35s WALL (    1818 calls)
                                        2.23s GPU  (    1616 calls)
     ffts         :     58.70s CPU      2.50s WALL (     302 calls)
                                        0.04s GPU  (     100 calls)
     fftw         :      0.03s CPU      2.97s WALL (    2702 calls)
                                        2.95s GPU  (    2702 calls)
     interpolate  :    266.37s CPU     15.95s WALL (     202 calls)
     davcio       :      0.00s CPU      0.05s WALL (      20 calls)
 
 
     PWSCF        :  10m 2.32s CPU   5m21.76s WALL

 
   This run was terminated on:   1:38:14  14Jun2026            

=------------------------------------------------------------------------------=
   JOB DONE.
=------------------------------------------------------------------------------=
