
     Program PWSCF v.7.5 starts on 15Jun2026 at 20:36:17 

     This program is part of the open-source Quantum ESPRESSO suite
     for quantum simulation of materials; please cite
         "P. Giannozzi et al., J. Phys.:Condens. Matter 21 395502 (2009);
         "P. Giannozzi et al., J. Phys.:Condens. Matter 29 465901 (2017);
         "P. Giannozzi et al., J. Chem. Phys. 152 154105 (2020);
          URL http://www.quantum-espresso.org", 
     in publications or presentations arising from this work. More details at
     http://www.quantum-espresso.org/quote

     Serial multi-threaded version, running on   32 processor cores
     14120 MiB available memory on the printing compute node when the environment starts
 
     Reading input from inputs/nscf_hetero_r0.in

     Current dimensions of program PWSCF are:
     Max number of different atomic species (ntypx) = 10
     Max number of k-points (npk) =  40000
     Max angular momentum in pseudopotentials (lmaxx) =  4
     Message from routine input:
     WARNING: "startingwfc" set to atomic+random may spoil restart
     file Mg.pbe-n-kjpaw_psl.0.3.0.UPF: wavefunction(s)  3S renormalized
     file C.pbe-n-kjpaw_psl.1.0.0.UPF: wavefunction(s)  2S 2P renormalized
 
 
     G-vector sticks info
     --------------------
     sticks:   dense  smooth     PW     G-vecs:    dense   smooth      PW
     Sum        3877    1555    451              1503857   380257   60421
 
     Using Slab Decomposition
 


     bravais-lattice index     =            0
     lattice parameter (alat)  =       9.6906  a.u.
     unit-cell volume          =    6059.7568 (a.u.)^3
     number of atoms/cell      =           33
     number of atomic types    =            4
     number of electrons       =       264.00
     number of Kohn-Sham states=          158
     kinetic-energy cutoff     =      60.0000  Ry
     charge density cutoff     =     600.0000  Ry
     Exchange-correlation= SLA  PW   PBX  PBC
                           (   1   4   3   4   0   0   0)

     GPU acceleration is ACTIVE.  1 visible GPUs per MPI rank


     celldm(1)=   9.690567  celldm(2)=   0.000000  celldm(3)=   0.000000
     celldm(4)=   0.000000  celldm(5)=   0.000000  celldm(6)=   0.000000

     crystal axes: (cart. coord. in units of alat)
               a(1) = (   1.000000   0.000000   0.000000 )  
               a(2) = (  -0.500000   0.866025   0.000000 )  
               a(3) = (   0.000000   0.000000   7.689130 )  

     reciprocal axes: (cart. coord. in units 2 pi/alat)
               b(1) = (  1.000000  0.577351 -0.000000 )  
               b(2) = (  0.000000  1.154701  0.000000 )  
               b(3) = (  0.000000 -0.000000  0.130054 )  


     PseudoPot. # 1 for Mg read from file:
     /home/x/Workspace/3-hEspesso/pseudo/Mg.pbe-n-kjpaw_psl.0.3.0.UPF
     MD5 check sum: 24ecedc7f3e3cbe212e682f4413594e4
     Pseudo is Projector augmented-wave + core cor, Zval =  2.0
     Generated using "atomic" code by A. Dal Corso  v.5.0.99 svn rev. 10869
     Shape of augmentation charge: PSQ
     Using radial grid of 1129 points,  4 beta functions with: 
                l(1) =   0
                l(2) =   0
                l(3) =   1
                l(4) =   1
     Q(r) pseudized with 0 coefficients 


     PseudoPot. # 2 for Ni read from file:
     /home/x/Workspace/3-hEspesso/pseudo/ni_pbe_v1.4.uspp.F.UPF
     MD5 check sum: 1ee80287db30b12d2bc1f57a5b5d6409
     Pseudo is Ultrasoft + core correction, Zval = 18.0
     Generated by new atomic code, or converted to UPF format
     Using radial grid of  865 points,  6 beta functions with: 
                l(1) =   0
                l(2) =   0
                l(3) =   1
                l(4) =   1
                l(5) =   2
                l(6) =   2
     Q(r) pseudized with 10 coefficients,  rinner =    0.980   0.980   0.980
                                                       0.980   0.980

     PseudoPot. # 3 for Ti read from file:
     /home/x/Workspace/3-hEspesso/pseudo/ti_pbe_v1.4.uspp.F.UPF
     MD5 check sum: 88a00a6731bd790ddea75d31a80cb452
     Pseudo is Ultrasoft + core correction, Zval = 12.0
     Generated by new atomic code, or converted to UPF format
     Using radial grid of  851 points,  6 beta functions with: 
                l(1) =   0
                l(2) =   0
                l(3) =   1
                l(4) =   1
                l(5) =   2
                l(6) =   2
     Q(r) pseudized with  6 coefficients,  rinner =    1.000   1.000   1.000
                                                       1.000   1.000

     PseudoPot. # 4 for C  read from file:
     /home/x/Workspace/3-hEspesso/pseudo/C.pbe-n-kjpaw_psl.1.0.0.UPF
     MD5 check sum: 5d2aebdfa2cae82b50a7e79e9516da0f
     Pseudo is Projector augmented-wave + core cor, Zval =  4.0
     Generated using "atomic" code by A. Dal Corso  v.5.1
     Shape of augmentation charge: PSQ
     Using radial grid of 1073 points,  4 beta functions with: 
                l(1) =   0
                l(2) =   0
                l(3) =   1
                l(4) =   1
     Q(r) pseudized with 0 coefficients 


     atomic species   valence    mass     pseudopotential
     Mg                2.00    24.30500     Mg( 1.00)
     Ni               18.00    58.69340     Ni( 1.00)
     Ti               12.00    47.86700     Ti( 1.00)
     C                 4.00    12.01100     C ( 1.00)

     Starting magnetic structure 
     atomic species   magnetization
     Mg              0.000
     Ni              0.300
     Ti              0.400
     C               0.000

     No symmetry found



   Cartesian axes

     site n.     atom                  positions (alat units)
         1        Mg     tau(   1) = (  -0.3737585   0.5662072   2.5757495  )
         2        Mg     tau(   2) = (   0.0284856   0.2606600   1.6691217  )
         3        Mg     tau(   3) = (   0.6153537  -0.0158933   2.4961246  )
         4        Mg     tau(   4) = (   0.5453077   0.5680043   1.6530652  )
         5        Mg     tau(   5) = (   0.2523399   0.7230388   0.8124737  )
         6        Mg     tau(   6) = (   0.2476600   0.1429866   0.8124737  )
         7        Mg     tau(   7) = (   0.3264747   0.4033034   2.1357184  )
         8        Mg     tau(   8) = (   0.5544382  -0.0386005   1.9309762  )
         9        Mg     tau(   9) = (   0.0939913   0.2600535   2.5855509  )
        10        Mg     tau(  10) = (   0.5000000   0.0000000   1.3661271  )
        11        Mg     tau(  11) = (  -0.2500000   0.4330127   1.1037408  )
        12        Mg     tau(  12) = (  -0.2500000   0.4330127   0.5212067  )
        13        Ni     tau(  13) = (   0.2500000   0.4330127   1.2349339  )
        14        Ni     tau(  14) = (   0.5000000   0.0000000   0.3900135  )
        15        Ni     tau(  15) = (  -0.1786482   0.3977637   2.1255781  )
        16        Ni     tau(  16) = (   0.0000000   0.0000000   1.2349339  )
        17        Ni     tau(  17) = (   0.0000000   0.0000000   0.3900135  )
        18        Ni     tau(  18) = (   0.0644393  -0.0273812   2.1309894  )
        19        Ti     tau(  19) = (  -0.0081880   0.0527881   3.5356548  )
        20        Ti     tau(  20) = (   0.1581244   0.3409049   4.0036287  )
        21        Ti     tau(  21) = (  -0.1770211   0.9159791   3.0667727  )
        22        C      tau(  22) = (  -0.1757579   0.9178249   3.7924004  )
        23        C      tau(  23) = (   0.1580777   0.3411127   3.2817258  )
        24        Ti     tau(  24) = (  -0.0095107   0.6289710   3.5352234  )
        25        Ti     tau(  25) = (   0.6574455   0.0510194   4.0026637  )
        26        Ti     tau(  26) = (   0.3225744   0.6298915   3.0644906  )
        27        C      tau(  27) = (   0.3244775   0.6293370   3.7915485  )
        28        C      tau(  28) = (   0.6563373   0.0506142   3.2824100  )
        29        Ti     tau(  29) = (   0.4909250   0.3406410   3.5352218  )
        30        Ti     tau(  30) = (   0.6572689   0.6285685   4.0031080  )
        31        Ti     tau(  31) = (  -0.1779941   0.3389559   3.0738596  )
        32        C      tau(  32) = (  -0.1755100   0.3401746   3.7925996  )
        33        C      tau(  33) = (   0.6563968   0.6293882   3.2830886  )

     --------------------------------------------
     DFT-D3 Dispersion Correction (3-body terms):
     --------------------------------------------
       Reference C6 values for interpolation: 

         atom   Coordination number   C6
         C          0.000            98.23
         C          0.987            86.49
         C          1.998            58.72
         C          2.999            51.56
         C          3.984            36.41
         Mg         0.000          1366.75
         Mg         0.963           902.54
         Mg         1.950           351.12
         Ti         0.000          2723.84
         Ti         1.830           604.00
         Ti         3.868           643.18
         Ni         0.000          1149.49
         Ni         1.794           356.66
         Ni         6.546           257.56
         Ni         6.292           283.75

       Values used:

         atom   Coordination number  R0_AB[au]  C6      C8
         Mg        10.406            3.292    351.12  31436.69
         Mg        10.849            3.292    351.12  31436.69
         Mg         9.991            3.292    351.12  31436.69
         Mg        10.782            3.292    351.12  31436.69
         Mg        10.158            3.292    351.12  31436.69
         Mg        10.160            3.292    351.12  31436.69
         Mg        11.087            3.292    351.12  31436.69
         Mg        10.605            3.292    351.12  31436.69
         Mg        10.188            3.292    351.12  31436.69
         Mg        10.820            3.292    351.12  31436.69
         Mg        10.778            3.292    351.12  31436.69
         Mg         7.618            3.292    351.12  31436.69
         Ni         8.393            3.162    258.00  21618.52
         Ni         4.856            3.162    282.64  23682.87
         Ni         8.367            3.162    258.02  21620.39
         Ni         8.490            3.162    257.92  21612.03
         Ni         4.870            3.162    282.60  23680.25
         Ni         8.509            3.162    257.91  21610.94
         Ti        16.193            3.557    643.18  76289.64
         Ti        10.685            3.557    643.18  76289.64
         Ti        12.707            3.557    643.18  76289.64
         C          6.033            2.750     36.41   1053.14
         C          6.061            2.750     36.41   1053.14
         Ti        16.195            3.557    643.18  76289.64
         Ti        10.692            3.557    643.18  76289.64
         Ti        12.623            3.557    643.18  76289.64
         C          6.033            2.750     36.41   1053.14
         C          6.052            2.750     36.41   1053.14
         Ti        16.191            3.557    643.18  76289.64
         Ti        10.690            3.557    643.18  76289.64
         Ti        12.769            3.557    643.18  76289.64
         C          6.033            2.750     36.41   1053.14
         C          6.062            2.750     36.41   1053.14

         Molecular C6 ( Ry / a.u.^6 ) =    340788.83


     number of k points=    20  Marzari-Vanderbilt smearing, width (Ry)=  0.0200
                       cart. coord. in units 2pi/alat
        k(    1) = (   0.0000000   0.0000000   0.0000000), wk =   0.0277778
        k(    2) = (   0.0000000   0.1924502   0.0000000), wk =   0.0555556
        k(    3) = (   0.0000000   0.3849004   0.0000000), wk =   0.0555556
        k(    4) = (   0.0000000  -0.5773505   0.0000000), wk =   0.0277778
        k(    5) = (   0.1666667   0.0962251   0.0000000), wk =   0.0555556
        k(    6) = (   0.1666667   0.2886753   0.0000000), wk =   0.0555556
        k(    7) = (   0.1666667   0.4811254   0.0000000), wk =   0.0555556
        k(    8) = (   0.1666667  -0.4811254   0.0000000), wk =   0.0555556
        k(    9) = (   0.1666667  -0.2886753   0.0000000), wk =   0.0555556
        k(   10) = (   0.1666667  -0.0962251   0.0000000), wk =   0.0555556
        k(   11) = (   0.3333333   0.1924502   0.0000000), wk =   0.0555556
        k(   12) = (   0.3333333   0.3849004   0.0000000), wk =   0.0555556
        k(   13) = (   0.3333333   0.5773505   0.0000000), wk =   0.0555556
        k(   14) = (   0.3333333  -0.3849004   0.0000000), wk =   0.0555556
        k(   15) = (   0.3333333  -0.1924502   0.0000000), wk =   0.0555556
        k(   16) = (   0.3333333   0.0000000   0.0000000), wk =   0.0555556
        k(   17) = (  -0.5000000  -0.2886753   0.0000000), wk =   0.0277778
        k(   18) = (  -0.5000000  -0.0962251   0.0000000), wk =   0.0555556
        k(   19) = (  -0.5000000   0.0962251   0.0000000), wk =   0.0555556
        k(   20) = (  -0.5000000  -0.8660258   0.0000000), wk =   0.0277778

     Dense  grid:  1503857 G-vectors     FFT dimensions: (  75,  75, 600)

     Smooth grid:   380257 G-vectors     FFT dimensions: (  48,  48, 375)

     Estimated max dynamical RAM per process >       5.60 GB

     Atomic positions and unit cell read from directory:
     ./outdir/hetero_r0.save/
     Atomic positions from file used, from input discarded
 

     Check: negative core charge=   -0.000001
     Generating pointlists ...
     new r_m :   0.2040 (alat units)  1.9766 (a.u.) for type    1
     new r_m :   0.2014 (alat units)  1.9512 (a.u.) for type    2
     new r_m :   0.1619 (alat units)  1.5685 (a.u.) for type    3
     new r_m :   0.1619 (alat units)  1.5685 (a.u.) for type    4

     The potential is recalculated from file :
     ./outdir/hetero_r0.save/charge-density


     negative rho (up, down):  1.451E+01 1.441E+01
     Starting wfcs are  240 randomized atomic wfcs

     Band Structure Calculation
     Calculation restarted from kpoint #     3
     Davidson diagonalization with overlap

     ethr =  5.29E-05,  avg # of iterations = 10.7

     total cpu time spent up to now is       74.4 secs

     End of band structure calculation

 ------ SPIN UP ------------


          k = 0.0000 0.0000 0.0000 ( 47433 PWs)   bands (ev):

     0.0000   0.0000   0.0000   0.0000   0.0000   0.0000   0.0000   0.0000
     0.0000   0.0000   0.0000   0.0000   0.0000   0.0000   0.0000   0.0000
     0.0000   0.0000   0.0000   0.0000   0.0000   0.0000   0.0000   0.0000
     0.0000   0.0000   0.0000   0.0000   0.0000   0.0000   0.0000   0.0000
     0.0000   0.0000   0.0000   0.0000   0.0000   0.0000   0.0000   0.0000
     0.0000   0.0000   0.0000   0.0000   0.0000   0.0000   0.0000   0.0000
     0.0000   0.0000   0.0000   0.0000   0.0000   0.0000   0.0000   0.0000
     0.0000   0.0000   0.0000   0.0000   0.0000   0.0000   0.0000   0.0000
     0.0000   0.0000   0.0000   0.0000   0.0000   0.0000   0.0000   0.0000
     0.0000   0.0000   0.0000   0.0000   0.0000   0.0000   0.0000   0.0000
     0.0000   0.0000   0.0000   0.0000   0.0000   0.0000   0.0000   0.0000
     0.0000   0.0000   0.0000   0.0000   0.0000   0.0000   0.0000   0.0000
     0.0000   0.0000   0.0000   0.0000   0.0000   0.0000   0.0000   0.0000
     0.0000   0.0000   0.0000   0.0000   0.0000   0.0000   0.0000   0.0000
     0.0000   0.0000   0.0000   0.0000   0.0000   0.0000   0.0000   0.0000
     0.0000   0.0000   0.0000   0.0000   0.0000   0.0000   0.0000   0.0000
     0.0000   0.0000   0.0000   0.0000   0.0000   0.0000   0.0000   0.0000
     0.0000   0.0000   0.0000   0.0000   0.0000   0.0000   0.0000   0.0000
     0.0000   0.0000   0.0000   0.0000   0.0000   0.0000   0.0000   0.0000
     0.0000   0.0000   0.0000   0.0000   0.0000   0.0000

          k = 0.0000 0.1925 0.0000 ( 47501 PWs)   bands (ev):

     0.0000   0.0000   0.0000   0.0000   0.0000   0.0000   0.0000   0.0000
     0.0000   0.0000   0.0000   0.0000   0.0000   0.0000   0.0000   0.0000
     0.0000   0.0000   0.0000   0.0000   0.0000   0.0000   0.0000   0.0000
     0.0000   0.0000   0.0000   0.0000   0.0000   0.0000   0.0000   0.0000
     0.0000   0.0000   0.0000   0.0000   0.0000   0.0000   0.0000   0.0000
     0.0000   0.0000   0.0000   0.0000   0.0000   0.0000   0.0000   0.0000
     0.0000   0.0000   0.0000   0.0000   0.0000   0.0000   0.0000   0.0000
     0.0000   0.0000   0.0000   0.0000   0.0000   0.0000   0.0000   0.0000
     0.0000   0.0000   0.0000   0.0000   0.0000   0.0000   0.0000   0.0000
     0.0000   0.0000   0.0000   0.0000   0.0000   0.0000   0.0000   0.0000
     0.0000   0.0000   0.0000   0.0000   0.0000   0.0000   0.0000   0.0000
     0.0000   0.0000   0.0000   0.0000   0.0000   0.0000   0.0000   0.0000
     0.0000   0.0000   0.0000   0.0000   0.0000   0.0000   0.0000   0.0000
     0.0000   0.0000   0.0000   0.0000   0.0000   0.0000   0.0000   0.0000
     0.0000   0.0000   0.0000   0.0000   0.0000   0.0000   0.0000   0.0000
     0.0000   0.0000   0.0000   0.0000   0.0000   0.0000   0.0000   0.0000
     0.0000   0.0000   0.0000   0.0000   0.0000   0.0000   0.0000   0.0000
     0.0000   0.0000   0.0000   0.0000   0.0000   0.0000   0.0000   0.0000
     0.0000   0.0000   0.0000   0.0000   0.0000   0.0000   0.0000   0.0000
     0.0000   0.0000   0.0000   0.0000   0.0000   0.0000

          k = 0.0000 0.3849 0.0000 ( 47521 PWs)   bands (ev):

  -177.7343-168.5321-138.2724-132.4414-128.2557-125.3601-124.8851-117.9464
  -109.9048 -99.4314 -98.8478 -98.8136 -91.2322 -86.4019 -82.4263 -70.8823
   -70.6763 -65.2698 -62.1486 -60.8097 -59.8065 -59.6662 -59.3975 -59.3074
   -59.2453 -59.2234 -59.2001 -59.1970 -57.4087 -56.2371 -56.0805 -56.0764
   -56.0494 -56.0263 -55.8881 -55.8588 -55.8503 -55.8076 -53.5939 -53.4691
   -49.0404 -44.2248 -39.8595 -33.3176 -33.1589 -33.0994 -32.8936 -32.8279
   -32.7411 -32.7026 -32.6555 -32.5749 -32.4911 -32.4149 -32.3304 -32.2903
   -32.1978 -32.1524 -32.0926 -32.0544 -31.9202 -30.3375 -30.2471 -30.1546
   -30.1430 -29.9820 -29.9173 -29.3629 -29.2694 -29.0801 -28.1735 -24.9692
   -24.7445 -22.1421 -20.2331 -18.7165 -17.9551  -9.2775  -9.0707  -8.0071
    -7.7234  -7.6280  -7.5420  -7.4752  -7.1035  -6.1502  -5.4850  -3.8411
    -3.7868  -3.2685  -2.7647  -2.7260  -2.6462  -2.0410  -1.9071  -1.8687
    -1.7451  -1.6325  -1.5119  -1.3352  -1.1437  -1.0925  -1.0554  -1.0005
    -0.7988  -0.6288  -0.5930  -0.5250  -0.3664  -0.3072  -0.2194  -0.1103
     0.0788   0.1655   0.3188   0.5435   0.6071   0.7477   0.8136   0.8850
     0.9809   1.1143   1.2581   1.3480   1.4279   1.5476   1.5897   1.6534
     1.7307   1.7999   1.8514   2.0749   2.1052   2.1640   2.2425   2.2580
     2.2993   2.5338   2.5660   2.5860   2.6102   2.6661   2.6711   2.7472
     2.9335   3.0307   3.1669   3.1996   3.2192   3.2496   3.4095   3.4819
     3.5633   3.6304   3.7321   3.9349   3.9922   4.0694

          k = 0.0000-0.5774 0.0000 ( 47568 PWs)   bands (ev):

  -177.7344-168.5321-138.2724-132.4415-128.2557-125.3601-124.8852-117.9465
  -109.9049 -99.4314 -98.8478 -98.8136 -91.2322 -86.4020 -82.4263 -70.8823
   -70.6763 -65.2698 -62.1486 -60.8096 -59.8065 -59.6664 -59.3975 -59.3074
   -59.2453 -59.2234 -59.2001 -59.1970 -57.4087 -56.2356 -56.0758 -56.0732
   -56.0550 -56.0290 -55.8819 -55.8616 -55.8530 -55.8096 -53.5939 -53.4691
   -49.0404 -44.2249 -39.8595 -33.3145 -33.1570 -33.1041 -32.8792 -32.8432
   -32.7468 -32.7004 -32.6513 -32.5737 -32.4770 -32.3804 -32.3468 -32.3192
   -32.1627 -32.1326 -32.1043 -32.0787 -31.9614 -30.3243 -30.2296 -30.1212
   -30.1043 -30.0434 -29.9457 -29.3506 -29.2090 -29.1492 -28.1726 -24.9692
   -24.7445 -22.1422 -20.2373 -18.7159 -17.9548  -9.3141  -8.4062  -8.3840
    -7.7493  -7.7372  -7.7203  -7.6031  -7.0973  -5.9672  -4.9849  -3.9717
    -3.6404  -3.0814  -3.0645  -2.9473  -2.2231  -2.0588  -1.9133  -1.7365
    -1.6279  -1.5387  -1.4934  -1.3598  -1.3137  -1.1865  -1.1174  -0.9959
    -0.9585  -0.9190  -0.8688  -0.4809  -0.3526  -0.1824  -0.0724  -0.0159
     0.0129   0.0758   0.1566   0.2754   0.3102   0.5083   0.6277   0.7532
     0.9118   0.9400   1.1313   1.2260   1.5273   1.5811   1.5962   1.7638
     1.7953   1.8270   1.8700   1.9292   2.0525   2.1216   2.1971   2.2532
     2.3437   2.4136   2.4583   2.5471   2.5680   2.5753   2.6870   2.7220
     2.8164   3.0480   3.1669   3.1845   3.2177   3.2798   3.3448   3.4674
     3.7047   3.8299   4.0257   4.0345   4.0580   4.1404

          k = 0.1667 0.0962 0.0000 ( 47501 PWs)   bands (ev):

  -177.7342-168.5320-138.2724-132.4415-128.2557-125.3601-124.8847-117.9463
  -109.9047 -99.4314 -98.8477 -98.8137 -91.2322 -86.4020 -82.4262 -70.8824
   -70.6763 -65.2698 -62.1485 -60.8096 -59.8065 -59.6661 -59.3923 -59.3127
   -59.2452 -59.2232 -59.2002 -59.1972 -57.4086 -56.2400 -56.0895 -56.0782
   -56.0426 -56.0215 -55.8974 -55.8549 -55.8461 -55.8038 -53.5939 -53.4691
   -49.0405 -44.2244 -39.8598 -33.3238 -33.1613 -33.0915 -32.9112 -32.8094
   -32.7283 -32.7074 -32.6638 -32.5812 -32.5220 -32.4164 -32.3587 -32.2434
   -32.1994 -32.1938 -32.0815 -32.0089 -31.8685 -30.3911 -30.3344 -30.1666
   -30.1620 -29.8995 -29.8605 -29.4513 -29.2774 -28.9924 -28.1760 -24.9693
   -24.7445 -22.1421 -20.2239 -18.7178 -17.9554  -9.5647  -9.1943  -8.2586
    -7.5657  -7.3833  -7.3146  -7.2656  -7.1050  -6.1381  -6.0023  -4.4083
    -4.3743  -3.1472  -2.5830  -2.5176  -2.2601  -2.1462  -1.9194  -1.7672
    -1.7524  -1.7134  -1.2985  -1.2703  -1.2404  -1.1144  -1.0789  -0.9365
    -0.8416  -0.8015  -0.7511  -0.7361  -0.5957  -0.0805  -0.0155   0.1460
     0.3167   0.3734   0.5188   0.7570   1.0370   1.1222   1.1749   1.2107
     1.2578   1.3954   1.4825   1.5007   1.5479   1.6717   1.7199   1.7643
     1.9222   2.0036   2.0857   2.1387   2.1515   2.2737   2.3591   2.4064
     2.4181   2.5123   2.5432   2.5996   2.6564   2.6803   2.8307   2.9340
     2.9938   3.0628   3.1064   3.1365   3.1863   3.2966   3.3727   3.4446
     3.4914   3.6577   3.7365   3.8053   3.9087   3.9465

          k = 0.1667 0.2887 0.0000 ( 47572 PWs)   bands (ev):

  -177.7343-168.5321-138.2724-132.4416-128.2557-125.3601-124.8850-117.9464
  -109.9049 -99.4314 -98.8477 -98.8137 -91.2322 -86.4020 -82.4263 -70.8823
   -70.6763 -65.2698 -62.1486 -60.8096 -59.8065 -59.6663 -59.3923 -59.3127
   -59.2452 -59.2232 -59.2002 -59.1972 -57.4087 -56.2378 -56.0831 -56.0769
   -56.0474 -56.0251 -55.8909 -55.8558 -55.8509 -55.8065 -53.5939 -53.4691
   -49.0405 -44.2247 -39.8597 -33.3193 -33.1596 -33.0971 -32.8995 -32.8227
   -32.7370 -32.7044 -32.6542 -32.5765 -32.4973 -32.3961 -32.3366 -32.3000
   -32.1732 -32.1609 -32.0735 -32.0658 -31.9258 -30.3665 -30.3081 -30.1662
   -30.1614 -29.9187 -29.8713 -29.4210 -29.2838 -29.0098 -28.1749 -24.9692
   -24.7445 -22.1421 -20.2266 -18.7168 -17.9549  -9.3118  -9.2552  -8.1043
    -7.7394  -7.5342  -7.4552  -7.3229  -7.2619  -5.9381  -5.6647  -4.0417
    -3.6679  -2.9017  -2.7836  -2.4628  -2.3926  -2.1765  -1.9946  -1.9154
    -1.8913  -1.8090  -1.3447  -1.2855  -1.1097  -1.0687  -1.0238  -1.0148
    -0.8638  -0.7806  -0.7607  -0.7449  -0.5632  -0.5098  -0.4871  -0.0048
     0.1149   0.4756   0.5388   0.5997   0.7443   0.8620   0.9448   1.0937
     1.1410   1.1846   1.2412   1.3565   1.4094   1.4962   1.5392   1.6198
     1.7350   1.8627   1.9671   2.0623   2.0989   2.1149   2.1788   2.2568
     2.4432   2.4696   2.5450   2.5664   2.6038   2.6783   2.8228   2.9082
     2.9376   2.9945   3.0443   3.2072   3.2769   3.3165   3.3623   3.3800
     3.5286   3.7111   3.7617   3.8980   3.9532   4.0736

          k = 0.1667 0.4811 0.0000 ( 47608 PWs)   bands (ev):

  -177.7344-168.5322-138.2724-132.4416-128.2557-125.3601-124.8853-117.9465
  -109.9050 -99.4314 -98.8477 -98.8137 -91.2322 -86.4020 -82.4263 -70.8823
   -70.6763 -65.2698 -62.1486 -60.8098 -59.8065 -59.6664 -59.3923 -59.3127
   -59.2452 -59.2232 -59.2002 -59.1972 -57.4087 -56.2356 -56.0758 -56.0732
   -56.0548 -56.0292 -55.8826 -55.8599 -55.8537 -55.8099 -53.5939 -53.4691
   -49.0405 -44.2249 -39.8597 -33.3147 -33.1565 -33.1043 -32.8815 -32.8399
   -32.7515 -32.6956 -32.6512 -32.5742 -32.4758 -32.3855 -32.3411 -32.3160
   -32.1679 -32.1316 -32.0988 -32.0793 -31.9582 -30.3324 -30.2512 -30.1581
   -30.1533 -29.9724 -29.9078 -29.3584 -29.2866 -29.0653 -28.1733 -24.9692
   -24.7445 -22.1421 -20.2334 -18.7161 -17.9546  -9.3223  -8.7014  -7.9365
    -7.8577  -7.8090  -7.6918  -7.5235  -7.2764  -5.8624  -5.1041  -3.6591
    -3.5843  -3.4875  -2.7216  -2.4936  -2.3173  -2.0568  -1.9865  -1.8850
    -1.6841  -1.5960  -1.5428  -1.5143  -1.4966  -1.2222  -1.1071  -1.0240
    -0.9931  -0.9351  -0.7898  -0.5123  -0.4890  -0.3115  -0.1423  -0.1013
     0.0070   0.1351   0.2686   0.4299   0.5870   0.6477   0.7560   0.8099
     0.9265   1.0257   1.0860   1.1604   1.2458   1.4547   1.5728   1.6692
     1.7662   1.8255   1.8939   1.9656   2.0212   2.0674   2.1749   2.3623
     2.4200   2.4681   2.4895   2.5741   2.5960   2.6571   2.6828   2.8527
     2.9268   3.0114   3.0518   3.1244   3.2199   3.3498   3.4419   3.4615
     3.5859   3.7243   3.8660   4.0061   4.0669   4.1750

          k = 0.1667-0.4811 0.0000 ( 47608 PWs)   bands (ev):

  -177.7345-168.5322-138.2724-132.4416-128.2557-125.3601-124.8853-117.9465
  -109.9050 -99.4314 -98.8477 -98.8137 -91.2322 -86.4020 -82.4263 -70.8823
   -70.6763 -65.2698 -62.1486 -60.8098 -59.8065 -59.6664 -59.3923 -59.3127
   -59.2452 -59.2232 -59.2002 -59.1972 -57.4087 -56.2357 -56.0756 -56.0731
   -56.0551 -56.0292 -55.8818 -55.8635 -55.8506 -55.8101 -53.5939 -53.4691
   -49.0405 -44.2250 -39.8597 -33.3146 -33.1564 -33.1048 -32.8802 -32.8400
   -32.7550 -32.6915 -32.6578 -32.5756 -32.4937 -32.4107 -32.3291 -32.2888
   -32.2040 -32.1658 -32.0804 -32.0510 -31.9187 -30.3264 -30.2314 -30.1297
   -30.1193 -30.0317 -29.9419 -29.3501 -29.2318 -29.1308 -28.1727 -24.9692
   -24.7445 -22.1422 -20.2383 -18.7164 -17.9548  -9.2274  -8.6043  -8.0803
    -7.7845  -7.6829  -7.6461  -7.5869  -7.2437  -6.2059  -5.1060  -3.9266
    -3.6148  -3.2301  -3.1977  -2.7231  -2.2799  -1.9785  -1.8971  -1.8568
    -1.7013  -1.6360  -1.6084  -1.5696  -1.3014  -1.2100  -1.1256  -1.0349
    -0.8193  -0.7803  -0.6889  -0.4538  -0.3369  -0.2008  -0.0822  -0.0258
     0.0812   0.1650   0.2062   0.2975   0.4308   0.6729   0.7600   0.7923
     0.9284   1.0589   1.1030   1.2204   1.2901   1.5348   1.6324   1.7835
     1.8230   1.8635   1.9539   2.0079   2.0761   2.1205   2.2326   2.3188
     2.3620   2.4738   2.5484   2.5864   2.6543   2.6907   2.7447   2.8446
     2.9334   2.9887   3.0154   3.1055   3.2176   3.2652   3.4023   3.4729
     3.5611   3.5870   3.7931   3.9031   4.0283   4.1028

          k = 0.1667-0.2887 0.0000 ( 47572 PWs)   bands (ev):

  -177.7344-168.5321-138.2724-132.4415-128.2557-125.3601-124.8852-117.9463
  -109.9050 -99.4314 -98.8477 -98.8137 -91.2322 -86.4020 -82.4263 -70.8823
   -70.6763 -65.2698 -62.1485 -60.8097 -59.8065 -59.6663 -59.3923 -59.3127
   -59.2452 -59.2232 -59.2002 -59.1972 -57.4087 -56.2379 -56.0828 -56.0769
   -56.0477 -56.0250 -55.8903 -55.8604 -55.8465 -55.8070 -53.5939 -53.4691
   -49.0405 -44.2250 -39.8597 -33.3191 -33.1595 -33.0979 -32.8981 -32.8209
   -32.7479 -32.6919 -32.6703 -32.5809 -32.5233 -32.4143 -32.3581 -32.2420
   -32.2159 -32.2047 -32.0732 -32.0032 -31.8676 -30.3551 -30.2735 -30.1242
   -30.1160 -30.0028 -29.9311 -29.3958 -29.2165 -29.1072 -28.1738 -24.9693
   -24.7445 -22.1422 -20.2361 -18.7174 -17.9553  -9.1963  -9.1083  -8.0519
    -7.6756  -7.4962  -7.2935  -7.2900  -7.2094  -6.6565  -5.6680  -4.4763
    -3.9320  -3.2420  -2.8503  -2.7214  -2.4136  -2.0855  -1.8933  -1.8693
    -1.6543  -1.6268  -1.4545  -1.4124  -1.3422  -1.3091  -0.9121  -0.7246
    -0.6604  -0.6355  -0.4688  -0.4257  -0.4070  -0.2164  -0.1476   0.0841
     0.1189   0.1967   0.3696   0.4829   0.6788   0.8525   0.9830   1.1309
     1.1895   1.3006   1.3971   1.4389   1.5219   1.6033   1.7351   1.8025
     1.8907   1.9035   1.9641   2.0108   2.0600   2.2133   2.3363   2.4049
     2.4433   2.5190   2.5386   2.6110   2.6921   2.7857   2.8119   2.8464
     2.9197   2.9965   3.0261   3.1494   3.2525   3.3190   3.3522   3.3786
     3.4185   3.4860   3.6273   3.6956   3.7510   3.7971

          k = 0.1667-0.0962 0.0000 ( 47501 PWs)   bands (ev):

  -177.7343-168.5320-138.2725-132.4414-128.2557-125.3601-124.8850-117.9462
  -109.9048 -99.4314 -98.8477 -98.8137 -91.2322 -86.4020 -82.4262 -70.8824
   -70.6762 -65.2698 -62.1485 -60.8097 -59.8065 -59.6661 -59.3923 -59.3127
   -59.2452 -59.2232 -59.2002 -59.1972 -57.4087 -56.2401 -56.0894 -56.0782
   -56.0427 -56.0215 -55.8972 -55.8565 -55.8445 -55.8040 -53.5939 -53.4691
   -49.0405 -44.2247 -39.8596 -33.3237 -33.1612 -33.0919 -32.9106 -32.8076
   -32.7378 -32.6963 -32.6742 -32.5844 -32.5318 -32.4191 -32.3700 -32.2240
   -32.2204 -32.2034 -32.0776 -31.9854 -31.8457 -30.3858 -30.3187 -30.1523
   -30.1457 -29.9305 -29.8864 -29.4388 -29.2568 -29.0280 -28.1754 -24.9694
   -24.7445 -22.1422 -20.2281 -18.7181 -17.9556  -9.5443  -9.0838  -8.2406
    -7.4925  -7.3668  -7.2551  -7.2247  -7.1267  -6.4074  -6.0108  -4.8169
    -4.3703  -3.1480  -3.0342  -2.5008  -2.0761  -2.0410  -1.8334  -1.7358
    -1.6977  -1.6015  -1.5012  -1.3252  -1.3124  -1.1758  -0.9371  -0.9226
    -0.7784  -0.7660  -0.6732  -0.6014  -0.3976   0.0515   0.1063   0.1975
     0.2545   0.3794   0.4146   0.6534   0.8836   1.1428   1.2158   1.3048
     1.3926   1.5086   1.5337   1.5638   1.6637   1.6840   1.7264   1.8721
     1.9706   2.0377   2.0644   2.1465   2.2708   2.2905   2.2988   2.4029
     2.5025   2.5399   2.6004   2.6762   2.6846   2.8514   2.8874   2.9483
     2.9887   3.0266   3.0586   3.0759   3.0984   3.1930   3.2283   3.3677
     3.5057   3.6224   3.6897   3.7098   3.7400   3.7746

          k = 0.3333 0.1925 0.0000 ( 47521 PWs)   bands (ev):

  -177.7341-168.5319-138.2724-132.4416-128.2557-125.3601-124.8846-117.9463
  -109.9046 -99.4314 -98.8474 -98.8139 -91.2322 -86.4020 -82.4262 -70.8823
   -70.6763 -65.2698 -62.1486 -60.8096 -59.8065 -59.6660 -59.3787 -59.3264
   -59.2450 -59.2229 -59.2004 -59.1975 -57.4087 -56.2369 -56.0801 -56.0763
   -56.0500 -56.0263 -55.8880 -55.8583 -55.8509 -55.8075 -53.5939 -53.4691
   -49.0404 -44.2245 -39.8597 -33.3178 -33.1591 -33.0990 -32.8940 -32.8316
   -32.7387 -32.7007 -32.6539 -32.5788 -32.5034 -32.3722 -32.3402 -32.3127
   -32.1768 -32.1512 -32.0772 -32.0480 -31.9312 -30.4141 -30.3736 -30.1116
   -30.0875 -29.9331 -29.8821 -29.4974 -29.1907 -29.0291 -28.1755 -24.9691
   -24.7446 -22.1421 -20.2213 -18.7170 -17.9544  -9.2941  -9.1023  -8.0243
    -7.8610  -7.7834  -7.5275  -7.4593  -7.0682  -5.7651  -5.5615  -3.8245
    -3.6520  -2.9360  -2.6685  -2.6608  -2.5753  -2.1759  -1.9682  -1.8189
    -1.7638  -1.7479  -1.5057  -1.3924  -1.3805  -1.1326  -1.0770  -0.9732
    -0.8762  -0.7165  -0.6993  -0.6798  -0.5381  -0.4502  -0.3677  -0.2815
     0.0418   0.2412   0.3412   0.5043   0.6562   0.7713   0.8383   0.9463
     1.0645   1.2583   1.3705   1.4176   1.4968   1.6616   1.6810   1.7251
     1.7547   1.8728   2.0571   2.1454   2.1995   2.2363   2.2847   2.3580
     2.4340   2.4603   2.4806   2.6447   2.6521   2.6791   2.6920   2.7189
     2.7365   2.8314   2.9540   3.0901   3.2053   3.2984   3.3342   3.4470
     3.5374   3.5636   3.7864   3.9270   3.9620   3.9853

          k = 0.3333 0.3849 0.0000 ( 47608 PWs)   bands (ev):

  -177.7343-168.5321-138.2724-132.4417-128.2557-125.3601-124.8850-117.9465
  -109.9049 -99.4314 -98.8475 -98.8139 -91.2322 -86.4021 -82.4263 -70.8823
   -70.6764 -65.2698 -62.1486 -60.8097 -59.8065 -59.6663 -59.3787 -59.3264
   -59.2450 -59.2229 -59.2004 -59.1975 -57.4087 -56.2355 -56.0758 -56.0726
   -56.0555 -56.0292 -55.8825 -55.8593 -55.8544 -55.8098 -53.5939 -53.4691
   -49.0405 -44.2247 -39.8598 -33.3149 -33.1567 -33.1040 -32.8818 -32.8422
   -32.7497 -32.6940 -32.6499 -32.5751 -32.4730 -32.3931 -32.3325 -32.3096
   -32.1761 -32.1302 -32.0895 -32.0802 -31.9521 -30.3888 -30.3458 -30.1255
   -30.0980 -29.9443 -29.8864 -29.4669 -29.2106 -29.0360 -28.1746 -24.9691
   -24.7446 -22.1421 -20.2254 -18.7164 -17.9542  -9.3361  -8.7214  -8.0151
    -7.9225  -7.8682  -7.6123  -7.5567  -7.2394  -5.6690  -5.2072  -3.5057
    -3.3809  -3.3312  -2.5589  -2.5367  -2.3888  -2.1203  -1.9664  -1.9168
    -1.8715  -1.8040  -1.5356  -1.5031  -1.4819  -1.2578  -1.1245  -1.0625
    -1.0015  -0.9426  -0.8648  -0.5965  -0.5195  -0.3882  -0.2045  -0.1217
    -0.0666   0.2241   0.2407   0.3764   0.5419   0.6044   0.6886   0.8271
     0.9406   1.0523   1.1708   1.2569   1.4334   1.4832   1.5596   1.7269
     1.8794   1.9692   2.0475   2.0888   2.1016   2.1236   2.1623   2.2730
     2.3286   2.3966   2.5545   2.5741   2.6160   2.6667   2.6944   2.7240
     2.7601   2.8229   2.9182   3.1786   3.3096   3.3822   3.4947   3.5354
     3.6041   3.7233   3.8687   3.9195   3.9394   4.1979

          k = 0.3333 0.5774 0.0000 ( 47664 PWs)   bands (ev):

  -177.7345-168.5322-138.2724-132.4418-128.2557-125.3601-124.8854-117.9466
  -109.9052 -99.4314 -98.8475 -98.8139 -91.2322 -86.4021 -82.4263 -70.8823
   -70.6764 -65.2698 -62.1486 -60.8099 -59.8065 -59.6664 -59.3787 -59.3264
   -59.2450 -59.2229 -59.2004 -59.1975 -57.4087 -56.2349 -56.0745 -56.0664
   -56.0614 -56.0309 -55.8782 -55.8656 -55.8513 -55.8117 -53.5939 -53.4692
   -49.0405 -44.2250 -39.8599 -33.3134 -33.1543 -33.1080 -32.8721 -32.8474
   -32.7631 -32.6848 -32.6587 -32.5779 -32.5005 -32.3896 -32.3353 -32.2969
   -32.1891 -32.1772 -32.0583 -32.0557 -31.9229 -30.3458 -30.2795 -30.1466
   -30.1290 -29.9790 -29.9103 -29.3937 -29.2520 -29.0695 -28.1733 -24.9691
   -24.7446 -22.1422 -20.2349 -18.7166 -17.9544  -9.2098  -8.2337  -8.0959
    -8.0160  -7.7900  -7.6540  -7.5543  -7.4959  -6.0088  -4.9612  -3.9579
    -3.4269  -3.4032  -2.6552  -2.5887  -2.5552  -2.1144  -2.0078  -1.9549
    -1.8350  -1.7411  -1.5472  -1.5255  -1.3783  -1.2460  -1.1526  -0.9265
    -0.8827  -0.7915  -0.6842  -0.4839  -0.4091  -0.3374  -0.3101  -0.0884
     0.1608   0.2597   0.3375   0.4100   0.4502   0.5653   0.6183   0.6615
     0.7541   0.8653   1.1245   1.2586   1.4876   1.5660   1.6426   1.7114
     1.8861   1.9661   1.9908   2.0260   2.0274   2.0613   2.2663   2.3542
     2.4750   2.5078   2.5192   2.5793   2.6099   2.6374   2.6858   2.7174
     2.7599   2.8188   2.8725   3.1557   3.2078   3.4378   3.4823   3.5120
     3.6560   3.7548   3.8410   3.9514   4.1237   4.2037

          k = 0.3333-0.3849 0.0000 ( 47608 PWs)   bands (ev):

  -177.7345-168.5321-138.2724-132.4416-128.2557-125.3601-124.8854-117.9464
  -109.9051 -99.4314 -98.8475 -98.8139 -91.2322 -86.4021 -82.4263 -70.8823
   -70.6763 -65.2698 -62.1485 -60.8099 -59.8065 -59.6663 -59.3787 -59.3264
   -59.2450 -59.2229 -59.2004 -59.1975 -57.4087 -56.2356 -56.0755 -56.0722
   -56.0561 -56.0291 -55.8800 -55.8679 -55.8476 -55.8106 -53.5939 -53.4691
   -49.0405 -44.2250 -39.8598 -33.3146 -33.1560 -33.1058 -32.8799 -32.8375
   -32.7645 -32.6813 -32.6772 -32.5874 -32.5302 -32.3810 -32.3682 -32.2635
   -32.2395 -32.1657 -32.0269 -32.0240 -31.8842 -30.3306 -30.2350 -30.1468
   -30.1420 -30.0158 -29.9348 -29.3478 -29.2648 -29.1082 -28.1729 -24.9692
   -24.7446 -22.1422 -20.2405 -18.7174 -17.9548  -9.0201  -8.5846  -7.9594
    -7.8895  -7.7497  -7.4793  -7.4138  -7.3443  -6.6416  -5.1933  -4.5711
    -3.6345  -3.3105  -3.1667  -2.4972  -2.2391  -2.1405  -2.0977  -1.8098
    -1.7705  -1.5236  -1.4491  -1.4291  -1.3799  -1.2224  -1.0110  -0.8957
    -0.7817  -0.6861  -0.6476  -0.4044  -0.2690  -0.2122  -0.1197  -0.0217
     0.0705   0.1307   0.2018   0.3233   0.4207   0.7536   0.8452   0.9115
     1.0760   1.1682   1.2185   1.3541   1.4746   1.6072   1.8097   1.8729
     1.8929   1.9050   1.9488   2.0351   2.1059   2.1332   2.2524   2.2990
     2.3833   2.4748   2.5369   2.5813   2.6053   2.6817   2.7063   2.7625
     2.7826   2.8709   2.9887   3.0553   3.2164   3.2740   3.3369   3.4876
     3.5411   3.5998   3.7042   3.8001   3.8849   3.9672

          k = 0.3333-0.1925 0.0000 ( 47521 PWs)   bands (ev):

  -177.7344-168.5320-138.2724-132.4414-128.2557-125.3601-124.8852-117.9461
  -109.9050 -99.4314 -98.8475 -98.8139 -91.2322 -86.4020 -82.4262 -70.8823
   -70.6762 -65.2698 -62.1485 -60.8097 -59.8065 -59.6662 -59.3787 -59.3264
   -59.2450 -59.2229 -59.2004 -59.1975 -57.4087 -56.2371 -56.0796 -56.0765
   -56.0504 -56.0262 -55.8868 -55.8639 -55.8458 -55.8082 -53.5939 -53.4690
   -49.0404 -44.2249 -39.8597 -33.3176 -33.1586 -33.1008 -32.8925 -32.8257
   -32.7572 -32.6884 -32.6803 -32.5932 -32.5373 -32.3976 -32.3641 -32.2565
   -32.2478 -32.1532 -32.0200 -32.0123 -31.8666 -30.3674 -30.2955 -30.1172
   -30.0868 -30.0171 -29.9342 -29.4178 -29.1861 -29.1207 -28.1738 -24.9692
   -24.7446 -22.1422 -20.2375 -18.7179 -17.9550  -9.0329  -8.9575  -7.9613
    -7.7551  -7.6479  -7.3856  -7.3614  -7.1718  -6.6253  -5.5579  -4.9147
    -3.7197  -3.6135  -2.9254  -2.6161  -2.1874  -2.0246  -1.9203  -1.7725
    -1.7157  -1.6904  -1.4473  -1.4234  -1.3486  -1.2391  -0.8624  -0.7233
    -0.6556  -0.5560  -0.4181  -0.4081  -0.2904  -0.2404  -0.1579  -0.0196
     0.0163   0.1684   0.2097   0.3469   0.6260   0.7237   0.9758   1.0999
     1.2773   1.3570   1.3961   1.5169   1.6681   1.7248   1.7540   1.8123
     1.9127   2.0223   2.0347   2.1352   2.1518   2.2411   2.3415   2.4017
     2.4347   2.4657   2.5024   2.5698   2.5957   2.6553   2.6723   2.7362
     2.8158   2.8547   2.8809   3.0159   3.0746   3.2137   3.3244   3.3390
     3.4015   3.5639   3.6775   3.7246   3.7811   3.7925

          k = 0.3333 0.0000 0.0000 ( 47572 PWs)   bands (ev):

  -177.7343-168.5320-138.2724-132.4416-128.2557-125.3601-124.8850-117.9463
  -109.9049 -99.4314 -98.8475 -98.8139 -91.2322 -86.4020 -82.4262 -70.8823
   -70.6763 -65.2698 -62.1485 -60.8098 -59.8065 -59.6661 -59.3787 -59.3264
   -59.2450 -59.2229 -59.2004 -59.1975 -57.4087 -56.2378 -56.0825 -56.0770
   -56.0480 -56.0250 -55.8902 -55.8602 -55.8468 -55.8069 -53.5939 -53.4691
   -49.0404 -44.2247 -39.8598 -33.3193 -33.1596 -33.0978 -32.8984 -32.8237
   -32.7463 -32.6936 -32.6690 -32.5879 -32.5305 -32.3822 -32.3660 -32.2659
   -32.2296 -32.1504 -32.0333 -32.0306 -31.8852 -30.4058 -30.3542 -30.1066
   -30.0843 -29.9613 -29.9043 -29.4781 -29.1804 -29.0641 -28.1751 -24.9692
   -24.7446 -22.1421 -20.2280 -18.7178 -17.9549  -9.2216  -9.1090  -8.0656
    -7.6926  -7.6756  -7.4544  -7.3193  -7.2000  -6.0621  -5.7082  -4.5918
    -3.9513  -3.1971  -2.8274  -2.4294  -2.2527  -2.0800  -2.0232  -1.8747
    -1.8089  -1.7616  -1.6086  -1.4075  -1.3303  -1.2792  -0.9377  -0.7675
    -0.6689  -0.5898  -0.5548  -0.5225  -0.2635  -0.2054  -0.1017  -0.0464
     0.0128   0.1596   0.4447   0.5605   0.7150   0.7855   0.9758   1.0635
     1.2416   1.2498   1.3114   1.4315   1.4966   1.5526   1.7271   1.8312
     1.9378   2.0268   2.0832   2.1987   2.2316   2.3154   2.3513   2.4165
     2.4589   2.5005   2.5502   2.5739   2.6269   2.6596   2.6842   2.7256
     2.8493   2.8891   2.9235   3.0444   3.1322   3.2530   3.2667   3.3649
     3.4411   3.5138   3.6514   3.7410   3.8678   3.9293

          k =-0.5000-0.2887 0.0000 ( 47568 PWs)   bands (ev):

  -177.7342-168.5320-138.2724-132.4417-128.2557-125.3601-124.8847-117.9464
  -109.9047 -99.4314 -98.8473 -98.8141 -91.2322 -86.4020 -82.4262 -70.8823
   -70.6764 -65.2698 -62.1486 -60.8097 -59.8065 -59.6661 -59.3679 -59.3372
   -59.2450 -59.2228 -59.2004 -59.1976 -57.4087 -56.2354 -56.0759 -56.0719
   -56.0564 -56.0291 -55.8817 -55.8607 -55.8540 -55.8096 -53.5939 -53.4691
   -49.0404 -44.2244 -39.8598 -33.3148 -33.1573 -33.1034 -32.8796 -32.8477
   -32.7438 -32.6969 -32.6487 -32.5756 -32.4715 -32.3963 -32.3288 -32.3064
   -32.1796 -32.1297 -32.0853 -32.0804 -31.9492 -30.4228 -30.3873 -30.0853
   -30.0398 -29.9646 -29.8957 -29.5135 -29.1358 -29.0658 -28.1752 -24.9690
   -24.7446 -22.1421 -20.2212 -18.7166 -17.9540  -9.3415  -8.4677  -8.4339
    -7.9756  -7.7711  -7.7345  -7.5370  -7.0588  -5.5798  -5.2211  -3.4112
    -3.2154  -3.0946  -3.0566  -2.7418  -2.4798  -2.0651  -1.9513  -1.7714
    -1.6846  -1.5765  -1.5350  -1.4371  -1.4238  -1.3664  -1.2062  -1.1752
    -1.0208  -0.9394  -0.9128  -0.6592  -0.6069  -0.3852  -0.1887  -0.1053
    -0.0625  -0.0430   0.0703   0.1969   0.4143   0.5308   0.7329   0.9532
     1.1223   1.2249   1.3087   1.4475   1.5154   1.6638   1.6953   1.8337
     1.9046   1.9366   1.9939   2.0774   2.1198   2.2428   2.2829   2.3078
     2.3198   2.3685   2.4173   2.4536   2.5075   2.5316   2.6048   2.6971
     2.6978   2.7918   2.9696   3.1852   3.2900   3.3590   3.3997   3.4054
     3.6000   3.6962   3.7132   3.8336   4.0197   4.1595

          k =-0.5000-0.0962 0.0000 ( 47608 PWs)   bands (ev):

  -177.7343-168.5321-138.2724-132.4417-128.2557-125.3601-124.8850-117.9465
  -109.9049 -99.4314 -98.8473 -98.8141 -91.2322 -86.4021 -82.4263 -70.8823
   -70.6764 -65.2698 -62.1486 -60.8098 -59.8065 -59.6662 -59.3679 -59.3372
   -59.2450 -59.2228 -59.2005 -59.1976 -57.4087 -56.2355 -56.0757 -56.0722
   -56.0561 -56.0292 -55.8817 -55.8631 -55.8512 -55.8101 -53.5939 -53.4691
   -49.0405 -44.2247 -39.8599 -33.3149 -33.1566 -33.1043 -32.8806 -32.8436
   -32.7526 -32.6906 -32.6559 -32.5795 -32.5043 -32.3693 -32.3402 -32.3110
   -32.1858 -32.1579 -32.0715 -32.0410 -31.9298 -30.4060 -30.3633 -30.0968
   -30.0534 -29.9767 -29.9047 -29.4878 -29.1538 -29.0759 -28.1747 -24.9691
   -24.7446 -22.1421 -20.2264 -18.7169 -17.9542  -9.2423  -8.6616  -8.1131
    -7.8918  -7.8097  -7.6355  -7.5876  -7.2161  -5.7777  -5.2468  -3.8610
    -3.2468  -3.1858  -3.0909  -2.5296  -2.3578  -2.3032  -2.0006  -1.8771
    -1.8327  -1.7741  -1.6954  -1.5298  -1.2301  -1.1884  -1.0857  -1.0499
    -0.9919  -0.7440  -0.6554  -0.5801  -0.3397  -0.2344  -0.0877  -0.0334
    -0.0124   0.0447   0.1691   0.3170   0.4020   0.5837   0.6182   0.8992
     1.0064   1.1213   1.2268   1.3052   1.4307   1.5587   1.6620   1.8201
     1.8628   2.0427   2.0901   2.1139   2.1925   2.2315   2.2597   2.3362
     2.3800   2.4124   2.4402   2.4687   2.5122   2.6490   2.6528   2.7288
     2.7631   2.8361   2.8593   3.1205   3.2126   3.2673   3.4179   3.5002
     3.5409   3.5957   3.8615   3.9570   4.0140   4.0377

          k =-0.5000 0.0962 0.0000 ( 47608 PWs)   bands (ev):

  -177.7345-168.5321-138.2724-132.4416-128.2557-125.3601-124.8854-117.9463
  -109.9051 -99.4314 -98.8473 -98.8141 -91.2322 -86.4021 -82.4262 -70.8823
   -70.6763 -65.2698 -62.1485 -60.8099 -59.8065 -59.6663 -59.3679 -59.3372
   -59.2450 -59.2228 -59.2005 -59.1977 -57.4087 -56.2356 -56.0756 -56.0718
   -56.0565 -56.0292 -55.8799 -55.8679 -55.8478 -55.8106 -53.5939 -53.4691
   -49.0405 -44.2249 -39.8598 -33.3147 -33.1561 -33.1058 -32.8800 -32.8388
   -32.7638 -32.6851 -32.6738 -32.5903 -32.5322 -32.3883 -32.3392 -32.2848
   -32.2456 -32.1319 -32.0460 -32.0045 -31.8967 -30.3631 -30.2981 -30.1293
   -30.0992 -29.9997 -29.9227 -29.4175 -29.2122 -29.0927 -28.1736 -24.9692
   -24.7447 -22.1422 -20.2366 -18.7176 -17.9546  -9.0174  -8.6217  -7.9221
    -7.8890  -7.7691  -7.6327  -7.4661  -7.3536  -6.3133  -5.2349  -4.6460
    -3.6195  -3.1994  -3.1369  -2.4247  -2.3560  -2.2055  -2.0972  -1.8472
    -1.7463  -1.5494  -1.4648  -1.4220  -1.3817  -1.1986  -1.0635  -0.8952
    -0.7977  -0.6502  -0.5120  -0.4327  -0.2527  -0.2156  -0.1946  -0.1053
     0.0002   0.1555   0.2115   0.3629   0.4892   0.5769   0.8669   1.0463
     1.1057   1.1981   1.3061   1.3702   1.4209   1.4585   1.7940   1.8107
     1.9535   1.9883   2.0405   2.1140   2.1716   2.2078   2.2671   2.2776
     2.3866   2.4397   2.4447   2.4942   2.5164   2.6067   2.6256   2.6444
     2.7173   2.8698   2.9675   2.9955   3.1700   3.2689   3.3770   3.4633
     3.5819   3.6741   3.7922   3.8463   3.9156   3.9685

          k =-0.5000-0.8660 0.0000 ( 47568 PWs)   bands (ev):

  -177.7344-168.5320-138.2724-132.4415-128.2557-125.3601-124.8854-117.9462
  -109.9051 -99.4314 -98.8473 -98.8141 -91.2322 -86.4021 -82.4262 -70.8823
   -70.6762 -65.2698 -62.1485 -60.8099 -59.8065 -59.6662 -59.3679 -59.3372
   -59.2450 -59.2228 -59.2004 -59.1977 -57.4087 -56.2355 -56.0757 -56.0712
   -56.0573 -56.0290 -55.8768 -55.8721 -55.8467 -55.8106 -53.5939 -53.4691
   -49.0404 -44.2250 -39.8598 -33.3145 -33.1563 -33.1062 -32.8785 -32.8385
   -32.7665 -32.6938 -32.6759 -32.5963 -32.5380 -32.4076 -32.3289 -32.2733
   -32.2689 -32.1213 -32.0343 -31.9904 -31.8825 -30.3328 -30.2367 -30.1556
   -30.1515 -30.0095 -29.9315 -29.3455 -29.2799 -29.0995 -28.1730 -24.9692
   -24.7447 -22.1422 -20.2416 -18.7179 -17.9548  -8.8891  -8.3490  -8.3158
    -7.8569  -7.6632  -7.6149  -7.3097  -7.1970  -6.8138  -5.1966  -4.9151
    -3.8395  -3.4773  -2.8683  -2.8464  -2.1590  -2.0843  -1.8279  -1.8125
    -1.6649  -1.4917  -1.3967  -1.2736  -1.2571  -1.0788  -1.0676  -0.9745
    -0.7646  -0.5799  -0.5731  -0.4472  -0.4403  -0.3243  -0.1862  -0.1130
    -0.0287   0.1479   0.1741   0.2132   0.4811   0.6331   0.9970   1.2707
     1.3062   1.3449   1.4212   1.4712   1.5228   1.6485   1.7652   1.8171
     1.9131   1.9416   2.0335   2.0468   2.1164   2.1692   2.2382   2.2922
     2.3093   2.4060   2.4423   2.4554   2.5306   2.5703   2.5977   2.6267
     2.6330   2.9266   2.9680   3.0522   3.0873   3.1640   3.2910   3.3764
     3.5193   3.7062   3.7440   3.7713   3.7900   3.9110

 ------ SPIN DOWN ----------


          k = 0.0000 0.0000 0.0000 ( 47433 PWs)   bands (ev):

  -177.7350-168.5310-138.2719-132.4431-128.2687-125.3599-124.8856-117.9456
  -109.9032 -99.4254 -99.2009 -99.1780 -91.2458 -86.4151 -82.4377 -70.8830
   -70.6772 -65.2687 -62.1420 -60.8114 -59.8319 -59.7997 -59.7479 -59.6675
   -59.5482 -59.5305 -59.5164 -59.4777 -57.4042 -56.7685 -56.6032 -56.5476
   -56.0061 -55.9496 -55.9171 -55.8638 -55.8227 -55.7733 -53.5933 -53.4693
   -49.0393 -44.2232 -39.8580 -33.8398 -33.6707 -33.6067 -32.8972 -32.8871
   -32.7973 -32.7203 -32.6956 -32.6795 -32.6375 -32.5457 -32.5341 -32.4922
   -32.4466 -32.2358 -32.1009 -32.0341 -31.7530 -30.8289 -30.7504 -30.4252
   -30.2850 -30.1031 -29.7653 -29.4209 -29.3619 -28.9989 -28.1759 -24.9803
   -24.7593 -22.1554 -20.2272 -18.7299 -17.9669  -9.7420  -9.1398  -8.3798
    -7.3456  -7.2571  -7.2161  -7.1629  -7.1061  -6.3573  -6.1780  -4.7133
    -4.6854  -3.3231  -2.6577  -2.4131  -2.3746  -2.1080  -1.7699  -1.6713
    -1.6523  -1.4927  -1.4437  -1.4034  -1.3712  -1.1898  -1.1531  -0.9816
    -0.9657  -0.8147  -0.7850  -0.7554  -0.7139  -0.0641   0.1772   0.2287
     0.2654   0.3606   0.9228   0.9801   1.1139   1.2018   1.2255   1.2280
     1.2836   1.3031   1.3379   1.4118   1.4684   1.5561   1.5670   1.6088
     1.7204   1.7405   1.8902   1.9263   2.0170   2.0219   2.0682   2.1035
     2.1723   2.2229   2.4203   2.5402   2.6084   2.6353   2.7152   2.7330
     2.7903   2.8286   2.8872   2.9970   3.0261   3.0484   3.2000   3.2301
     3.3032   3.6141   3.6241   3.6593   3.7099   3.7734

          k = 0.0000 0.1925 0.0000 ( 47501 PWs)   bands (ev):

  -177.7351-168.5311-138.2719-132.4432-128.2688-125.3599-124.8858-117.9457
  -109.9034 -99.4254 -99.2009 -99.1780 -91.2458 -86.4151 -82.4378 -70.8830
   -70.6773 -65.2687 -62.1420 -60.8113 -59.8319 -59.7997 -59.7479 -59.6677
   -59.5482 -59.5305 -59.5164 -59.4777 -57.4042 -56.7671 -56.6025 -56.5497
   -56.0019 -55.9525 -55.9130 -55.8663 -55.8250 -55.7740 -53.5933 -53.4693
   -49.0393 -44.2234 -39.8579 -33.8379 -33.6702 -33.6093 -32.8913 -32.8777
   -32.7941 -32.7327 -32.6889 -32.6803 -32.6345 -32.5409 -32.5303 -32.5106
   -32.4407 -32.2574 -32.0925 -32.0251 -31.7773 -30.8137 -30.7335 -30.4515
   -30.2728 -30.0882 -29.7858 -29.4079 -29.3431 -29.0271 -28.1750 -24.9803
   -24.7593 -22.1554 -20.2304 -18.7293 -17.9666  -9.5656  -9.1902  -8.2761
    -7.4049  -7.3716  -7.3195  -7.2221  -7.1228  -6.3770  -5.9972  -4.4650
    -4.3578  -3.1480  -2.6712  -2.5182  -2.3927  -2.2231  -2.0450  -1.7940
    -1.7212  -1.7005  -1.3614  -1.3007  -1.2771  -1.1903  -1.0474  -0.9130
    -0.8765  -0.8519  -0.7918  -0.7334  -0.5811  -0.1672  -0.0008   0.2486
     0.3010   0.4123   0.4868   0.8311   0.9516   0.9850   1.0173   1.0856
     1.1487   1.1854   1.2336   1.3484   1.3653   1.4091   1.5064   1.5589
     1.5876   1.6127   1.7516   1.8444   1.9497   2.0492   2.0694   2.1464
     2.1550   2.3261   2.3304   2.3944   2.4723   2.4992   2.7829   2.8062
     2.8282   2.8594   2.9203   2.9438   2.9577   3.0747   3.2216   3.2830
     3.4739   3.6065   3.6465   3.7016   3.7827   3.7960

          k = 0.0000 0.3849 0.0000 ( 47521 PWs)   bands (ev):

  -177.7352-168.5311-138.2719-132.4432-128.2688-125.3599-124.8859-117.9459
  -109.9033 -99.4254 -99.2009 -99.1780 -91.2458 -86.4151 -82.4379 -70.8829
   -70.6773 -65.2687 -62.1421 -60.8115 -59.8319 -59.7997 -59.7479 -59.6676
   -59.5482 -59.5305 -59.5164 -59.4777 -57.4043 -56.7643 -56.6007 -56.5545
   -55.9918 -55.9599 -55.9028 -55.8729 -55.8301 -55.7754 -53.5932 -53.4694
   -49.0393 -44.2235 -39.8579 -33.8341 -33.6683 -33.6152 -32.8770 -32.8541
   -32.7927 -32.7457 -32.6868 -32.6719 -32.6319 -32.5704 -32.5260 -32.5088
   -32.4226 -32.3124 -32.0654 -32.0065 -31.8372 -30.7814 -30.6873 -30.5181
   -30.2473 -30.0528 -29.8330 -29.3824 -29.2889 -29.0997 -28.1732 -24.9802
   -24.7593 -22.1554 -20.2355 -18.7282 -17.9661  -9.2758  -9.0772  -8.0198
    -7.7201  -7.6264  -7.5347  -7.4701  -7.0958  -6.1485  -5.4854  -3.8711
    -3.8145  -3.2680  -2.8209  -2.7587  -2.6588  -2.1159  -1.9278  -1.8886
    -1.7408  -1.6684  -1.6250  -1.3707  -1.2170  -1.1814  -1.1405  -1.0485
    -0.8376  -0.6796  -0.6501  -0.5782  -0.4038  -0.3116  -0.2676  -0.1275
     0.0783   0.1627   0.1906   0.5030   0.5543   0.6789   0.7503   0.7973
     0.8163   1.0078   1.1230   1.2570   1.3029   1.3404   1.3976   1.4207
     1.4830   1.6294   1.6607   1.7641   1.8821   1.8957   1.9802   2.0977
     2.1591   2.2569   2.3654   2.4439   2.4612   2.4808   2.5872   2.6871
     2.7759   2.8287   2.8849   2.9549   2.9907   3.0809   3.1699   3.2740
     3.4295   3.5362   3.6342   3.7820   3.8574   3.9457

          k = 0.0000-0.5774 0.0000 ( 47568 PWs)   bands (ev):

  -177.7353-168.5312-138.2719-132.4433-128.2688-125.3599-124.8861-117.9460
  -109.9035 -99.4254 -99.2009 -99.1780 -91.2458 -86.4151 -82.4379 -70.8829
   -70.6773 -65.2687 -62.1421 -60.8114 -59.8319 -59.7997 -59.7479 -59.6678
   -59.5482 -59.5305 -59.5164 -59.4777 -57.4043 -56.7629 -56.5994 -56.5573
   -55.9842 -55.9661 -55.8947 -55.8790 -55.8329 -55.7762 -53.5932 -53.4694
   -49.0393 -44.2237 -39.8579 -33.8322 -33.6669 -33.6186 -32.8691 -32.8347
   -32.8030 -32.7439 -32.6765 -32.6610 -32.6480 -32.5992 -32.5227 -32.4955
   -32.3933 -32.3637 -32.0454 -31.9901 -31.8806 -30.7646 -30.6372 -30.5790
   -30.2340 -30.0293 -29.8629 -29.3700 -29.2283 -29.1690 -28.1723 -24.9801
   -24.7593 -22.1554 -20.2397 -18.7276 -17.9659  -9.3125  -8.4079  -8.3859
    -7.7477  -7.7397  -7.7214  -7.5954  -7.0901  -5.9653  -4.9854  -3.9714
    -3.6391  -3.1191  -3.1049  -3.0062  -2.2442  -2.1146  -1.9685  -1.7571
    -1.6916  -1.6603  -1.6164  -1.3738  -1.3055  -1.3010  -1.1142  -1.0548
    -1.0119  -0.9170  -0.8617  -0.5459  -0.3480  -0.2402  -0.2066  -0.1166
    -0.0245   0.0331   0.0715   0.2779   0.2824   0.4626   0.5283   0.7028
     0.7838   0.8360   1.0021   1.2628   1.3112   1.4242   1.4440   1.4667
     1.5319   1.5715   1.6081   1.7352   1.8306   1.9602   2.0470   2.1159
     2.2253   2.2614   2.3165   2.3373   2.3575   2.3960   2.4722   2.6355
     2.7283   2.7736   2.8288   2.9017   2.9697   3.0272   3.1549   3.4079
     3.6272   3.7182   3.8606   3.8890   3.9973   4.0287

          k = 0.1667 0.0962 0.0000 ( 47501 PWs)   bands (ev):

  -177.7351-168.5310-138.2719-132.4433-128.2688-125.3599-124.8856-117.9457
  -109.9032 -99.4254 -99.2007 -99.1781 -91.2458 -86.4151 -82.4377 -70.8830
   -70.6773 -65.2687 -62.1420 -60.8114 -59.8264 -59.7997 -59.7534 -59.6675
   -59.5480 -59.5307 -59.5163 -59.4778 -57.4042 -56.7671 -56.6026 -56.5497
   -56.0018 -55.9526 -55.9130 -55.8664 -55.8250 -55.7740 -53.5933 -53.4694
   -49.0393 -44.2231 -39.8581 -33.8380 -33.6702 -33.6092 -32.9075 -32.8791
   -32.7707 -32.7276 -32.6945 -32.6732 -32.6346 -32.5653 -32.5234 -32.5061
   -32.4245 -32.2668 -32.1116 -31.9954 -31.7844 -30.8660 -30.6990 -30.4372
   -30.3015 -30.0738 -29.7746 -29.4709 -29.2970 -29.0119 -28.1757 -24.9802
   -24.7594 -22.1554 -20.2263 -18.7295 -17.9664  -9.5743  -9.1925  -8.2811
    -7.5641  -7.3765  -7.3052  -7.2572  -7.1000  -6.1368  -6.0026  -4.4738
    -4.3800  -3.1517  -2.6272  -2.5041  -2.2998  -2.1767  -1.9891  -1.7830
    -1.7705  -1.7459  -1.3680  -1.3014  -1.2940  -1.2115  -1.1489  -0.9689
    -0.8672  -0.8489  -0.7925  -0.7683  -0.6462  -0.1110  -0.0696   0.1420
     0.2491   0.3486   0.5085   0.7496   0.9664   0.9851   1.0411   1.0910
     1.1733   1.2104   1.2537   1.3383   1.3734   1.4237   1.5029   1.6444
     1.7070   1.7404   1.8475   1.8874   1.9787   2.0491   2.0682   2.1002
     2.1233   2.2697   2.3895   2.4152   2.4655   2.6236   2.6616   2.6684
     2.7140   2.8345   2.8780   2.9756   3.0247   3.1181   3.1987   3.3061
     3.3868   3.5658   3.6982   3.7372   3.7699   3.7821

          k = 0.1667 0.2887 0.0000 ( 47572 PWs)   bands (ev):

  -177.7352-168.5311-138.2719-132.4434-128.2688-125.3599-124.8859-117.9459
  -109.9034 -99.4254 -99.2007 -99.1781 -91.2458 -86.4151 -82.4378 -70.8829
   -70.6773 -65.2687 -62.1421 -60.8114 -59.8264 -59.7997 -59.7534 -59.6677
   -59.5480 -59.5307 -59.5163 -59.4778 -57.4042 -56.7649 -56.6012 -56.5533
   -55.9946 -55.9578 -55.9059 -55.8706 -55.8291 -55.7750 -53.5933 -53.4694
   -49.0393 -44.2234 -39.8581 -33.8351 -33.6689 -33.6135 -32.8839 -32.8635
   -32.7754 -32.7345 -32.6878 -32.6651 -32.6333 -32.5804 -32.5361 -32.5000
   -32.4071 -32.3227 -32.0745 -31.9860 -31.8433 -30.8399 -30.6967 -30.4559
   -30.2768 -30.0755 -29.7857 -29.4406 -29.3032 -29.0294 -28.1746 -24.9801
   -24.7593 -22.1554 -20.2290 -18.7285 -17.9659  -9.3103  -9.2624  -8.1199
    -7.7377  -7.5274  -7.4471  -7.3161  -7.2582  -5.9365  -5.6651  -4.1047
    -3.6674  -2.9030  -2.7895  -2.5179  -2.4388  -2.2020  -2.0676  -1.9192
    -1.8911  -1.8329  -1.4499  -1.3423  -1.1931  -1.1489  -1.1373  -1.0182
    -0.8903  -0.8571  -0.8338  -0.7658  -0.5927  -0.5390  -0.5197  -0.0051
     0.1137   0.3861   0.5051   0.5742   0.6977   0.8103   0.8466   0.9118
     0.9683   1.0696   1.1556   1.2396   1.2822   1.3525   1.3923   1.4494
     1.5283   1.6257   1.6620   1.7197   1.7996   1.9338   2.0615   2.1022
     2.1989   2.2414   2.2798   2.3502   2.4006   2.5682   2.6429   2.6782
     2.8228   2.8951   2.9446   2.9954   3.0344   3.1156   3.1485   3.2394
     3.3066   3.4097   3.6767   3.7724   3.8490   3.9537

          k = 0.1667 0.4811 0.0000 ( 47608 PWs)   bands (ev):

  -177.7353-168.5312-138.2719-132.4434-128.2688-125.3599-124.8861-117.9460
  -109.9036 -99.4254 -99.2007 -99.1781 -91.2458 -86.4152 -82.4379 -70.8829
   -70.6773 -65.2687 -62.1421 -60.8116 -59.8264 -59.7997 -59.7534 -59.6678
   -59.5480 -59.5307 -59.5163 -59.4778 -57.4043 -56.7629 -56.5992 -56.5575
   -55.9845 -55.9658 -55.8957 -55.8776 -55.8335 -55.7761 -53.5933 -53.4694
   -49.0393 -44.2236 -39.8581 -33.8323 -33.6667 -33.6186 -32.8699 -32.8372
   -32.7914 -32.7513 -32.6787 -32.6613 -32.6425 -32.5987 -32.5234 -32.4940
   -32.3986 -32.3576 -32.0446 -31.9910 -31.8772 -30.7845 -30.6912 -30.5087
   -30.2423 -30.0638 -29.8232 -29.3780 -29.3059 -29.0850 -28.1730 -24.9801
   -24.7594 -22.1554 -20.2357 -18.7278 -17.9657  -9.3208  -8.7046  -7.9356
    -7.8629  -7.8074  -7.6851  -7.5214  -7.2704  -5.8605  -5.1047  -3.6589
    -3.5884  -3.5293  -2.7816  -2.5410  -2.3470  -2.0902  -2.0314  -1.9035
    -1.7184  -1.6821  -1.6410  -1.5874  -1.5608  -1.2144  -1.1817  -1.0765
    -1.0455  -0.9350  -0.7874  -0.6066  -0.5724  -0.3275  -0.1699  -0.1074
    -0.0479   0.1167   0.2561   0.2885   0.5109   0.5702   0.6334   0.7717
     0.8481   0.9364   1.0176   1.0531   1.1059   1.3375   1.4030   1.4433
     1.4885   1.5304   1.5750   1.7405   1.8098   1.9425   1.9790   2.1807
     2.2133   2.2792   2.2955   2.3868   2.4435   2.4511   2.5474   2.6928
     2.7278   2.7859   2.8550   2.9393   3.0966   3.1290   3.1657   3.3623
     3.4839   3.6567   3.7580   3.8545   3.8735   3.9223

          k = 0.1667-0.4811 0.0000 ( 47608 PWs)   bands (ev):

  -177.7353-168.5312-138.2719-132.4434-128.2688-125.3599-124.8862-117.9460
  -109.9036 -99.4254 -99.2007 -99.1781 -91.2458 -86.4151 -82.4379 -70.8829
   -70.6773 -65.2687 -62.1421 -60.8116 -59.8264 -59.7997 -59.7534 -59.6678
   -59.5480 -59.5307 -59.5163 -59.4778 -57.4043 -56.7629 -56.5992 -56.5574
   -55.9843 -55.9659 -55.8953 -55.8783 -55.8331 -55.7762 -53.5933 -53.4694
   -49.0393 -44.2237 -39.8581 -33.8323 -33.6666 -33.6188 -32.8823 -32.8351
   -32.7955 -32.7652 -32.6931 -32.6624 -32.6318 -32.5685 -32.5362 -32.5009
   -32.4215 -32.3101 -32.0800 -31.9937 -31.8356 -30.7663 -30.6525 -30.5673
   -30.2361 -30.0381 -29.8587 -29.3696 -29.2511 -29.1506 -28.1724 -24.9801
   -24.7594 -22.1554 -20.2407 -18.7281 -17.9659  -9.2258  -8.6080  -8.0788
    -7.7898  -7.6769  -7.6443  -7.5853  -7.2377  -6.2043  -5.1065  -3.9253
    -3.6147  -3.2683  -3.2490  -2.7831  -2.3076  -2.0460  -1.9600  -1.8672
    -1.7998  -1.7029  -1.6229  -1.5943  -1.3115  -1.2518  -1.2356  -1.1139
    -0.8618  -0.7811  -0.6869  -0.5148  -0.3439  -0.2363  -0.1480  -0.1277
     0.0613   0.1153   0.1429   0.2909   0.3639   0.5759   0.6483   0.7561
     0.8350   0.9416   1.0618   1.0967   1.1899   1.3129   1.3571   1.4110
     1.4883   1.6189   1.6715   1.7831   1.8885   2.0281   2.1507   2.1763
     2.2454   2.2946   2.3685   2.4125   2.4413   2.5377   2.6173   2.6647
     2.6987   2.7371   2.8267   2.9387   3.0234   3.0430   3.1893   3.3337
     3.4086   3.4269   3.7167   3.7918   3.8818   3.9802

          k = 0.1667-0.2887 0.0000 ( 47572 PWs)   bands (ev):

  -177.7353-168.5312-138.2719-132.4433-128.2688-125.3599-124.8861-117.9458
  -109.9036 -99.4254 -99.2007 -99.1781 -91.2458 -86.4151 -82.4378 -70.8829
   -70.6773 -65.2687 -62.1421 -60.8115 -59.8264 -59.7997 -59.7534 -59.6677
   -59.5480 -59.5307 -59.5163 -59.4778 -57.4043 -56.7650 -56.6012 -56.5532
   -55.9945 -55.9579 -55.9056 -55.8714 -55.8285 -55.7751 -53.5933 -53.4694
   -49.0393 -44.2237 -39.8580 -33.8350 -33.6688 -33.6137 -32.9120 -32.8608
   -32.7818 -32.7517 -32.6967 -32.6644 -32.6380 -32.5647 -32.5245 -32.5025
   -32.4253 -32.2636 -32.1264 -31.9869 -31.7835 -30.8072 -30.6498 -30.5389
   -30.2650 -30.0326 -29.8474 -29.4153 -29.2360 -29.1268 -28.1735 -24.9802
   -24.7594 -22.1555 -20.2385 -18.7291 -17.9664  -9.2040  -9.1066  -8.0677
    -7.6702  -7.4884  -7.2900  -7.2875  -7.2026  -6.6551  -5.6685  -4.4751
    -3.9978  -3.2769  -2.8554  -2.7222  -2.4690  -2.1158  -1.9561  -1.9392
    -1.6978  -1.6337  -1.5064  -1.4306  -1.4106  -1.3232  -0.9942  -0.8147
    -0.7201  -0.6692  -0.5326  -0.4475  -0.4188  -0.2860  -0.1909   0.0489
     0.0898   0.1948   0.3547   0.4645   0.5871   0.8175   0.9089   0.9789
     1.0070   1.1329   1.2322   1.2810   1.3452   1.4117   1.4335   1.5067
     1.5374   1.6042   1.7928   1.8385   1.9962   2.0667   2.1290   2.2355
     2.3001   2.3365   2.3651   2.4092   2.4724   2.5888   2.6174   2.6823
     2.7276   2.7956   2.9029   2.9819   3.0106   3.0729   3.1459   3.1913
     3.2882   3.4483   3.5345   3.5891   3.6530   3.6802

          k = 0.1667-0.0962 0.0000 ( 47501 PWs)   bands (ev):

  -177.7352-168.5310-138.2719-132.4432-128.2688-125.3599-124.8858-117.9457
  -109.9034 -99.4254 -99.2007 -99.1781 -91.2458 -86.4151 -82.4377 -70.8830
   -70.6773 -65.2687 -62.1420 -60.8115 -59.8264 -59.7997 -59.7534 -59.6675
   -59.5480 -59.5307 -59.5163 -59.4778 -57.4042 -56.7671 -56.6026 -56.5497
   -56.0018 -55.9527 -55.9129 -55.8667 -55.8247 -55.7740 -53.5933 -53.4693
   -49.0393 -44.2234 -39.8580 -33.8379 -33.6702 -33.6094 -32.9221 -32.8778
   -32.7733 -32.7325 -32.6997 -32.6680 -32.6406 -32.5739 -32.5094 -32.5010
   -32.4279 -32.2450 -32.1351 -31.9916 -31.7612 -30.8511 -30.6851 -30.4677
   -30.2960 -30.0564 -29.8011 -29.4583 -29.2764 -29.0475 -28.1751 -24.9803
   -24.7594 -22.1554 -20.2305 -18.7298 -17.9666  -9.5541  -9.0819  -8.2633
    -7.4856  -7.3653  -7.2427  -7.2202  -7.1214  -6.4059  -6.0112  -4.8157
    -4.4432  -3.1526  -3.0693  -2.4866  -2.1306  -2.0964  -1.8827  -1.7661
    -1.7546  -1.6158  -1.5025  -1.3929  -1.3419  -1.2540  -1.0434  -0.9448
    -0.8148  -0.7771  -0.7325  -0.6232  -0.4411   0.0056   0.0428   0.1966
     0.2510   0.3081   0.3962   0.6246   0.8078   1.0539   1.1284   1.1571
     1.2238   1.2618   1.3328   1.3602   1.4247   1.4824   1.5667   1.6385
     1.6789   1.7625   1.8011   1.9612   1.9997   2.0467   2.1492   2.1877
     2.2481   2.2940   2.4554   2.4711   2.6451   2.6622   2.6642   2.6773
     2.7069   2.8455   2.8660   2.8863   2.9651   3.0548   3.0906   3.2031
     3.4457   3.5177   3.5921   3.6052   3.6652   3.7199

          k = 0.3333 0.1925 0.0000 ( 47521 PWs)   bands (ev):

  -177.7350-168.5310-138.2719-132.4434-128.2688-125.3599-124.8854-117.9458
  -109.9032 -99.4254 -99.2004 -99.1785 -91.2458 -86.4152 -82.4377 -70.8829
   -70.6774 -65.2687 -62.1421 -60.8114 -59.8116 -59.7997 -59.7683 -59.6675
   -59.5476 -59.5311 -59.5161 -59.4780 -57.4042 -56.7641 -56.6008 -56.5546
   -55.9912 -55.9606 -55.9024 -55.8733 -55.8301 -55.7753 -53.5932 -53.4694
   -49.0393 -44.2232 -39.8581 -33.8342 -33.6687 -33.6148 -32.8933 -32.8572
   -32.7776 -32.7231 -32.6918 -32.6528 -32.6338 -32.5913 -32.5469 -32.4930
   -32.3860 -32.3350 -32.0902 -31.9594 -31.8493 -30.9042 -30.6228 -30.4704
   -30.3250 -30.0207 -29.7969 -29.5170 -29.2102 -29.0486 -28.1752 -24.9801
   -24.7594 -22.1553 -20.2237 -18.7287 -17.9655  -9.2925  -9.1081  -8.0364
    -7.8592  -7.7795  -7.5220  -7.4513  -7.0646  -5.7636  -5.5621  -3.8857
    -3.6521  -2.9353  -2.7055  -2.6765  -2.6227  -2.1760  -2.0672  -1.8451
    -1.7670  -1.7470  -1.6146  -1.5184  -1.3865  -1.1905  -1.1277  -1.0747
    -0.9092  -0.7717  -0.7491  -0.7358  -0.5950  -0.4817  -0.3912  -0.3038
     0.0351   0.1068   0.3233   0.4566   0.6031   0.6495   0.7551   0.8857
     0.9521   1.2291   1.2841   1.3689   1.3928   1.4423   1.4967   1.5326
     1.5844   1.6177   1.7952   1.8914   1.9474   1.9861   2.0516   2.1023
     2.2301   2.2483   2.3337   2.3915   2.4247   2.4334   2.4389   2.5117
     2.6182   2.6703   2.8498   2.9408   2.9942   3.1293   3.1926   3.2176
     3.2852   3.5204   3.6764   3.7698   3.8250   3.8783

          k = 0.3333 0.3849 0.0000 ( 47608 PWs)   bands (ev):

  -177.7352-168.5311-138.2719-132.4435-128.2688-125.3599-124.8858-117.9460
  -109.9035 -99.4254 -99.2004 -99.1785 -91.2458 -86.4152 -82.4378 -70.8829
   -70.6774 -65.2687 -62.1421 -60.8115 -59.8116 -59.7997 -59.7683 -59.6677
   -59.5476 -59.5311 -59.5161 -59.4780 -57.4042 -56.7628 -56.5993 -56.5575
   -55.9838 -55.9665 -55.8953 -55.8780 -55.8335 -55.7761 -53.5933 -53.4694
   -49.0393 -44.2234 -39.8582 -33.8324 -33.6670 -33.6183 -32.8708 -32.8341
   -32.7911 -32.7468 -32.6876 -32.6573 -32.6374 -32.5970 -32.5248 -32.4906
   -32.4063 -32.3483 -32.0433 -31.9923 -31.8707 -30.8767 -30.6334 -30.4812
   -30.2996 -30.0348 -29.8013 -29.4865 -29.2300 -29.0556 -28.1743 -24.9800
   -24.7594 -22.1553 -20.2278 -18.7281 -17.9652  -9.3346  -8.7243  -8.0123
    -7.9208  -7.8736  -7.6064  -7.5528  -7.2372  -5.6672  -5.2081  -3.5523
    -3.3828  -3.3308  -2.6138  -2.5824  -2.4034  -2.1679  -1.9899  -1.9706
    -1.8767  -1.8439  -1.6440  -1.6269  -1.5889  -1.2495  -1.1779  -1.0716
    -1.0393  -0.9878  -0.8663  -0.6742  -0.6250  -0.4024  -0.2500  -0.1601
    -0.0773   0.2059   0.2244   0.2567   0.4727   0.5228   0.6359   0.7896
     0.8288   0.9758   1.0128   1.1322   1.3450   1.3981   1.4451   1.5029
     1.6122   1.6164   1.6650   1.8271   1.8884   1.9825   2.0582   2.1534
     2.1883   2.2330   2.2907   2.3469   2.3697   2.4143   2.4568   2.5277
     2.5707   2.6272   2.7885   3.0877   3.1681   3.2436   3.2883   3.3268
     3.5212   3.5864   3.6185   3.7320   3.8743   3.9962

          k = 0.3333 0.5774 0.0000 ( 47664 PWs)   bands (ev):

  -177.7354-168.5313-138.2719-132.4436-128.2689-125.3599-124.8862-117.9460
  -109.9037 -99.4254 -99.2004 -99.1785 -91.2458 -86.4152 -82.4379 -70.8830
   -70.6774 -65.2687 -62.1421 -60.8117 -59.8116 -59.7997 -59.7683 -59.6679
   -59.5476 -59.5311 -59.5161 -59.4780 -57.4043 -56.7622 -56.5982 -56.5592
   -55.9759 -55.9736 -55.8890 -55.8830 -55.8352 -55.7766 -53.5933 -53.4694
   -49.0393 -44.2237 -39.8583 -33.8314 -33.6655 -33.6208 -32.8940 -32.8230
   -32.7923 -32.7667 -32.6924 -32.6521 -32.6339 -32.5769 -32.5470 -32.4925
   -32.4060 -32.3173 -32.0956 -31.9685 -31.8403 -30.8119 -30.6639 -30.5152
   -30.2560 -30.0558 -29.8257 -29.4133 -29.2714 -29.0892 -28.1730 -24.9800
   -24.7594 -22.1554 -20.2373 -18.7283 -17.9654  -9.2083  -8.2326  -8.0935
    -8.0150  -7.7882  -7.6546  -7.5528  -7.4946  -6.0072  -4.9622  -3.9566
    -3.4699  -3.4032  -2.7074  -2.6142  -2.5851  -2.1708  -2.0645  -1.9995
    -1.9155  -1.8195  -1.6562  -1.6152  -1.3790  -1.2789  -1.1585  -0.9823
    -0.9484  -0.7846  -0.6737  -0.4996  -0.4619  -0.4082  -0.3135  -0.0879
     0.0799   0.2154   0.2885   0.3327   0.4047   0.4842   0.5958   0.6258
     0.7322   0.8162   0.8934   1.1044   1.2902   1.3017   1.3300   1.4262
     1.6105   1.6851   1.7027   1.7433   1.9154   1.9734   2.1647   2.2610
     2.2758   2.3172   2.3615   2.3826   2.3981   2.4225   2.4484   2.4731
     2.5995   2.6631   2.7310   2.9995   3.0963   3.1883   3.2946   3.4024
     3.5180   3.6534   3.7683   3.9090   3.9518   4.0087

          k = 0.3333-0.3849 0.0000 ( 47608 PWs)   bands (ev):

  -177.7354-168.5312-138.2719-132.4434-128.2688-125.3599-124.8862-117.9458
  -109.9037 -99.4254 -99.2004 -99.1785 -91.2458 -86.4152 -82.4378 -70.8829
   -70.6773 -65.2687 -62.1421 -60.8117 -59.8116 -59.7997 -59.7683 -59.6678
   -59.5476 -59.5311 -59.5161 -59.4780 -57.4043 -56.7629 -56.5993 -56.5574
   -55.9834 -55.9668 -55.8942 -55.8798 -55.8326 -55.7763 -53.5933 -53.4694
   -49.0393 -44.2237 -39.8582 -33.8322 -33.6666 -33.6189 -32.9383 -32.8365
   -32.7814 -32.7605 -32.6853 -32.6522 -32.6429 -32.5798 -32.5431 -32.4930
   -32.3886 -32.2843 -32.1551 -31.9391 -31.8009 -30.7696 -30.6758 -30.5515
   -30.2404 -30.0552 -29.8510 -29.3674 -29.2841 -29.1280 -28.1726 -24.9801
   -24.7595 -22.1555 -20.2429 -18.7291 -17.9659  -9.0183  -8.5881  -7.9562
    -7.8856  -7.7549  -7.4759  -7.4118  -7.3429  -6.6404  -5.1941  -4.5700
    -3.6739  -3.3096  -3.2239  -2.5437  -2.2623  -2.1893  -2.1403  -1.8876
    -1.8535  -1.6037  -1.5132  -1.4491  -1.3876  -1.2126  -1.0895  -0.9714
    -0.8369  -0.7149  -0.6474  -0.4771  -0.3377  -0.2901  -0.1186  -0.0317
     0.0425   0.1289   0.1473   0.3186   0.3523   0.7392   0.8044   0.8597
     1.0086   1.0240   1.1005   1.2051   1.2861   1.3432   1.4022   1.4697
     1.6085   1.6397   1.7937   1.8106   1.9381   2.0273   2.1490   2.1956
     2.2429   2.3051   2.3488   2.3654   2.4112   2.4210   2.4576   2.5058
     2.5447   2.6248   2.8535   2.8982   2.9224   3.0371   3.2862   3.4357
     3.4802   3.5381   3.6266   3.6918   3.7112   3.8944

          k = 0.3333-0.1925 0.0000 ( 47521 PWs)   bands (ev):

  -177.7352-168.5311-138.2719-132.4432-128.2688-125.3599-124.8861-117.9456
  -109.9036 -99.4254 -99.2004 -99.1785 -91.2458 -86.4152 -82.4377 -70.8829
   -70.6772 -65.2687 -62.1420 -60.8115 -59.8116 -59.7997 -59.7683 -59.6677
   -59.5475 -59.5311 -59.5161 -59.4780 -57.4043 -56.7642 -56.6008 -56.5545
   -55.9910 -55.9607 -55.9020 -55.8744 -55.8294 -55.7756 -53.5933 -53.4693
   -49.0393 -44.2236 -39.8581 -33.8341 -33.6683 -33.6153 -32.9548 -32.8540
   -32.7709 -32.7447 -32.6860 -32.6528 -32.6466 -32.5885 -32.5303 -32.4939
   -32.3826 -32.2706 -32.1722 -31.9323 -31.7831 -30.8285 -30.6211 -30.5532
   -30.2776 -30.0255 -29.8507 -29.4373 -29.2054 -29.1404 -28.1735 -24.9802
   -24.7594 -22.1555 -20.2399 -18.7296 -17.9661  -9.0391  -8.9557  -7.9738
    -7.7499  -7.6428  -7.3802  -7.3596  -7.1689  -6.6239  -5.5585  -4.9137
    -3.7848  -3.6513  -2.9243  -2.6233  -2.2308  -2.1079  -1.9784  -1.7964
    -1.7262  -1.7038  -1.5919  -1.4667  -1.3517  -1.2839  -0.9374  -0.7519
    -0.7292  -0.6044  -0.4785  -0.4434  -0.3933  -0.2919  -0.1582  -0.0529
    -0.0227   0.1688   0.2037   0.2810   0.6155   0.7071   0.9153   1.0246
     1.1400   1.2104   1.2976   1.3612   1.3965   1.4935   1.5310   1.6049
     1.6691   1.7466   1.8058   1.8538   1.9533   2.0605   2.1011   2.1938
     2.2209   2.2220   2.2651   2.3900   2.4275   2.4380   2.4884   2.5438
     2.5730   2.7133   2.7762   2.8386   2.8812   2.9964   3.1709   3.2207
     3.2934   3.3593   3.5930   3.6063   3.6871   3.7289

          k = 0.3333 0.0000 0.0000 ( 47572 PWs)   bands (ev):

  -177.7352-168.5311-138.2719-132.4434-128.2688-125.3599-124.8858-117.9458
  -109.9034 -99.4254 -99.2004 -99.1785 -91.2458 -86.4152 -82.4378 -70.8830
   -70.6773 -65.2687 -62.1421 -60.8116 -59.8116 -59.7997 -59.7683 -59.6676
   -59.5475 -59.5311 -59.5161 -59.4780 -57.4042 -56.7649 -56.6013 -56.5532
   -55.9941 -55.9583 -55.9053 -55.8716 -55.8285 -55.7751 -53.5933 -53.4694
   -49.0393 -44.2234 -39.8582 -33.8351 -33.6690 -33.6135 -32.9338 -32.8627
   -32.7689 -32.7268 -32.6920 -32.6533 -32.6379 -32.5834 -32.5461 -32.4942
   -32.3851 -32.2893 -32.1447 -31.9430 -31.8020 -30.8856 -30.6191 -30.4984
   -30.3165 -30.0153 -29.8198 -29.4977 -29.2000 -29.0836 -28.1748 -24.9801
   -24.7594 -22.1554 -20.2304 -18.7295 -17.9659  -9.2286  -9.1073  -8.0809
    -7.6871  -7.6738  -7.4467  -7.3145  -7.1956  -6.0608  -5.7088  -4.5906
    -4.0198  -3.2383  -2.8342  -2.4229  -2.3054  -2.1090  -2.0256  -1.9423
    -1.8833  -1.7638  -1.6069  -1.5333  -1.4073  -1.2988  -1.0315  -0.8226
    -0.7325  -0.6332  -0.5994  -0.5528  -0.2889  -0.2450  -0.1840  -0.0711
    -0.0362   0.1536   0.4398   0.4920   0.6833   0.7528   0.8272   0.9643
     1.1081   1.1578   1.1960   1.3020   1.3583   1.4461   1.4975   1.6000
     1.6597   1.7721   1.7898   1.8839   2.0120   2.1119   2.1365   2.1542
     2.1879   2.3027   2.3654   2.3763   2.4188   2.4543   2.4750   2.5669
     2.6137   2.7449   2.8331   2.8771   2.9634   3.0251   3.1265   3.1847
     3.2758   3.4370   3.5085   3.5840   3.7860   3.8217

          k =-0.5000-0.2887 0.0000 ( 47568 PWs)   bands (ev):

  -177.7351-168.5310-138.2719-132.4435-128.2688-125.3599-124.8855-117.9459
  -109.9033 -99.4254 -99.2003 -99.1786 -91.2458 -86.4152 -82.4378 -70.8829
   -70.6774 -65.2687 -62.1421 -60.8115 -59.7997 -59.7962 -59.7837 -59.6675
   -59.5473 -59.5313 -59.5160 -59.4781 -57.4042 -56.7627 -56.5995 -56.5574
   -55.9828 -55.9676 -55.8938 -55.8799 -55.8330 -55.7760 -53.5932 -53.4694
   -49.0393 -44.2231 -39.8582 -33.8323 -33.6674 -33.6179 -32.8705 -32.8299
   -32.8000 -32.7358 -32.6928 -32.6573 -32.6355 -32.5960 -32.5255 -32.4888
   -32.4094 -32.3444 -32.0428 -31.9926 -31.8676 -30.9176 -30.5756 -30.5016
   -30.3340 -29.9936 -29.8112 -29.5332 -29.1552 -29.0854 -28.1749 -24.9800
   -24.7594 -22.1553 -20.2236 -18.7283 -17.9650  -9.3400  -8.4681  -8.4348
    -7.9738  -7.7726  -7.7355  -7.5296  -7.0563  -5.5780  -5.2221  -3.4105
    -3.2160  -3.1368  -3.1013  -2.7927  -2.4820  -2.1224  -2.0303  -1.7861
    -1.7582  -1.6455  -1.5857  -1.5411  -1.4901  -1.4309  -1.2398  -1.1713
    -1.0099  -0.9870  -0.9588  -0.6797  -0.6492  -0.3828  -0.3195  -0.2980
    -0.1409  -0.0960   0.0625   0.2035   0.4082   0.4296   0.6862   0.8401
     1.0397   1.1280   1.2945   1.3541   1.4544   1.5451   1.5514   1.5879
     1.7139   1.7634   1.7822   1.8591   1.9157   1.9558   2.0205   2.1009
     2.1134   2.1316   2.1873   2.2624   2.2851   2.3354   2.3543   2.4412
     2.4920   2.6846   2.7650   2.9970   3.0597   3.2262   3.2582   3.3461
     3.4094   3.4666   3.5043   3.8142   3.9574   3.9739

          k =-0.5000-0.0962 0.0000 ( 47608 PWs)   bands (ev):

  -177.7352-168.5311-138.2719-132.4435-128.2688-125.3599-124.8858-117.9460
  -109.9035 -99.4254 -99.2003 -99.1786 -91.2458 -86.4152 -82.4378 -70.8829
   -70.6774 -65.2687 -62.1421 -60.8116 -59.7997 -59.7962 -59.7837 -59.6676
   -59.5473 -59.5313 -59.5160 -59.4781 -57.4043 -56.7627 -56.5993 -56.5575
   -55.9833 -55.9671 -55.8946 -55.8790 -55.8332 -55.7761 -53.5933 -53.4694
   -49.0393 -44.2234 -39.8582 -33.8323 -33.6670 -33.6184 -32.8982 -32.8380
   -32.7894 -32.7385 -32.6882 -32.6482 -32.6347 -32.5897 -32.5507 -32.4904
   -32.3865 -32.3314 -32.0990 -31.9523 -31.8479 -30.8942 -30.5890 -30.5135
   -30.3169 -30.0052 -29.8203 -29.5074 -29.1732 -29.0956 -28.1743 -24.9800
   -24.7595 -22.1554 -20.2288 -18.7286 -17.9652  -9.2408  -8.6638  -8.1112
    -7.8899  -7.8142  -7.6325  -7.5830  -7.2136  -5.7761  -5.2477  -3.8597
    -3.3012  -3.2311  -3.0905  -2.5888  -2.3632  -2.3102  -2.0537  -1.9496
    -1.8466  -1.8227  -1.7794  -1.6681  -1.2431  -1.2198  -1.1524  -1.1178
    -1.0076  -0.7876  -0.6540  -0.6481  -0.3680  -0.2903  -0.2007  -0.0784
    -0.0689   0.0061   0.1749   0.2834   0.3626   0.5096   0.5432   0.7996
     0.9503   1.0627   1.1244   1.2344   1.3554   1.4108   1.4597   1.5183
     1.5830   1.7187   1.8529   1.8984   1.9715   2.0038   2.0627   2.1037
     2.1499   2.1918   2.2464   2.2662   2.3196   2.3977   2.4665   2.5276
     2.5834   2.6676   2.7877   2.9514   3.0704   3.1443   3.2459   3.2998
     3.3436   3.4844   3.7226   3.7993   3.8945   3.9480

          k =-0.5000 0.0962 0.0000 ( 47608 PWs)   bands (ev):

  -177.7354-168.5312-138.2719-132.4434-128.2688-125.3599-124.8862-117.9458
  -109.9037 -99.4254 -99.2003 -99.1786 -91.2458 -86.4152 -82.4378 -70.8829
   -70.6773 -65.2687 -62.1421 -60.8117 -59.7997 -59.7962 -59.7837 -59.6678
   -59.5473 -59.5314 -59.5160 -59.4781 -57.4043 -56.7628 -56.5993 -56.5574
   -55.9830 -55.9672 -55.8939 -55.8801 -55.8326 -55.7763 -53.5933 -53.4694
   -49.0393 -44.2236 -39.8582 -33.8323 -33.6667 -33.6188 -32.9466 -32.8378
   -32.7833 -32.7490 -32.6758 -32.6487 -32.6344 -32.5877 -32.5600 -32.4907
   -32.3597 -32.3062 -32.1614 -31.9156 -31.8145 -30.8305 -30.6341 -30.5358
   -30.2734 -30.0380 -29.8386 -29.4370 -29.2315 -29.1125 -28.1733 -24.9801
   -24.7595 -22.1555 -20.2390 -18.7293 -17.9656  -9.0157  -8.6241  -7.9193
    -7.8856  -7.7736  -7.6308  -7.4640  -7.3519  -6.3120  -5.2358  -4.6449
    -3.6610  -3.2580  -3.1359  -2.4766  -2.3573  -2.2273  -2.1835  -1.8893
    -1.8295  -1.6107  -1.5493  -1.5027  -1.3876  -1.1870  -1.1145  -0.9643
    -0.8507  -0.7000  -0.5899  -0.4293  -0.3275  -0.2954  -0.1902  -0.1275
     0.0001   0.1044   0.2040   0.3483   0.4334   0.5687   0.7717   0.9563
     1.0320   1.0946   1.1666   1.2966   1.3779   1.4007   1.4132   1.4493
     1.4893   1.7539   1.8484   1.9115   1.9449   2.0131   2.0478   2.1113
     2.1767   2.1998   2.2354   2.2757   2.3111   2.3538   2.3910   2.4780
     2.5272   2.6978   2.8147   2.8901   2.9482   3.0737   3.1931   3.4186
     3.5169   3.5512   3.6447   3.7743   3.8010   3.8276

          k =-0.5000-0.8660 0.0000 ( 47568 PWs)   bands (ev):

  -177.7353-168.5311-138.2719-132.4433-128.2688-125.3599-124.8862-117.9457
  -109.9037 -99.4254 -99.2003 -99.1786 -91.2458 -86.4152 -82.4378 -70.8829
   -70.6773 -65.2687 -62.1421 -60.8117 -59.7997 -59.7962 -59.7837 -59.6677
   -59.5473 -59.5314 -59.5160 -59.4781 -57.4043 -56.7628 -56.5995 -56.5572
   -55.9822 -55.9680 -55.8921 -55.8825 -55.8319 -55.7764 -53.5932 -53.4694
   -49.0393 -44.2237 -39.8581 -33.8322 -33.6668 -33.6188 -32.9676 -32.8346
   -32.7870 -32.7511 -32.6761 -32.6521 -32.6308 -32.5922 -32.5512 -32.4908
   -32.3494 -32.2948 -32.1859 -31.9015 -31.8001 -30.7712 -30.6859 -30.5452
   -30.2426 -30.0637 -29.8475 -29.3650 -29.2991 -29.1193 -28.1727 -24.9801
   -24.7595 -22.1555 -20.2440 -18.7296 -17.9658  -8.8872  -8.3498  -8.3168
    -7.8522  -7.6649  -7.6158  -7.3077  -7.1956  -6.8126  -5.1975  -4.9142
    -3.8777  -3.4754  -2.9232  -2.8983  -2.2499  -2.1019  -1.8922  -1.8186
    -1.7442  -1.5333  -1.4490  -1.3067  -1.3009  -1.1595  -1.1288  -0.9835
    -0.7515  -0.6812  -0.6732  -0.4924  -0.4830  -0.4041  -0.2197  -0.1452
    -0.0402   0.1453   0.1473   0.1744   0.4818   0.6367   1.0154   1.1673
     1.1727   1.1990   1.3243   1.3790   1.3956   1.4530   1.5465   1.5692
     1.6471   1.7234   1.7887   1.8680   1.9097   2.0047   2.0218   2.0671
     2.1211   2.1659   2.1731   2.1821   2.1994   2.2904   2.3194   2.4194
     2.5207   2.5871   2.7160   2.7368   2.9493   3.1293   3.2499   3.3373
     3.5035   3.6725   3.6810   3.7243   3.7440   3.8310

     the Fermi energy is     1.9068 ev
     (compare with:     3.1844 eV, computed in scf)

     Writing all to output data dir ./outdir/hetero_r0.save/ :
     XML data file, pseudopotentials, collected wavefunctions
 
     init_run     :     48.72s CPU      7.50s WALL (       1 calls)
     electrons    :     68.02s CPU     66.56s WALL (       1 calls)

     Called by init_run:
     wfcinit      :      0.00s CPU      0.00s WALL (       1 calls)
     potinit      :     43.79s CPU      2.83s WALL (       1 calls)
     hinit0       :      1.89s CPU      1.41s WALL (       1 calls)

     Called by electrons:
     c_bands      :     68.02s CPU     66.56s WALL (       1 calls)
     v_of_rho     :      0.05s CPU      0.07s WALL (       1 calls)
     newd         :      2.69s CPU      2.68s WALL (       1 calls)
     PAW_pot      :      1.80s CPU      0.19s WALL (       1 calls)

     Called by c_bands:
     init_us_2    :      0.06s CPU      0.05s WALL (      38 calls)
     cegterg      :     59.84s CPU     58.11s WALL (      38 calls)

     Called by *egterg:
     cdiaghg      :      9.64s CPU     10.31s WALL (     464 calls)
                                       10.31s GPU  (     464 calls)
     h_psi        :     22.22s CPU     20.91s WALL (     502 calls)
     s_psi        :      5.01s CPU      4.95s WALL (     502 calls)
     g_psi        :      0.10s CPU      0.10s WALL (     426 calls)

     Called by h_psi:
     h_psi:calbec :      0.06s CPU      0.16s WALL (     502 calls)
     vloc_psi     :     15.95s CPU     14.60s WALL (     502 calls)
                                       14.60s GPU  (     502 calls)
     add_vuspsi   :      6.16s CPU      6.09s WALL (     502 calls)

     General routines
     calbec       :      0.05s CPU      0.16s WALL (     502 calls)
     fft          :     34.66s CPU      1.97s WALL (      23 calls)
                                        0.02s GPU  (      21 calls)
     ffts         :      7.17s CPU      0.47s WALL (       2 calls)
     fftw         :      0.07s CPU     12.75s WALL (    6744 calls)
                                       12.69s GPU  (    6744 calls)
     interpolate  :     41.90s CPU      2.47s WALL (       2 calls)
     davcio       :      0.97s CPU      0.86s WALL (      80 calls)
 
 
     PWSCF        :   1m58.64s CPU   1m15.89s WALL

 
   This run was terminated on:  20:37:33  15Jun2026            

=------------------------------------------------------------------------------=
   JOB DONE.
=------------------------------------------------------------------------------=
