
     Program PWSCF v.7.5 starts on 15Jun2026 at 20:37:33 

     This program is part of the open-source Quantum ESPRESSO suite
     for quantum simulation of materials; please cite
         "P. Giannozzi et al., J. Phys.:Condens. Matter 21 395502 (2009);
         "P. Giannozzi et al., J. Phys.:Condens. Matter 29 465901 (2017);
         "P. Giannozzi et al., J. Chem. Phys. 152 154105 (2020);
          URL http://www.quantum-espresso.org", 
     in publications or presentations arising from this work. More details at
     http://www.quantum-espresso.org/quote

     Serial multi-threaded version, running on   32 processor cores
     11062 MiB available memory on the printing compute node when the environment starts
 
     Reading input from inputs/nscf_hetero_r0_1h.in

     Current dimensions of program PWSCF are:
     Max number of different atomic species (ntypx) = 10
     Max number of k-points (npk) =  40000
     Max angular momentum in pseudopotentials (lmaxx) =  4
     Message from routine input:
     WARNING: "startingwfc" set to atomic+random may spoil restart
     file Mg.pbe-n-kjpaw_psl.0.3.0.UPF: wavefunction(s)  3S renormalized
     file C.pbe-n-kjpaw_psl.1.0.0.UPF: wavefunction(s)  2S 2P renormalized
 
 
     G-vector sticks info
     --------------------
     sticks:   dense  smooth     PW     G-vecs:    dense   smooth      PW
     Sum        3877    1555    451              1503857   380257   60421
 
     Using Slab Decomposition
 


     bravais-lattice index     =            0
     lattice parameter (alat)  =       9.6906  a.u.
     unit-cell volume          =    6059.7568 (a.u.)^3
     number of atoms/cell      =           34
     number of atomic types    =            5
     number of electrons       =       265.00
     number of Kohn-Sham states=          160
     kinetic-energy cutoff     =      60.0000  Ry
     charge density cutoff     =     600.0000  Ry
     Exchange-correlation= PBE
                           (   1   4   3   4   0   0   0)

     GPU acceleration is ACTIVE.  1 visible GPUs per MPI rank


     celldm(1)=   9.690567  celldm(2)=   0.000000  celldm(3)=   0.000000
     celldm(4)=   0.000000  celldm(5)=   0.000000  celldm(6)=   0.000000

     crystal axes: (cart. coord. in units of alat)
               a(1) = (   1.000000   0.000000   0.000000 )  
               a(2) = (  -0.500000   0.866025   0.000000 )  
               a(3) = (   0.000000   0.000000   7.689130 )  

     reciprocal axes: (cart. coord. in units 2 pi/alat)
               b(1) = (  1.000000  0.577351 -0.000000 )  
               b(2) = (  0.000000  1.154701  0.000000 )  
               b(3) = (  0.000000 -0.000000  0.130054 )  


     PseudoPot. # 1 for Mg read from file:
     /home/x/Workspace/3-hEspesso/pseudo/Mg.pbe-n-kjpaw_psl.0.3.0.UPF
     MD5 check sum: 24ecedc7f3e3cbe212e682f4413594e4
     Pseudo is Projector augmented-wave + core cor, Zval =  2.0
     Generated using "atomic" code by A. Dal Corso  v.5.0.99 svn rev. 10869
     Shape of augmentation charge: PSQ
     Using radial grid of 1129 points,  4 beta functions with: 
                l(1) =   0
                l(2) =   0
                l(3) =   1
                l(4) =   1
     Q(r) pseudized with 0 coefficients 


     PseudoPot. # 2 for Ni read from file:
     /home/x/Workspace/3-hEspesso/pseudo/ni_pbe_v1.4.uspp.F.UPF
     MD5 check sum: 1ee80287db30b12d2bc1f57a5b5d6409
     Pseudo is Ultrasoft + core correction, Zval = 18.0
     Generated by new atomic code, or converted to UPF format
     Using radial grid of  865 points,  6 beta functions with: 
                l(1) =   0
                l(2) =   0
                l(3) =   1
                l(4) =   1
                l(5) =   2
                l(6) =   2
     Q(r) pseudized with 10 coefficients,  rinner =    0.980   0.980   0.980
                                                       0.980   0.980

     PseudoPot. # 3 for Ti read from file:
     /home/x/Workspace/3-hEspesso/pseudo/ti_pbe_v1.4.uspp.F.UPF
     MD5 check sum: 88a00a6731bd790ddea75d31a80cb452
     Pseudo is Ultrasoft + core correction, Zval = 12.0
     Generated by new atomic code, or converted to UPF format
     Using radial grid of  851 points,  6 beta functions with: 
                l(1) =   0
                l(2) =   0
                l(3) =   1
                l(4) =   1
                l(5) =   2
                l(6) =   2
     Q(r) pseudized with  6 coefficients,  rinner =    1.000   1.000   1.000
                                                       1.000   1.000

     PseudoPot. # 4 for C  read from file:
     /home/x/Workspace/3-hEspesso/pseudo/C.pbe-n-kjpaw_psl.1.0.0.UPF
     MD5 check sum: 5d2aebdfa2cae82b50a7e79e9516da0f
     Pseudo is Projector augmented-wave + core cor, Zval =  4.0
     Generated using "atomic" code by A. Dal Corso  v.5.1
     Shape of augmentation charge: PSQ
     Using radial grid of 1073 points,  4 beta functions with: 
                l(1) =   0
                l(2) =   0
                l(3) =   1
                l(4) =   1
     Q(r) pseudized with 0 coefficients 


     PseudoPot. # 5 for H  read from file:
     /home/x/Workspace/3-hEspesso/pseudo/H.pbe-rrkjus_psl.1.0.0.UPF
     MD5 check sum: f52b6d4d1c606e5624b1dc7b2218f220
     Pseudo is Ultrasoft, Zval =  1.0
     Generated using "atomic" code by A. Dal Corso  v.5.1
     Using radial grid of  929 points,  2 beta functions with: 
                l(1) =   0
                l(2) =   0
     Q(r) pseudized with 0 coefficients 


     atomic species   valence    mass     pseudopotential
     Mg                2.00    24.30500     Mg( 1.00)
     Ni               18.00    58.69340     Ni( 1.00)
     Ti               12.00    47.86700     Ti( 1.00)
     C                 4.00    12.01100     C ( 1.00)
     H                 1.00     1.00794     H ( 1.00)

     Starting magnetic structure 
     atomic species   magnetization
     Mg              0.000
     Ni              0.300
     Ti              0.400
     C               0.000
     H               0.000

     No symmetry found



   Cartesian axes

     site n.     atom                  positions (alat units)
         1        Mg     tau(   1) = (  -0.4994777   0.5902358   2.5798801  )
         2        Mg     tau(   2) = (  -0.0092475   0.2820382   1.6617510  )
         3        Mg     tau(   3) = (   0.4960616   0.0102703   2.4812340  )
         4        Mg     tau(   4) = (   0.5090952   0.5878496   1.6617917  )
         5        Mg     tau(   5) = (   0.2523399   0.7230388   0.8124737  )
         6        Mg     tau(   6) = (   0.2476600   0.1429866   0.8124737  )
         7        Mg     tau(   7) = (   0.2440256   0.4395362   2.1347012  )
         8        Mg     tau(   8) = (   0.5030555   0.0096784   1.9253345  )
         9        Mg     tau(   9) = (  -0.0192728   0.2793250   2.5775055  )
        10        Mg     tau(  10) = (   0.5000000   0.0000000   1.3661271  )
        11        Mg     tau(  11) = (  -0.2500000   0.4330127   1.1037408  )
        12        Mg     tau(  12) = (  -0.2500000   0.4330127   0.5212067  )
        13        Ni     tau(  13) = (   0.2500000   0.4330127   1.2349339  )
        14        Ni     tau(  14) = (   0.5000000   0.0000000   0.3900135  )
        15        Ni     tau(  15) = (  -0.2541514   0.4404560   2.1336463  )
        16        Ni     tau(  16) = (   0.0000000   0.0000000   1.2349339  )
        17        Ni     tau(  17) = (   0.0000000   0.0000000   0.3900135  )
        18        Ni     tau(  18) = (   0.0045831   0.0018692   2.1334901  )
        19        Ti     tau(  19) = (  -0.1703025   0.0184264   3.5274911  )
        20        Ti     tau(  20) = (  -0.0038374   0.3070973   3.9969841  )
        21        Ti     tau(  21) = (  -0.3344492   0.8818341   3.0635976  )
        22        C      tau(  22) = (  -0.3371567   0.8843687   3.7861256  )
        23        C      tau(  23) = (  -0.0036234   0.3075731   3.2781373  )
        24        Ti     tau(  24) = (  -0.1707726   0.5955572   3.5305937  )
        25        Ti     tau(  25) = (   0.4960772   0.0186401   3.9964934  )
        26        Ti     tau(  26) = (   0.1585200   0.5963319   3.0589533  )
        27        C      tau(  27) = (   0.1624081   0.5959458   3.7857535  )
        28        C      tau(  28) = (   0.4963793   0.0177038   3.2775986  )
        29        Ti     tau(  29) = (   0.3292295   0.3074880   3.5275950  )
        30        Ti     tau(  30) = (   0.4955933   0.5958818   3.9971002  )
        31        Ti     tau(  31) = (  -0.3361071   0.3089687   3.0645043  )
        32        C      tau(  32) = (  -0.3372806   0.3073586   3.7863617  )
        33        C      tau(  33) = (   0.4956427   0.5960248   3.2780087  )
        34        H      tau(  34) = (  -0.1766740   0.5919615   2.8616091  )

     --------------------------------------------
     DFT-D3 Dispersion Correction (3-body terms):
     --------------------------------------------
       Reference C6 values for interpolation: 

         atom   Coordination number   C6
         H          0.912             6.05
         H          0.000            15.18
         C          0.000            98.23
         C          0.987            86.49
         C          1.998            58.72
         C          2.999            51.56
         C          3.984            36.41
         Mg         0.000          1366.75
         Mg         0.963           902.54
         Mg         1.950           351.12
         Ti         0.000          2723.84
         Ti         1.830           604.00
         Ti         3.868           643.18
         Ni         0.000          1149.49
         Ni         1.794           356.66
         Ni         6.546           257.56
         Ni         6.292           283.75

       Values used:

         atom   Coordination number  R0_AB[au]  C6      C8
         Mg        10.884            3.292    351.12  31436.69
         Mg        10.857            3.292    351.12  31436.69
         Mg        10.093            3.292    351.12  31436.69
         Mg        10.897            3.292    351.12  31436.69
         Mg        10.159            3.292    351.12  31436.69
         Mg        10.159            3.292    351.12  31436.69
         Mg        11.216            3.292    351.12  31436.69
         Mg        10.674            3.292    351.12  31436.69
         Mg        10.700            3.292    351.12  31436.69
         Mg        10.830            3.292    351.12  31436.69
         Mg        10.803            3.292    351.12  31436.69
         Mg         7.618            3.292    351.12  31436.69
         Ni         8.402            3.162    257.99  21617.83
         Ni         4.856            3.162    282.64  23682.87
         Ni         8.476            3.162    257.93  21612.93
         Ni         8.495            3.162    257.92  21611.76
         Ni         4.870            3.162    282.60  23680.25
         Ni         8.549            3.162    257.88  21608.70
         Ti        16.190            3.557    643.18  76289.64
         Ti        10.683            3.557    643.18  76289.64
         Ti        13.432            3.557    643.18  76289.64
         C          6.032            2.750     36.41   1053.14
         C          6.068            2.750     36.41   1053.14
         Ti        16.222            3.557    643.18  76289.64
         Ti        10.686            3.557    643.18  76289.64
         Ti        13.321            3.557    643.18  76289.64
         C          6.032            2.750     36.41   1053.14
         C          6.057            2.750     36.41   1053.14
         Ti        16.191            3.557    643.18  76289.64
         Ti        10.682            3.557    643.18  76289.64
         Ti        13.472            3.557    643.18  76289.64
         C          6.031            2.750     36.41   1053.14
         C          6.068            2.750     36.41   1053.14
         H          2.485            2.062      6.05     73.18

         Molecular C6 ( Ry / a.u.^6 ) =    343580.21


     number of k points=    20  Marzari-Vanderbilt smearing, width (Ry)=  0.0200
                       cart. coord. in units 2pi/alat
        k(    1) = (   0.0000000   0.0000000   0.0000000), wk =   0.0277778
        k(    2) = (   0.0000000   0.1924502   0.0000000), wk =   0.0555556
        k(    3) = (   0.0000000   0.3849004   0.0000000), wk =   0.0555556
        k(    4) = (   0.0000000  -0.5773505   0.0000000), wk =   0.0277778
        k(    5) = (   0.1666667   0.0962251   0.0000000), wk =   0.0555556
        k(    6) = (   0.1666667   0.2886753   0.0000000), wk =   0.0555556
        k(    7) = (   0.1666667   0.4811254   0.0000000), wk =   0.0555556
        k(    8) = (   0.1666667  -0.4811254   0.0000000), wk =   0.0555556
        k(    9) = (   0.1666667  -0.2886753   0.0000000), wk =   0.0555556
        k(   10) = (   0.1666667  -0.0962251   0.0000000), wk =   0.0555556
        k(   11) = (   0.3333333   0.1924502   0.0000000), wk =   0.0555556
        k(   12) = (   0.3333333   0.3849004   0.0000000), wk =   0.0555556
        k(   13) = (   0.3333333   0.5773505   0.0000000), wk =   0.0555556
        k(   14) = (   0.3333333  -0.3849004   0.0000000), wk =   0.0555556
        k(   15) = (   0.3333333  -0.1924502   0.0000000), wk =   0.0555556
        k(   16) = (   0.3333333   0.0000000   0.0000000), wk =   0.0555556
        k(   17) = (  -0.5000000  -0.2886753   0.0000000), wk =   0.0277778
        k(   18) = (  -0.5000000  -0.0962251   0.0000000), wk =   0.0555556
        k(   19) = (  -0.5000000   0.0962251   0.0000000), wk =   0.0555556
        k(   20) = (  -0.5000000  -0.8660258   0.0000000), wk =   0.0277778

     Dense  grid:  1503857 G-vectors     FFT dimensions: (  75,  75, 600)

     Smooth grid:   380257 G-vectors     FFT dimensions: (  48,  48, 375)

     Estimated max dynamical RAM per process >       5.65 GB

     Atomic positions and unit cell read from directory:
     ./outdir/hetero_r0_1h.save/
     Atomic positions from file used, from input discarded
 

     Check: negative core charge=   -0.000001
     Generating pointlists ...
     new r_m :   0.1767 (alat units)  1.7126 (a.u.) for type    1
     new r_m :   0.2025 (alat units)  1.9621 (a.u.) for type    2
     new r_m :   0.1580 (alat units)  1.5310 (a.u.) for type    3
     new r_m :   0.1625 (alat units)  1.5750 (a.u.) for type    4
     new r_m :   0.1580 (alat units)  1.5310 (a.u.) for type    5

     The potential is recalculated from file :
     ./outdir/hetero_r0_1h.save/charge-density


     negative rho (up, down):  8.117E+00 8.019E+00
     Starting wfcs are  241 randomized atomic wfcs

     Band Structure Calculation
     Calculation restarted from kpoint #    31
     Davidson diagonalization with overlap

     ethr =  1.00E-06,  avg # of iterations =  8.8

     total cpu time spent up to now is       38.9 secs

     End of band structure calculation

 ------ SPIN UP ------------


          k = 0.0000 0.0000 0.0000 ( 47433 PWs)   bands (ev):

     0.0000   0.0000   0.0000   0.0000   0.0000   0.0000   0.0000   0.0000
     0.0000   0.0000   0.0000   0.0000   0.0000   0.0000   0.0000   0.0000
     0.0000   0.0000   0.0000   0.0000   0.0000   0.0000   0.0000   0.0000
     0.0000   0.0000   0.0000   0.0000   0.0000   0.0000   0.0000   0.0000
     0.0000   0.0000   0.0000   0.0000   0.0000   0.0000   0.0000   0.0000
     0.0000   0.0000   0.0000   0.0000   0.0000   0.0000   0.0000   0.0000
     0.0000   0.0000   0.0000   0.0000   0.0000   0.0000   0.0000   0.0000
     0.0000   0.0000   0.0000   0.0000   0.0000   0.0000   0.0000   0.0000
     0.0000   0.0000   0.0000   0.0000   0.0000   0.0000   0.0000   0.0000
     0.0000   0.0000   0.0000   0.0000   0.0000   0.0000   0.0000   0.0000
     0.0000   0.0000   0.0000   0.0000   0.0000   0.0000   0.0000   0.0000
     0.0000   0.0000   0.0000   0.0000   0.0000   0.0000   0.0000   0.0000
     0.0000   0.0000   0.0000   0.0000   0.0000   0.0000   0.0000   0.0000
     0.0000   0.0000   0.0000   0.0000   0.0000   0.0000   0.0000   0.0000
     0.0000   0.0000   0.0000   0.0000   0.0000   0.0000   0.0000   0.0000
     0.0000   0.0000   0.0000   0.0000   0.0000   0.0000   0.0000   0.0000
     0.0000   0.0000   0.0000   0.0000   0.0000   0.0000   0.0000   0.0000
     0.0000   0.0000   0.0000   0.0000   0.0000   0.0000   0.0000   0.0000
     0.0000   0.0000   0.0000   0.0000   0.0000   0.0000   0.0000   0.0000
     0.0000   0.0000   0.0000   0.0000   0.0000   0.0000   0.0000   0.0000

          k = 0.0000 0.1925 0.0000 ( 47501 PWs)   bands (ev):

     0.0000   0.0000   0.0000   0.0000   0.0000   0.0000   0.0000   0.0000
     0.0000   0.0000   0.0000   0.0000   0.0000   0.0000   0.0000   0.0000
     0.0000   0.0000   0.0000   0.0000   0.0000   0.0000   0.0000   0.0000
     0.0000   0.0000   0.0000   0.0000   0.0000   0.0000   0.0000   0.0000
     0.0000   0.0000   0.0000   0.0000   0.0000   0.0000   0.0000   0.0000
     0.0000   0.0000   0.0000   0.0000   0.0000   0.0000   0.0000   0.0000
     0.0000   0.0000   0.0000   0.0000   0.0000   0.0000   0.0000   0.0000
     0.0000   0.0000   0.0000   0.0000   0.0000   0.0000   0.0000   0.0000
     0.0000   0.0000   0.0000   0.0000   0.0000   0.0000   0.0000   0.0000
     0.0000   0.0000   0.0000   0.0000   0.0000   0.0000   0.0000   0.0000
     0.0000   0.0000   0.0000   0.0000   0.0000   0.0000   0.0000   0.0000
     0.0000   0.0000   0.0000   0.0000   0.0000   0.0000   0.0000   0.0000
     0.0000   0.0000   0.0000   0.0000   0.0000   0.0000   0.0000   0.0000
     0.0000   0.0000   0.0000   0.0000   0.0000   0.0000   0.0000   0.0000
     0.0000   0.0000   0.0000   0.0000   0.0000   0.0000   0.0000   0.0000
     0.0000   0.0000   0.0000   0.0000   0.0000   0.0000   0.0000   0.0000
     0.0000   0.0000   0.0000   0.0000   0.0000   0.0000   0.0000   0.0000
     0.0000   0.0000   0.0000   0.0000   0.0000   0.0000   0.0000   0.0000
     0.0000   0.0000   0.0000   0.0000   0.0000   0.0000   0.0000   0.0000
     0.0000   0.0000   0.0000   0.0000   0.0000   0.0000   0.0000   0.0000

          k = 0.0000 0.3849 0.0000 ( 47521 PWs)   bands (ev):

     0.0000   0.0000   0.0000   0.0000   0.0000   0.0000   0.0000   0.0000
     0.0000   0.0000   0.0000   0.0000   0.0000   0.0000   0.0000   0.0000
     0.0000   0.0000   0.0000   0.0000   0.0000   0.0000   0.0000   0.0000
     0.0000   0.0000   0.0000   0.0000   0.0000   0.0000   0.0000   0.0000
     0.0000   0.0000   0.0000   0.0000   0.0000   0.0000   0.0000   0.0000
     0.0000   0.0000   0.0000   0.0000   0.0000   0.0000   0.0000   0.0000
     0.0000   0.0000   0.0000   0.0000   0.0000   0.0000   0.0000   0.0000
     0.0000   0.0000   0.0000   0.0000   0.0000   0.0000   0.0000   0.0000
     0.0000   0.0000   0.0000   0.0000   0.0000   0.0000   0.0000   0.0000
     0.0000   0.0000   0.0000   0.0000   0.0000   0.0000   0.0000   0.0000
     0.0000   0.0000   0.0000   0.0000   0.0000   0.0000   0.0000   0.0000
     0.0000   0.0000   0.0000   0.0000   0.0000   0.0000   0.0000   0.0000
     0.0000   0.0000   0.0000   0.0000   0.0000   0.0000   0.0000   0.0000
     0.0000   0.0000   0.0000   0.0000   0.0000   0.0000   0.0000   0.0000
     0.0000   0.0000   0.0000   0.0000   0.0000   0.0000   0.0000   0.0000
     0.0000   0.0000   0.0000   0.0000   0.0000   0.0000   0.0000   0.0000
     0.0000   0.0000   0.0000   0.0000   0.0000   0.0000   0.0000   0.0000
     0.0000   0.0000   0.0000   0.0000   0.0000   0.0000   0.0000   0.0000
     0.0000   0.0000   0.0000   0.0000   0.0000   0.0000   0.0000   0.0000
     0.0000   0.0000   0.0000   0.0000   0.0000   0.0000   0.0000   0.0000

          k = 0.0000-0.5774 0.0000 ( 47568 PWs)   bands (ev):

     0.0000   0.0000   0.0000   0.0000   0.0000   0.0000   0.0000   0.0000
     0.0000   0.0000   0.0000   0.0000   0.0000   0.0000   0.0000   0.0000
     0.0000   0.0000   0.0000   0.0000   0.0000   0.0000   0.0000   0.0000
     0.0000   0.0000   0.0000   0.0000   0.0000   0.0000   0.0000   0.0000
     0.0000   0.0000   0.0000   0.0000   0.0000   0.0000   0.0000   0.0000
     0.0000   0.0000   0.0000   0.0000   0.0000   0.0000   0.0000   0.0000
     0.0000   0.0000   0.0000   0.0000   0.0000   0.0000   0.0000   0.0000
     0.0000   0.0000   0.0000   0.0000   0.0000   0.0000   0.0000   0.0000
     0.0000   0.0000   0.0000   0.0000   0.0000   0.0000   0.0000   0.0000
     0.0000   0.0000   0.0000   0.0000   0.0000   0.0000   0.0000   0.0000
     0.0000   0.0000   0.0000   0.0000   0.0000   0.0000   0.0000   0.0000
     0.0000   0.0000   0.0000   0.0000   0.0000   0.0000   0.0000   0.0000
     0.0000   0.0000   0.0000   0.0000   0.0000   0.0000   0.0000   0.0000
     0.0000   0.0000   0.0000   0.0000   0.0000   0.0000   0.0000   0.0000
     0.0000   0.0000   0.0000   0.0000   0.0000   0.0000   0.0000   0.0000
     0.0000   0.0000   0.0000   0.0000   0.0000   0.0000   0.0000   0.0000
     0.0000   0.0000   0.0000   0.0000   0.0000   0.0000   0.0000   0.0000
     0.0000   0.0000   0.0000   0.0000   0.0000   0.0000   0.0000   0.0000
     0.0000   0.0000   0.0000   0.0000   0.0000   0.0000   0.0000   0.0000
     0.0000   0.0000   0.0000   0.0000   0.0000   0.0000   0.0000   0.0000

          k = 0.1667 0.0962 0.0000 ( 47501 PWs)   bands (ev):

     0.0000   0.0000   0.0000   0.0000   0.0000   0.0000   0.0000   0.0000
     0.0000   0.0000   0.0000   0.0000   0.0000   0.0000   0.0000   0.0000
     0.0000   0.0000   0.0000   0.0000   0.0000   0.0000   0.0000   0.0000
     0.0000   0.0000   0.0000   0.0000   0.0000   0.0000   0.0000   0.0000
     0.0000   0.0000   0.0000   0.0000   0.0000   0.0000   0.0000   0.0000
     0.0000   0.0000   0.0000   0.0000   0.0000   0.0000   0.0000   0.0000
     0.0000   0.0000   0.0000   0.0000   0.0000   0.0000   0.0000   0.0000
     0.0000   0.0000   0.0000   0.0000   0.0000   0.0000   0.0000   0.0000
     0.0000   0.0000   0.0000   0.0000   0.0000   0.0000   0.0000   0.0000
     0.0000   0.0000   0.0000   0.0000   0.0000   0.0000   0.0000   0.0000
     0.0000   0.0000   0.0000   0.0000   0.0000   0.0000   0.0000   0.0000
     0.0000   0.0000   0.0000   0.0000   0.0000   0.0000   0.0000   0.0000
     0.0000   0.0000   0.0000   0.0000   0.0000   0.0000   0.0000   0.0000
     0.0000   0.0000   0.0000   0.0000   0.0000   0.0000   0.0000   0.0000
     0.0000   0.0000   0.0000   0.0000   0.0000   0.0000   0.0000   0.0000
     0.0000   0.0000   0.0000   0.0000   0.0000   0.0000   0.0000   0.0000
     0.0000   0.0000   0.0000   0.0000   0.0000   0.0000   0.0000   0.0000
     0.0000   0.0000   0.0000   0.0000   0.0000   0.0000   0.0000   0.0000
     0.0000   0.0000   0.0000   0.0000   0.0000   0.0000   0.0000   0.0000
     0.0000   0.0000   0.0000   0.0000   0.0000   0.0000   0.0000   0.0000

          k = 0.1667 0.2887 0.0000 ( 47572 PWs)   bands (ev):

     0.0000   0.0000   0.0000   0.0000   0.0000   0.0000   0.0000   0.0000
     0.0000   0.0000   0.0000   0.0000   0.0000   0.0000   0.0000   0.0000
     0.0000   0.0000   0.0000   0.0000   0.0000   0.0000   0.0000   0.0000
     0.0000   0.0000   0.0000   0.0000   0.0000   0.0000   0.0000   0.0000
     0.0000   0.0000   0.0000   0.0000   0.0000   0.0000   0.0000   0.0000
     0.0000   0.0000   0.0000   0.0000   0.0000   0.0000   0.0000   0.0000
     0.0000   0.0000   0.0000   0.0000   0.0000   0.0000   0.0000   0.0000
     0.0000   0.0000   0.0000   0.0000   0.0000   0.0000   0.0000   0.0000
     0.0000   0.0000   0.0000   0.0000   0.0000   0.0000   0.0000   0.0000
     0.0000   0.0000   0.0000   0.0000   0.0000   0.0000   0.0000   0.0000
     0.0000   0.0000   0.0000   0.0000   0.0000   0.0000   0.0000   0.0000
     0.0000   0.0000   0.0000   0.0000   0.0000   0.0000   0.0000   0.0000
     0.0000   0.0000   0.0000   0.0000   0.0000   0.0000   0.0000   0.0000
     0.0000   0.0000   0.0000   0.0000   0.0000   0.0000   0.0000   0.0000
     0.0000   0.0000   0.0000   0.0000   0.0000   0.0000   0.0000   0.0000
     0.0000   0.0000   0.0000   0.0000   0.0000   0.0000   0.0000   0.0000
     0.0000   0.0000   0.0000   0.0000   0.0000   0.0000   0.0000   0.0000
     0.0000   0.0000   0.0000   0.0000   0.0000   0.0000   0.0000   0.0000
     0.0000   0.0000   0.0000   0.0000   0.0000   0.0000   0.0000   0.0000
     0.0000   0.0000   0.0000   0.0000   0.0000   0.0000   0.0000   0.0000

          k = 0.1667 0.4811 0.0000 ( 47608 PWs)   bands (ev):

     0.0000   0.0000   0.0000   0.0000   0.0000   0.0000   0.0000   0.0000
     0.0000   0.0000   0.0000   0.0000   0.0000   0.0000   0.0000   0.0000
     0.0000   0.0000   0.0000   0.0000   0.0000   0.0000   0.0000   0.0000
     0.0000   0.0000   0.0000   0.0000   0.0000   0.0000   0.0000   0.0000
     0.0000   0.0000   0.0000   0.0000   0.0000   0.0000   0.0000   0.0000
     0.0000   0.0000   0.0000   0.0000   0.0000   0.0000   0.0000   0.0000
     0.0000   0.0000   0.0000   0.0000   0.0000   0.0000   0.0000   0.0000
     0.0000   0.0000   0.0000   0.0000   0.0000   0.0000   0.0000   0.0000
     0.0000   0.0000   0.0000   0.0000   0.0000   0.0000   0.0000   0.0000
     0.0000   0.0000   0.0000   0.0000   0.0000   0.0000   0.0000   0.0000
     0.0000   0.0000   0.0000   0.0000   0.0000   0.0000   0.0000   0.0000
     0.0000   0.0000   0.0000   0.0000   0.0000   0.0000   0.0000   0.0000
     0.0000   0.0000   0.0000   0.0000   0.0000   0.0000   0.0000   0.0000
     0.0000   0.0000   0.0000   0.0000   0.0000   0.0000   0.0000   0.0000
     0.0000   0.0000   0.0000   0.0000   0.0000   0.0000   0.0000   0.0000
     0.0000   0.0000   0.0000   0.0000   0.0000   0.0000   0.0000   0.0000
     0.0000   0.0000   0.0000   0.0000   0.0000   0.0000   0.0000   0.0000
     0.0000   0.0000   0.0000   0.0000   0.0000   0.0000   0.0000   0.0000
     0.0000   0.0000   0.0000   0.0000   0.0000   0.0000   0.0000   0.0000
     0.0000   0.0000   0.0000   0.0000   0.0000   0.0000   0.0000   0.0000

          k = 0.1667-0.4811 0.0000 ( 47608 PWs)   bands (ev):

     0.0000   0.0000   0.0000   0.0000   0.0000   0.0000   0.0000   0.0000
     0.0000   0.0000   0.0000   0.0000   0.0000   0.0000   0.0000   0.0000
     0.0000   0.0000   0.0000   0.0000   0.0000   0.0000   0.0000   0.0000
     0.0000   0.0000   0.0000   0.0000   0.0000   0.0000   0.0000   0.0000
     0.0000   0.0000   0.0000   0.0000   0.0000   0.0000   0.0000   0.0000
     0.0000   0.0000   0.0000   0.0000   0.0000   0.0000   0.0000   0.0000
     0.0000   0.0000   0.0000   0.0000   0.0000   0.0000   0.0000   0.0000
     0.0000   0.0000   0.0000   0.0000   0.0000   0.0000   0.0000   0.0000
     0.0000   0.0000   0.0000   0.0000   0.0000   0.0000   0.0000   0.0000
     0.0000   0.0000   0.0000   0.0000   0.0000   0.0000   0.0000   0.0000
     0.0000   0.0000   0.0000   0.0000   0.0000   0.0000   0.0000   0.0000
     0.0000   0.0000   0.0000   0.0000   0.0000   0.0000   0.0000   0.0000
     0.0000   0.0000   0.0000   0.0000   0.0000   0.0000   0.0000   0.0000
     0.0000   0.0000   0.0000   0.0000   0.0000   0.0000   0.0000   0.0000
     0.0000   0.0000   0.0000   0.0000   0.0000   0.0000   0.0000   0.0000
     0.0000   0.0000   0.0000   0.0000   0.0000   0.0000   0.0000   0.0000
     0.0000   0.0000   0.0000   0.0000   0.0000   0.0000   0.0000   0.0000
     0.0000   0.0000   0.0000   0.0000   0.0000   0.0000   0.0000   0.0000
     0.0000   0.0000   0.0000   0.0000   0.0000   0.0000   0.0000   0.0000
     0.0000   0.0000   0.0000   0.0000   0.0000   0.0000   0.0000   0.0000

          k = 0.1667-0.2887 0.0000 ( 47572 PWs)   bands (ev):

     0.0000   0.0000   0.0000   0.0000   0.0000   0.0000   0.0000   0.0000
     0.0000   0.0000   0.0000   0.0000   0.0000   0.0000   0.0000   0.0000
     0.0000   0.0000   0.0000   0.0000   0.0000   0.0000   0.0000   0.0000
     0.0000   0.0000   0.0000   0.0000   0.0000   0.0000   0.0000   0.0000
     0.0000   0.0000   0.0000   0.0000   0.0000   0.0000   0.0000   0.0000
     0.0000   0.0000   0.0000   0.0000   0.0000   0.0000   0.0000   0.0000
     0.0000   0.0000   0.0000   0.0000   0.0000   0.0000   0.0000   0.0000
     0.0000   0.0000   0.0000   0.0000   0.0000   0.0000   0.0000   0.0000
     0.0000   0.0000   0.0000   0.0000   0.0000   0.0000   0.0000   0.0000
     0.0000   0.0000   0.0000   0.0000   0.0000   0.0000   0.0000   0.0000
     0.0000   0.0000   0.0000   0.0000   0.0000   0.0000   0.0000   0.0000
     0.0000   0.0000   0.0000   0.0000   0.0000   0.0000   0.0000   0.0000
     0.0000   0.0000   0.0000   0.0000   0.0000   0.0000   0.0000   0.0000
     0.0000   0.0000   0.0000   0.0000   0.0000   0.0000   0.0000   0.0000
     0.0000   0.0000   0.0000   0.0000   0.0000   0.0000   0.0000   0.0000
     0.0000   0.0000   0.0000   0.0000   0.0000   0.0000   0.0000   0.0000
     0.0000   0.0000   0.0000   0.0000   0.0000   0.0000   0.0000   0.0000
     0.0000   0.0000   0.0000   0.0000   0.0000   0.0000   0.0000   0.0000
     0.0000   0.0000   0.0000   0.0000   0.0000   0.0000   0.0000   0.0000
     0.0000   0.0000   0.0000   0.0000   0.0000   0.0000   0.0000   0.0000

          k = 0.1667-0.0962 0.0000 ( 47501 PWs)   bands (ev):

     0.0000   0.0000   0.0000   0.0000   0.0000   0.0000   0.0000   0.0000
     0.0000   0.0000   0.0000   0.0000   0.0000   0.0000   0.0000   0.0000
     0.0000   0.0000   0.0000   0.0000   0.0000   0.0000   0.0000   0.0000
     0.0000   0.0000   0.0000   0.0000   0.0000   0.0000   0.0000   0.0000
     0.0000   0.0000   0.0000   0.0000   0.0000   0.0000   0.0000   0.0000
     0.0000   0.0000   0.0000   0.0000   0.0000   0.0000   0.0000   0.0000
     0.0000   0.0000   0.0000   0.0000   0.0000   0.0000   0.0000   0.0000
     0.0000   0.0000   0.0000   0.0000   0.0000   0.0000   0.0000   0.0000
     0.0000   0.0000   0.0000   0.0000   0.0000   0.0000   0.0000   0.0000
     0.0000   0.0000   0.0000   0.0000   0.0000   0.0000   0.0000   0.0000
     0.0000   0.0000   0.0000   0.0000   0.0000   0.0000   0.0000   0.0000
     0.0000   0.0000   0.0000   0.0000   0.0000   0.0000   0.0000   0.0000
     0.0000   0.0000   0.0000   0.0000   0.0000   0.0000   0.0000   0.0000
     0.0000   0.0000   0.0000   0.0000   0.0000   0.0000   0.0000   0.0000
     0.0000   0.0000   0.0000   0.0000   0.0000   0.0000   0.0000   0.0000
     0.0000   0.0000   0.0000   0.0000   0.0000   0.0000   0.0000   0.0000
     0.0000   0.0000   0.0000   0.0000   0.0000   0.0000   0.0000   0.0000
     0.0000   0.0000   0.0000   0.0000   0.0000   0.0000   0.0000   0.0000
     0.0000   0.0000   0.0000   0.0000   0.0000   0.0000   0.0000   0.0000
     0.0000   0.0000   0.0000   0.0000   0.0000   0.0000   0.0000   0.0000

          k = 0.3333 0.1925 0.0000 ( 47521 PWs)   bands (ev):

     0.0000   0.0000   0.0000   0.0000   0.0000   0.0000   0.0000   0.0000
     0.0000   0.0000   0.0000   0.0000   0.0000   0.0000   0.0000   0.0000
     0.0000   0.0000   0.0000   0.0000   0.0000   0.0000   0.0000   0.0000
     0.0000   0.0000   0.0000   0.0000   0.0000   0.0000   0.0000   0.0000
     0.0000   0.0000   0.0000   0.0000   0.0000   0.0000   0.0000   0.0000
     0.0000   0.0000   0.0000   0.0000   0.0000   0.0000   0.0000   0.0000
     0.0000   0.0000   0.0000   0.0000   0.0000   0.0000   0.0000   0.0000
     0.0000   0.0000   0.0000   0.0000   0.0000   0.0000   0.0000   0.0000
     0.0000   0.0000   0.0000   0.0000   0.0000   0.0000   0.0000   0.0000
     0.0000   0.0000   0.0000   0.0000   0.0000   0.0000   0.0000   0.0000
     0.0000   0.0000   0.0000   0.0000   0.0000   0.0000   0.0000   0.0000
     0.0000   0.0000   0.0000   0.0000   0.0000   0.0000   0.0000   0.0000
     0.0000   0.0000   0.0000   0.0000   0.0000   0.0000   0.0000   0.0000
     0.0000   0.0000   0.0000   0.0000   0.0000   0.0000   0.0000   0.0000
     0.0000   0.0000   0.0000   0.0000   0.0000   0.0000   0.0000   0.0000
     0.0000   0.0000   0.0000   0.0000   0.0000   0.0000   0.0000   0.0000
     0.0000   0.0000   0.0000   0.0000   0.0000   0.0000   0.0000   0.0000
     0.0000   0.0000   0.0000   0.0000   0.0000   0.0000   0.0000   0.0000
     0.0000   0.0000   0.0000   0.0000   0.0000   0.0000   0.0000   0.0000
     0.0000   0.0000   0.0000   0.0000   0.0000   0.0000   0.0000   0.0000

          k = 0.3333 0.3849 0.0000 ( 47608 PWs)   bands (ev):

     0.0000   0.0000   0.0000   0.0000   0.0000   0.0000   0.0000   0.0000
     0.0000   0.0000   0.0000   0.0000   0.0000   0.0000   0.0000   0.0000
     0.0000   0.0000   0.0000   0.0000   0.0000   0.0000   0.0000   0.0000
     0.0000   0.0000   0.0000   0.0000   0.0000   0.0000   0.0000   0.0000
     0.0000   0.0000   0.0000   0.0000   0.0000   0.0000   0.0000   0.0000
     0.0000   0.0000   0.0000   0.0000   0.0000   0.0000   0.0000   0.0000
     0.0000   0.0000   0.0000   0.0000   0.0000   0.0000   0.0000   0.0000
     0.0000   0.0000   0.0000   0.0000   0.0000   0.0000   0.0000   0.0000
     0.0000   0.0000   0.0000   0.0000   0.0000   0.0000   0.0000   0.0000
     0.0000   0.0000   0.0000   0.0000   0.0000   0.0000   0.0000   0.0000
     0.0000   0.0000   0.0000   0.0000   0.0000   0.0000   0.0000   0.0000
     0.0000   0.0000   0.0000   0.0000   0.0000   0.0000   0.0000   0.0000
     0.0000   0.0000   0.0000   0.0000   0.0000   0.0000   0.0000   0.0000
     0.0000   0.0000   0.0000   0.0000   0.0000   0.0000   0.0000   0.0000
     0.0000   0.0000   0.0000   0.0000   0.0000   0.0000   0.0000   0.0000
     0.0000   0.0000   0.0000   0.0000   0.0000   0.0000   0.0000   0.0000
     0.0000   0.0000   0.0000   0.0000   0.0000   0.0000   0.0000   0.0000
     0.0000   0.0000   0.0000   0.0000   0.0000   0.0000   0.0000   0.0000
     0.0000   0.0000   0.0000   0.0000   0.0000   0.0000   0.0000   0.0000
     0.0000   0.0000   0.0000   0.0000   0.0000   0.0000   0.0000   0.0000

          k = 0.3333 0.5774 0.0000 ( 47664 PWs)   bands (ev):

     0.0000   0.0000   0.0000   0.0000   0.0000   0.0000   0.0000   0.0000
     0.0000   0.0000   0.0000   0.0000   0.0000   0.0000   0.0000   0.0000
     0.0000   0.0000   0.0000   0.0000   0.0000   0.0000   0.0000   0.0000
     0.0000   0.0000   0.0000   0.0000   0.0000   0.0000   0.0000   0.0000
     0.0000   0.0000   0.0000   0.0000   0.0000   0.0000   0.0000   0.0000
     0.0000   0.0000   0.0000   0.0000   0.0000   0.0000   0.0000   0.0000
     0.0000   0.0000   0.0000   0.0000   0.0000   0.0000   0.0000   0.0000
     0.0000   0.0000   0.0000   0.0000   0.0000   0.0000   0.0000   0.0000
     0.0000   0.0000   0.0000   0.0000   0.0000   0.0000   0.0000   0.0000
     0.0000   0.0000   0.0000   0.0000   0.0000   0.0000   0.0000   0.0000
     0.0000   0.0000   0.0000   0.0000   0.0000   0.0000   0.0000   0.0000
     0.0000   0.0000   0.0000   0.0000   0.0000   0.0000   0.0000   0.0000
     0.0000   0.0000   0.0000   0.0000   0.0000   0.0000   0.0000   0.0000
     0.0000   0.0000   0.0000   0.0000   0.0000   0.0000   0.0000   0.0000
     0.0000   0.0000   0.0000   0.0000   0.0000   0.0000   0.0000   0.0000
     0.0000   0.0000   0.0000   0.0000   0.0000   0.0000   0.0000   0.0000
     0.0000   0.0000   0.0000   0.0000   0.0000   0.0000   0.0000   0.0000
     0.0000   0.0000   0.0000   0.0000   0.0000   0.0000   0.0000   0.0000
     0.0000   0.0000   0.0000   0.0000   0.0000   0.0000   0.0000   0.0000
     0.0000   0.0000   0.0000   0.0000   0.0000   0.0000   0.0000   0.0000

          k = 0.3333-0.3849 0.0000 ( 47608 PWs)   bands (ev):

     0.0000   0.0000   0.0000   0.0000   0.0000   0.0000   0.0000   0.0000
     0.0000   0.0000   0.0000   0.0000   0.0000   0.0000   0.0000   0.0000
     0.0000   0.0000   0.0000   0.0000   0.0000   0.0000   0.0000   0.0000
     0.0000   0.0000   0.0000   0.0000   0.0000   0.0000   0.0000   0.0000
     0.0000   0.0000   0.0000   0.0000   0.0000   0.0000   0.0000   0.0000
     0.0000   0.0000   0.0000   0.0000   0.0000   0.0000   0.0000   0.0000
     0.0000   0.0000   0.0000   0.0000   0.0000   0.0000   0.0000   0.0000
     0.0000   0.0000   0.0000   0.0000   0.0000   0.0000   0.0000   0.0000
     0.0000   0.0000   0.0000   0.0000   0.0000   0.0000   0.0000   0.0000
     0.0000   0.0000   0.0000   0.0000   0.0000   0.0000   0.0000   0.0000
     0.0000   0.0000   0.0000   0.0000   0.0000   0.0000   0.0000   0.0000
     0.0000   0.0000   0.0000   0.0000   0.0000   0.0000   0.0000   0.0000
     0.0000   0.0000   0.0000   0.0000   0.0000   0.0000   0.0000   0.0000
     0.0000   0.0000   0.0000   0.0000   0.0000   0.0000   0.0000   0.0000
     0.0000   0.0000   0.0000   0.0000   0.0000   0.0000   0.0000   0.0000
     0.0000   0.0000   0.0000   0.0000   0.0000   0.0000   0.0000   0.0000
     0.0000   0.0000   0.0000   0.0000   0.0000   0.0000   0.0000   0.0000
     0.0000   0.0000   0.0000   0.0000   0.0000   0.0000   0.0000   0.0000
     0.0000   0.0000   0.0000   0.0000   0.0000   0.0000   0.0000   0.0000
     0.0000   0.0000   0.0000   0.0000   0.0000   0.0000   0.0000   0.0000

          k = 0.3333-0.1925 0.0000 ( 47521 PWs)   bands (ev):

     0.0000   0.0000   0.0000   0.0000   0.0000   0.0000   0.0000   0.0000
     0.0000   0.0000   0.0000   0.0000   0.0000   0.0000   0.0000   0.0000
     0.0000   0.0000   0.0000   0.0000   0.0000   0.0000   0.0000   0.0000
     0.0000   0.0000   0.0000   0.0000   0.0000   0.0000   0.0000   0.0000
     0.0000   0.0000   0.0000   0.0000   0.0000   0.0000   0.0000   0.0000
     0.0000   0.0000   0.0000   0.0000   0.0000   0.0000   0.0000   0.0000
     0.0000   0.0000   0.0000   0.0000   0.0000   0.0000   0.0000   0.0000
     0.0000   0.0000   0.0000   0.0000   0.0000   0.0000   0.0000   0.0000
     0.0000   0.0000   0.0000   0.0000   0.0000   0.0000   0.0000   0.0000
     0.0000   0.0000   0.0000   0.0000   0.0000   0.0000   0.0000   0.0000
     0.0000   0.0000   0.0000   0.0000   0.0000   0.0000   0.0000   0.0000
     0.0000   0.0000   0.0000   0.0000   0.0000   0.0000   0.0000   0.0000
     0.0000   0.0000   0.0000   0.0000   0.0000   0.0000   0.0000   0.0000
     0.0000   0.0000   0.0000   0.0000   0.0000   0.0000   0.0000   0.0000
     0.0000   0.0000   0.0000   0.0000   0.0000   0.0000   0.0000   0.0000
     0.0000   0.0000   0.0000   0.0000   0.0000   0.0000   0.0000   0.0000
     0.0000   0.0000   0.0000   0.0000   0.0000   0.0000   0.0000   0.0000
     0.0000   0.0000   0.0000   0.0000   0.0000   0.0000   0.0000   0.0000
     0.0000   0.0000   0.0000   0.0000   0.0000   0.0000   0.0000   0.0000
     0.0000   0.0000   0.0000   0.0000   0.0000   0.0000   0.0000   0.0000

          k = 0.3333 0.0000 0.0000 ( 47572 PWs)   bands (ev):

     0.0000   0.0000   0.0000   0.0000   0.0000   0.0000   0.0000   0.0000
     0.0000   0.0000   0.0000   0.0000   0.0000   0.0000   0.0000   0.0000
     0.0000   0.0000   0.0000   0.0000   0.0000   0.0000   0.0000   0.0000
     0.0000   0.0000   0.0000   0.0000   0.0000   0.0000   0.0000   0.0000
     0.0000   0.0000   0.0000   0.0000   0.0000   0.0000   0.0000   0.0000
     0.0000   0.0000   0.0000   0.0000   0.0000   0.0000   0.0000   0.0000
     0.0000   0.0000   0.0000   0.0000   0.0000   0.0000   0.0000   0.0000
     0.0000   0.0000   0.0000   0.0000   0.0000   0.0000   0.0000   0.0000
     0.0000   0.0000   0.0000   0.0000   0.0000   0.0000   0.0000   0.0000
     0.0000   0.0000   0.0000   0.0000   0.0000   0.0000   0.0000   0.0000
     0.0000   0.0000   0.0000   0.0000   0.0000   0.0000   0.0000   0.0000
     0.0000   0.0000   0.0000   0.0000   0.0000   0.0000   0.0000   0.0000
     0.0000   0.0000   0.0000   0.0000   0.0000   0.0000   0.0000   0.0000
     0.0000   0.0000   0.0000   0.0000   0.0000   0.0000   0.0000   0.0000
     0.0000   0.0000   0.0000   0.0000   0.0000   0.0000   0.0000   0.0000
     0.0000   0.0000   0.0000   0.0000   0.0000   0.0000   0.0000   0.0000
     0.0000   0.0000   0.0000   0.0000   0.0000   0.0000   0.0000   0.0000
     0.0000   0.0000   0.0000   0.0000   0.0000   0.0000   0.0000   0.0000
     0.0000   0.0000   0.0000   0.0000   0.0000   0.0000   0.0000   0.0000
     0.0000   0.0000   0.0000   0.0000   0.0000   0.0000   0.0000   0.0000

          k =-0.5000-0.2887 0.0000 ( 47568 PWs)   bands (ev):

     0.0000   0.0000   0.0000   0.0000   0.0000   0.0000   0.0000   0.0000
     0.0000   0.0000   0.0000   0.0000   0.0000   0.0000   0.0000   0.0000
     0.0000   0.0000   0.0000   0.0000   0.0000   0.0000   0.0000   0.0000
     0.0000   0.0000   0.0000   0.0000   0.0000   0.0000   0.0000   0.0000
     0.0000   0.0000   0.0000   0.0000   0.0000   0.0000   0.0000   0.0000
     0.0000   0.0000   0.0000   0.0000   0.0000   0.0000   0.0000   0.0000
     0.0000   0.0000   0.0000   0.0000   0.0000   0.0000   0.0000   0.0000
     0.0000   0.0000   0.0000   0.0000   0.0000   0.0000   0.0000   0.0000
     0.0000   0.0000   0.0000   0.0000   0.0000   0.0000   0.0000   0.0000
     0.0000   0.0000   0.0000   0.0000   0.0000   0.0000   0.0000   0.0000
     0.0000   0.0000   0.0000   0.0000   0.0000   0.0000   0.0000   0.0000
     0.0000   0.0000   0.0000   0.0000   0.0000   0.0000   0.0000   0.0000
     0.0000   0.0000   0.0000   0.0000   0.0000   0.0000   0.0000   0.0000
     0.0000   0.0000   0.0000   0.0000   0.0000   0.0000   0.0000   0.0000
     0.0000   0.0000   0.0000   0.0000   0.0000   0.0000   0.0000   0.0000
     0.0000   0.0000   0.0000   0.0000   0.0000   0.0000   0.0000   0.0000
     0.0000   0.0000   0.0000   0.0000   0.0000   0.0000   0.0000   0.0000
     0.0000   0.0000   0.0000   0.0000   0.0000   0.0000   0.0000   0.0000
     0.0000   0.0000   0.0000   0.0000   0.0000   0.0000   0.0000   0.0000
     0.0000   0.0000   0.0000   0.0000   0.0000   0.0000   0.0000   0.0000

          k =-0.5000-0.0962 0.0000 ( 47608 PWs)   bands (ev):

     0.0000   0.0000   0.0000   0.0000   0.0000   0.0000   0.0000   0.0000
     0.0000   0.0000   0.0000   0.0000   0.0000   0.0000   0.0000   0.0000
     0.0000   0.0000   0.0000   0.0000   0.0000   0.0000   0.0000   0.0000
     0.0000   0.0000   0.0000   0.0000   0.0000   0.0000   0.0000   0.0000
     0.0000   0.0000   0.0000   0.0000   0.0000   0.0000   0.0000   0.0000
     0.0000   0.0000   0.0000   0.0000   0.0000   0.0000   0.0000   0.0000
     0.0000   0.0000   0.0000   0.0000   0.0000   0.0000   0.0000   0.0000
     0.0000   0.0000   0.0000   0.0000   0.0000   0.0000   0.0000   0.0000
     0.0000   0.0000   0.0000   0.0000   0.0000   0.0000   0.0000   0.0000
     0.0000   0.0000   0.0000   0.0000   0.0000   0.0000   0.0000   0.0000
     0.0000   0.0000   0.0000   0.0000   0.0000   0.0000   0.0000   0.0000
     0.0000   0.0000   0.0000   0.0000   0.0000   0.0000   0.0000   0.0000
     0.0000   0.0000   0.0000   0.0000   0.0000   0.0000   0.0000   0.0000
     0.0000   0.0000   0.0000   0.0000   0.0000   0.0000   0.0000   0.0000
     0.0000   0.0000   0.0000   0.0000   0.0000   0.0000   0.0000   0.0000
     0.0000   0.0000   0.0000   0.0000   0.0000   0.0000   0.0000   0.0000
     0.0000   0.0000   0.0000   0.0000   0.0000   0.0000   0.0000   0.0000
     0.0000   0.0000   0.0000   0.0000   0.0000   0.0000   0.0000   0.0000
     0.0000   0.0000   0.0000   0.0000   0.0000   0.0000   0.0000   0.0000
     0.0000   0.0000   0.0000   0.0000   0.0000   0.0000   0.0000   0.0000

          k =-0.5000 0.0962 0.0000 ( 47608 PWs)   bands (ev):

     0.0000   0.0000   0.0000   0.0000   0.0000   0.0000   0.0000   0.0000
     0.0000   0.0000   0.0000   0.0000   0.0000   0.0000   0.0000   0.0000
     0.0000   0.0000   0.0000   0.0000   0.0000   0.0000   0.0000   0.0000
     0.0000   0.0000   0.0000   0.0000   0.0000   0.0000   0.0000   0.0000
     0.0000   0.0000   0.0000   0.0000   0.0000   0.0000   0.0000   0.0000
     0.0000   0.0000   0.0000   0.0000   0.0000   0.0000   0.0000   0.0000
     0.0000   0.0000   0.0000   0.0000   0.0000   0.0000   0.0000   0.0000
     0.0000   0.0000   0.0000   0.0000   0.0000   0.0000   0.0000   0.0000
     0.0000   0.0000   0.0000   0.0000   0.0000   0.0000   0.0000   0.0000
     0.0000   0.0000   0.0000   0.0000   0.0000   0.0000   0.0000   0.0000
     0.0000   0.0000   0.0000   0.0000   0.0000   0.0000   0.0000   0.0000
     0.0000   0.0000   0.0000   0.0000   0.0000   0.0000   0.0000   0.0000
     0.0000   0.0000   0.0000   0.0000   0.0000   0.0000   0.0000   0.0000
     0.0000   0.0000   0.0000   0.0000   0.0000   0.0000   0.0000   0.0000
     0.0000   0.0000   0.0000   0.0000   0.0000   0.0000   0.0000   0.0000
     0.0000   0.0000   0.0000   0.0000   0.0000   0.0000   0.0000   0.0000
     0.0000   0.0000   0.0000   0.0000   0.0000   0.0000   0.0000   0.0000
     0.0000   0.0000   0.0000   0.0000   0.0000   0.0000   0.0000   0.0000
     0.0000   0.0000   0.0000   0.0000   0.0000   0.0000   0.0000   0.0000
     0.0000   0.0000   0.0000   0.0000   0.0000   0.0000   0.0000   0.0000

          k =-0.5000-0.8660 0.0000 ( 47568 PWs)   bands (ev):

     0.0000   0.0000   0.0000   0.0000   0.0000   0.0000   0.0000   0.0000
     0.0000   0.0000   0.0000   0.0000   0.0000   0.0000   0.0000   0.0000
     0.0000   0.0000   0.0000   0.0000   0.0000   0.0000   0.0000   0.0000
     0.0000   0.0000   0.0000   0.0000   0.0000   0.0000   0.0000   0.0000
     0.0000   0.0000   0.0000   0.0000   0.0000   0.0000   0.0000   0.0000
     0.0000   0.0000   0.0000   0.0000   0.0000   0.0000   0.0000   0.0000
     0.0000   0.0000   0.0000   0.0000   0.0000   0.0000   0.0000   0.0000
     0.0000   0.0000   0.0000   0.0000   0.0000   0.0000   0.0000   0.0000
     0.0000   0.0000   0.0000   0.0000   0.0000   0.0000   0.0000   0.0000
     0.0000   0.0000   0.0000   0.0000   0.0000   0.0000   0.0000   0.0000
     0.0000   0.0000   0.0000   0.0000   0.0000   0.0000   0.0000   0.0000
     0.0000   0.0000   0.0000   0.0000   0.0000   0.0000   0.0000   0.0000
     0.0000   0.0000   0.0000   0.0000   0.0000   0.0000   0.0000   0.0000
     0.0000   0.0000   0.0000   0.0000   0.0000   0.0000   0.0000   0.0000
     0.0000   0.0000   0.0000   0.0000   0.0000   0.0000   0.0000   0.0000
     0.0000   0.0000   0.0000   0.0000   0.0000   0.0000   0.0000   0.0000
     0.0000   0.0000   0.0000   0.0000   0.0000   0.0000   0.0000   0.0000
     0.0000   0.0000   0.0000   0.0000   0.0000   0.0000   0.0000   0.0000
     0.0000   0.0000   0.0000   0.0000   0.0000   0.0000   0.0000   0.0000
     0.0000   0.0000   0.0000   0.0000   0.0000   0.0000   0.0000   0.0000

 ------ SPIN DOWN ----------


          k = 0.0000 0.0000 0.0000 ( 47433 PWs)   bands (ev):

     0.0000   0.0000   0.0000   0.0000   0.0000   0.0000   0.0000   0.0000
     0.0000   0.0000   0.0000   0.0000   0.0000   0.0000   0.0000   0.0000
     0.0000   0.0000   0.0000   0.0000   0.0000   0.0000   0.0000   0.0000
     0.0000   0.0000   0.0000   0.0000   0.0000   0.0000   0.0000   0.0000
     0.0000   0.0000   0.0000   0.0000   0.0000   0.0000   0.0000   0.0000
     0.0000   0.0000   0.0000   0.0000   0.0000   0.0000   0.0000   0.0000
     0.0000   0.0000   0.0000   0.0000   0.0000   0.0000   0.0000   0.0000
     0.0000   0.0000   0.0000   0.0000   0.0000   0.0000   0.0000   0.0000
     0.0000   0.0000   0.0000   0.0000   0.0000   0.0000   0.0000   0.0000
     0.0000   0.0000   0.0000   0.0000   0.0000   0.0000   0.0000   0.0000
     0.0000   0.0000   0.0000   0.0000   0.0000   0.0000   0.0000   0.0000
     0.0000   0.0000   0.0000   0.0000   0.0000   0.0000   0.0000   0.0000
     0.0000   0.0000   0.0000   0.0000   0.0000   0.0000   0.0000   0.0000
     0.0000   0.0000   0.0000   0.0000   0.0000   0.0000   0.0000   0.0000
     0.0000   0.0000   0.0000   0.0000   0.0000   0.0000   0.0000   0.0000
     0.0000   0.0000   0.0000   0.0000   0.0000   0.0000   0.0000   0.0000
     0.0000   0.0000   0.0000   0.0000   0.0000   0.0000   0.0000   0.0000
     0.0000   0.0000   0.0000   0.0000   0.0000   0.0000   0.0000   0.0000
     0.0000   0.0000   0.0000   0.0000   0.0000   0.0000   0.0000   0.0000
     0.0000   0.0000   0.0000   0.0000   0.0000   0.0000   0.0000   0.0000

          k = 0.0000 0.1925 0.0000 ( 47501 PWs)   bands (ev):

     0.0000   0.0000   0.0000   0.0000   0.0000   0.0000   0.0000   0.0000
     0.0000   0.0000   0.0000   0.0000   0.0000   0.0000   0.0000   0.0000
     0.0000   0.0000   0.0000   0.0000   0.0000   0.0000   0.0000   0.0000
     0.0000   0.0000   0.0000   0.0000   0.0000   0.0000   0.0000   0.0000
     0.0000   0.0000   0.0000   0.0000   0.0000   0.0000   0.0000   0.0000
     0.0000   0.0000   0.0000   0.0000   0.0000   0.0000   0.0000   0.0000
     0.0000   0.0000   0.0000   0.0000   0.0000   0.0000   0.0000   0.0000
     0.0000   0.0000   0.0000   0.0000   0.0000   0.0000   0.0000   0.0000
     0.0000   0.0000   0.0000   0.0000   0.0000   0.0000   0.0000   0.0000
     0.0000   0.0000   0.0000   0.0000   0.0000   0.0000   0.0000   0.0000
     0.0000   0.0000   0.0000   0.0000   0.0000   0.0000   0.0000   0.0000
     0.0000   0.0000   0.0000   0.0000   0.0000   0.0000   0.0000   0.0000
     0.0000   0.0000   0.0000   0.0000   0.0000   0.0000   0.0000   0.0000
     0.0000   0.0000   0.0000   0.0000   0.0000   0.0000   0.0000   0.0000
     0.0000   0.0000   0.0000   0.0000   0.0000   0.0000   0.0000   0.0000
     0.0000   0.0000   0.0000   0.0000   0.0000   0.0000   0.0000   0.0000
     0.0000   0.0000   0.0000   0.0000   0.0000   0.0000   0.0000   0.0000
     0.0000   0.0000   0.0000   0.0000   0.0000   0.0000   0.0000   0.0000
     0.0000   0.0000   0.0000   0.0000   0.0000   0.0000   0.0000   0.0000
     0.0000   0.0000   0.0000   0.0000   0.0000   0.0000   0.0000   0.0000

          k = 0.0000 0.3849 0.0000 ( 47521 PWs)   bands (ev):

     0.0000   0.0000   0.0000   0.0000   0.0000   0.0000   0.0000   0.0000
     0.0000   0.0000   0.0000   0.0000   0.0000   0.0000   0.0000   0.0000
     0.0000   0.0000   0.0000   0.0000   0.0000   0.0000   0.0000   0.0000
     0.0000   0.0000   0.0000   0.0000   0.0000   0.0000   0.0000   0.0000
     0.0000   0.0000   0.0000   0.0000   0.0000   0.0000   0.0000   0.0000
     0.0000   0.0000   0.0000   0.0000   0.0000   0.0000   0.0000   0.0000
     0.0000   0.0000   0.0000   0.0000   0.0000   0.0000   0.0000   0.0000
     0.0000   0.0000   0.0000   0.0000   0.0000   0.0000   0.0000   0.0000
     0.0000   0.0000   0.0000   0.0000   0.0000   0.0000   0.0000   0.0000
     0.0000   0.0000   0.0000   0.0000   0.0000   0.0000   0.0000   0.0000
     0.0000   0.0000   0.0000   0.0000   0.0000   0.0000   0.0000   0.0000
     0.0000   0.0000   0.0000   0.0000   0.0000   0.0000   0.0000   0.0000
     0.0000   0.0000   0.0000   0.0000   0.0000   0.0000   0.0000   0.0000
     0.0000   0.0000   0.0000   0.0000   0.0000   0.0000   0.0000   0.0000
     0.0000   0.0000   0.0000   0.0000   0.0000   0.0000   0.0000   0.0000
     0.0000   0.0000   0.0000   0.0000   0.0000   0.0000   0.0000   0.0000
     0.0000   0.0000   0.0000   0.0000   0.0000   0.0000   0.0000   0.0000
     0.0000   0.0000   0.0000   0.0000   0.0000   0.0000   0.0000   0.0000
     0.0000   0.0000   0.0000   0.0000   0.0000   0.0000   0.0000   0.0000
     0.0000   0.0000   0.0000   0.0000   0.0000   0.0000   0.0000   0.0000

          k = 0.0000-0.5774 0.0000 ( 47568 PWs)   bands (ev):

     0.0000   0.0000   0.0000   0.0000   0.0000   0.0000   0.0000   0.0000
     0.0000   0.0000   0.0000   0.0000   0.0000   0.0000   0.0000   0.0000
     0.0000   0.0000   0.0000   0.0000   0.0000   0.0000   0.0000   0.0000
     0.0000   0.0000   0.0000   0.0000   0.0000   0.0000   0.0000   0.0000
     0.0000   0.0000   0.0000   0.0000   0.0000   0.0000   0.0000   0.0000
     0.0000   0.0000   0.0000   0.0000   0.0000   0.0000   0.0000   0.0000
     0.0000   0.0000   0.0000   0.0000   0.0000   0.0000   0.0000   0.0000
     0.0000   0.0000   0.0000   0.0000   0.0000   0.0000   0.0000   0.0000
     0.0000   0.0000   0.0000   0.0000   0.0000   0.0000   0.0000   0.0000
     0.0000   0.0000   0.0000   0.0000   0.0000   0.0000   0.0000   0.0000
     0.0000   0.0000   0.0000   0.0000   0.0000   0.0000   0.0000   0.0000
     0.0000   0.0000   0.0000   0.0000   0.0000   0.0000   0.0000   0.0000
     0.0000   0.0000   0.0000   0.0000   0.0000   0.0000   0.0000   0.0000
     0.0000   0.0000   0.0000   0.0000   0.0000   0.0000   0.0000   0.0000
     0.0000   0.0000   0.0000   0.0000   0.0000   0.0000   0.0000   0.0000
     0.0000   0.0000   0.0000   0.0000   0.0000   0.0000   0.0000   0.0000
     0.0000   0.0000   0.0000   0.0000   0.0000   0.0000   0.0000   0.0000
     0.0000   0.0000   0.0000   0.0000   0.0000   0.0000   0.0000   0.0000
     0.0000   0.0000   0.0000   0.0000   0.0000   0.0000   0.0000   0.0000
     0.0000   0.0000   0.0000   0.0000   0.0000   0.0000   0.0000   0.0000

          k = 0.1667 0.0962 0.0000 ( 47501 PWs)   bands (ev):

     0.0000   0.0000   0.0000   0.0000   0.0000   0.0000   0.0000   0.0000
     0.0000   0.0000   0.0000   0.0000   0.0000   0.0000   0.0000   0.0000
     0.0000   0.0000   0.0000   0.0000   0.0000   0.0000   0.0000   0.0000
     0.0000   0.0000   0.0000   0.0000   0.0000   0.0000   0.0000   0.0000
     0.0000   0.0000   0.0000   0.0000   0.0000   0.0000   0.0000   0.0000
     0.0000   0.0000   0.0000   0.0000   0.0000   0.0000   0.0000   0.0000
     0.0000   0.0000   0.0000   0.0000   0.0000   0.0000   0.0000   0.0000
     0.0000   0.0000   0.0000   0.0000   0.0000   0.0000   0.0000   0.0000
     0.0000   0.0000   0.0000   0.0000   0.0000   0.0000   0.0000   0.0000
     0.0000   0.0000   0.0000   0.0000   0.0000   0.0000   0.0000   0.0000
     0.0000   0.0000   0.0000   0.0000   0.0000   0.0000   0.0000   0.0000
     0.0000   0.0000   0.0000   0.0000   0.0000   0.0000   0.0000   0.0000
     0.0000   0.0000   0.0000   0.0000   0.0000   0.0000   0.0000   0.0000
     0.0000   0.0000   0.0000   0.0000   0.0000   0.0000   0.0000   0.0000
     0.0000   0.0000   0.0000   0.0000   0.0000   0.0000   0.0000   0.0000
     0.0000   0.0000   0.0000   0.0000   0.0000   0.0000   0.0000   0.0000
     0.0000   0.0000   0.0000   0.0000   0.0000   0.0000   0.0000   0.0000
     0.0000   0.0000   0.0000   0.0000   0.0000   0.0000   0.0000   0.0000
     0.0000   0.0000   0.0000   0.0000   0.0000   0.0000   0.0000   0.0000
     0.0000   0.0000   0.0000   0.0000   0.0000   0.0000   0.0000   0.0000

          k = 0.1667 0.2887 0.0000 ( 47572 PWs)   bands (ev):

     0.0000   0.0000   0.0000   0.0000   0.0000   0.0000   0.0000   0.0000
     0.0000   0.0000   0.0000   0.0000   0.0000   0.0000   0.0000   0.0000
     0.0000   0.0000   0.0000   0.0000   0.0000   0.0000   0.0000   0.0000
     0.0000   0.0000   0.0000   0.0000   0.0000   0.0000   0.0000   0.0000
     0.0000   0.0000   0.0000   0.0000   0.0000   0.0000   0.0000   0.0000
     0.0000   0.0000   0.0000   0.0000   0.0000   0.0000   0.0000   0.0000
     0.0000   0.0000   0.0000   0.0000   0.0000   0.0000   0.0000   0.0000
     0.0000   0.0000   0.0000   0.0000   0.0000   0.0000   0.0000   0.0000
     0.0000   0.0000   0.0000   0.0000   0.0000   0.0000   0.0000   0.0000
     0.0000   0.0000   0.0000   0.0000   0.0000   0.0000   0.0000   0.0000
     0.0000   0.0000   0.0000   0.0000   0.0000   0.0000   0.0000   0.0000
     0.0000   0.0000   0.0000   0.0000   0.0000   0.0000   0.0000   0.0000
     0.0000   0.0000   0.0000   0.0000   0.0000   0.0000   0.0000   0.0000
     0.0000   0.0000   0.0000   0.0000   0.0000   0.0000   0.0000   0.0000
     0.0000   0.0000   0.0000   0.0000   0.0000   0.0000   0.0000   0.0000
     0.0000   0.0000   0.0000   0.0000   0.0000   0.0000   0.0000   0.0000
     0.0000   0.0000   0.0000   0.0000   0.0000   0.0000   0.0000   0.0000
     0.0000   0.0000   0.0000   0.0000   0.0000   0.0000   0.0000   0.0000
     0.0000   0.0000   0.0000   0.0000   0.0000   0.0000   0.0000   0.0000
     0.0000   0.0000   0.0000   0.0000   0.0000   0.0000   0.0000   0.0000

          k = 0.1667 0.4811 0.0000 ( 47608 PWs)   bands (ev):

     0.0000   0.0000   0.0000   0.0000   0.0000   0.0000   0.0000   0.0000
     0.0000   0.0000   0.0000   0.0000   0.0000   0.0000   0.0000   0.0000
     0.0000   0.0000   0.0000   0.0000   0.0000   0.0000   0.0000   0.0000
     0.0000   0.0000   0.0000   0.0000   0.0000   0.0000   0.0000   0.0000
     0.0000   0.0000   0.0000   0.0000   0.0000   0.0000   0.0000   0.0000
     0.0000   0.0000   0.0000   0.0000   0.0000   0.0000   0.0000   0.0000
     0.0000   0.0000   0.0000   0.0000   0.0000   0.0000   0.0000   0.0000
     0.0000   0.0000   0.0000   0.0000   0.0000   0.0000   0.0000   0.0000
     0.0000   0.0000   0.0000   0.0000   0.0000   0.0000   0.0000   0.0000
     0.0000   0.0000   0.0000   0.0000   0.0000   0.0000   0.0000   0.0000
     0.0000   0.0000   0.0000   0.0000   0.0000   0.0000   0.0000   0.0000
     0.0000   0.0000   0.0000   0.0000   0.0000   0.0000   0.0000   0.0000
     0.0000   0.0000   0.0000   0.0000   0.0000   0.0000   0.0000   0.0000
     0.0000   0.0000   0.0000   0.0000   0.0000   0.0000   0.0000   0.0000
     0.0000   0.0000   0.0000   0.0000   0.0000   0.0000   0.0000   0.0000
     0.0000   0.0000   0.0000   0.0000   0.0000   0.0000   0.0000   0.0000
     0.0000   0.0000   0.0000   0.0000   0.0000   0.0000   0.0000   0.0000
     0.0000   0.0000   0.0000   0.0000   0.0000   0.0000   0.0000   0.0000
     0.0000   0.0000   0.0000   0.0000   0.0000   0.0000   0.0000   0.0000
     0.0000   0.0000   0.0000   0.0000   0.0000   0.0000   0.0000   0.0000

          k = 0.1667-0.4811 0.0000 ( 47608 PWs)   bands (ev):

     0.0000   0.0000   0.0000   0.0000   0.0000   0.0000   0.0000   0.0000
     0.0000   0.0000   0.0000   0.0000   0.0000   0.0000   0.0000   0.0000
     0.0000   0.0000   0.0000   0.0000   0.0000   0.0000   0.0000   0.0000
     0.0000   0.0000   0.0000   0.0000   0.0000   0.0000   0.0000   0.0000
     0.0000   0.0000   0.0000   0.0000   0.0000   0.0000   0.0000   0.0000
     0.0000   0.0000   0.0000   0.0000   0.0000   0.0000   0.0000   0.0000
     0.0000   0.0000   0.0000   0.0000   0.0000   0.0000   0.0000   0.0000
     0.0000   0.0000   0.0000   0.0000   0.0000   0.0000   0.0000   0.0000
     0.0000   0.0000   0.0000   0.0000   0.0000   0.0000   0.0000   0.0000
     0.0000   0.0000   0.0000   0.0000   0.0000   0.0000   0.0000   0.0000
     0.0000   0.0000   0.0000   0.0000   0.0000   0.0000   0.0000   0.0000
     0.0000   0.0000   0.0000   0.0000   0.0000   0.0000   0.0000   0.0000
     0.0000   0.0000   0.0000   0.0000   0.0000   0.0000   0.0000   0.0000
     0.0000   0.0000   0.0000   0.0000   0.0000   0.0000   0.0000   0.0000
     0.0000   0.0000   0.0000   0.0000   0.0000   0.0000   0.0000   0.0000
     0.0000   0.0000   0.0000   0.0000   0.0000   0.0000   0.0000   0.0000
     0.0000   0.0000   0.0000   0.0000   0.0000   0.0000   0.0000   0.0000
     0.0000   0.0000   0.0000   0.0000   0.0000   0.0000   0.0000   0.0000
     0.0000   0.0000   0.0000   0.0000   0.0000   0.0000   0.0000   0.0000
     0.0000   0.0000   0.0000   0.0000   0.0000   0.0000   0.0000   0.0000

          k = 0.1667-0.2887 0.0000 ( 47572 PWs)   bands (ev):

     0.0000   0.0000   0.0000   0.0000   0.0000   0.0000   0.0000   0.0000
     0.0000   0.0000   0.0000   0.0000   0.0000   0.0000   0.0000   0.0000
     0.0000   0.0000   0.0000   0.0000   0.0000   0.0000   0.0000   0.0000
     0.0000   0.0000   0.0000   0.0000   0.0000   0.0000   0.0000   0.0000
     0.0000   0.0000   0.0000   0.0000   0.0000   0.0000   0.0000   0.0000
     0.0000   0.0000   0.0000   0.0000   0.0000   0.0000   0.0000   0.0000
     0.0000   0.0000   0.0000   0.0000   0.0000   0.0000   0.0000   0.0000
     0.0000   0.0000   0.0000   0.0000   0.0000   0.0000   0.0000   0.0000
     0.0000   0.0000   0.0000   0.0000   0.0000   0.0000   0.0000   0.0000
     0.0000   0.0000   0.0000   0.0000   0.0000   0.0000   0.0000   0.0000
     0.0000   0.0000   0.0000   0.0000   0.0000   0.0000   0.0000   0.0000
     0.0000   0.0000   0.0000   0.0000   0.0000   0.0000   0.0000   0.0000
     0.0000   0.0000   0.0000   0.0000   0.0000   0.0000   0.0000   0.0000
     0.0000   0.0000   0.0000   0.0000   0.0000   0.0000   0.0000   0.0000
     0.0000   0.0000   0.0000   0.0000   0.0000   0.0000   0.0000   0.0000
     0.0000   0.0000   0.0000   0.0000   0.0000   0.0000   0.0000   0.0000
     0.0000   0.0000   0.0000   0.0000   0.0000   0.0000   0.0000   0.0000
     0.0000   0.0000   0.0000   0.0000   0.0000   0.0000   0.0000   0.0000
     0.0000   0.0000   0.0000   0.0000   0.0000   0.0000   0.0000   0.0000
     0.0000   0.0000   0.0000   0.0000   0.0000   0.0000   0.0000   0.0000

          k = 0.1667-0.0962 0.0000 ( 47501 PWs)   bands (ev):

     0.0000   0.0000   0.0000   0.0000   0.0000   0.0000   0.0000   0.0000
     0.0000   0.0000   0.0000   0.0000   0.0000   0.0000   0.0000   0.0000
     0.0000   0.0000   0.0000   0.0000   0.0000   0.0000   0.0000   0.0000
     0.0000   0.0000   0.0000   0.0000   0.0000   0.0000   0.0000   0.0000
     0.0000   0.0000   0.0000   0.0000   0.0000   0.0000   0.0000   0.0000
     0.0000   0.0000   0.0000   0.0000   0.0000   0.0000   0.0000   0.0000
     0.0000   0.0000   0.0000   0.0000   0.0000   0.0000   0.0000   0.0000
     0.0000   0.0000   0.0000   0.0000   0.0000   0.0000   0.0000   0.0000
     0.0000   0.0000   0.0000   0.0000   0.0000   0.0000   0.0000   0.0000
     0.0000   0.0000   0.0000   0.0000   0.0000   0.0000   0.0000   0.0000
     0.0000   0.0000   0.0000   0.0000   0.0000   0.0000   0.0000   0.0000
     0.0000   0.0000   0.0000   0.0000   0.0000   0.0000   0.0000   0.0000
     0.0000   0.0000   0.0000   0.0000   0.0000   0.0000   0.0000   0.0000
     0.0000   0.0000   0.0000   0.0000   0.0000   0.0000   0.0000   0.0000
     0.0000   0.0000   0.0000   0.0000   0.0000   0.0000   0.0000   0.0000
     0.0000   0.0000   0.0000   0.0000   0.0000   0.0000   0.0000   0.0000
     0.0000   0.0000   0.0000   0.0000   0.0000   0.0000   0.0000   0.0000
     0.0000   0.0000   0.0000   0.0000   0.0000   0.0000   0.0000   0.0000
     0.0000   0.0000   0.0000   0.0000   0.0000   0.0000   0.0000   0.0000
     0.0000   0.0000   0.0000   0.0000   0.0000   0.0000   0.0000   0.0000

          k = 0.3333 0.1925 0.0000 ( 47521 PWs)   bands (ev):

  -130.0366-128.1861 -99.9112 -99.3628 -98.8127 -98.7793 -92.5788 -91.1620
   -87.2618 -86.3330 -83.0193 -82.3580 -62.3533 -62.0799 -60.1486 -59.7400
   -59.3434 -59.2906 -59.2091 -59.1879 -59.1655 -59.1624 -57.4937 -57.3393
   -54.9872 -54.6656 -54.3437 -54.2304 -54.1853 -54.1669 -54.1580 -54.1257
   -54.1171 -31.7240 -31.5157 -31.2241 -31.1176 -30.9592 -30.8944 -30.8682
   -30.8365 -30.6255 -30.6202 -30.5917 -30.5276 -30.4946 -30.4482 -30.4347
   -30.3666 -30.2917 -30.2807 -30.1768 -30.0536 -29.9689 -29.8883 -29.8557
   -29.8221 -29.7270 -29.6977 -29.6399 -25.7997 -25.5819 -24.9003 -24.6752
   -22.8196 -22.0730 -19.2284 -18.6492 -18.2516 -17.8868  -8.5250  -7.4050
    -7.1447  -7.0542  -6.9332  -6.4954  -5.6766  -5.4462  -3.8638  -2.8588
    -2.7695  -2.5208  -2.2499  -1.8490  -1.6975  -1.3928  -1.3327  -1.2800
    -1.2121  -1.0797  -0.9144  -0.7692  -0.5915  -0.4760  -0.4045  -0.2523
    -0.1737  -0.1366  -0.1106  -0.0503   0.0219   0.0414   0.0897   0.1556
     0.2192   0.2932   0.4196   0.4687   0.6413   0.8199   1.0079   1.1145
     1.3660   1.4665   1.5963   1.6520   1.7684   1.7979   1.8616   2.0696
     2.1755   2.2227   2.2879   2.3266   2.4165   2.4617   2.4978   2.5286
     2.5630   2.6935   2.7237   2.8652   2.8852   2.9066   2.9370   3.0348
     3.0850   3.1537   3.2242   3.3397   3.4645   3.5598   3.6525   3.8847
     3.9626   4.1496   4.2873   4.3054   4.3864   4.4258   4.4411   4.6764
     4.8249   4.8776   4.9197   5.0441   5.2106   5.2885   5.3583   5.4240

          k = 0.3333 0.3849 0.0000 ( 47608 PWs)   bands (ev):

  -130.0367-128.1862 -99.9112 -99.3628 -98.8127 -98.7793 -92.5788 -91.1620
   -87.2619 -86.3331 -83.0194 -82.3581 -62.3534 -62.0800 -60.1486 -59.7400
   -59.3434 -59.2906 -59.2091 -59.1879 -59.1655 -59.1624 -57.4938 -57.3393
   -54.9865 -54.6656 -54.3443 -54.2181 -54.1908 -54.1735 -54.1481 -54.1314
   -54.1219 -31.7220 -31.5160 -31.2274 -31.1150 -30.9569 -30.8878 -30.8789
   -30.8424 -30.6320 -30.6130 -30.5951 -30.5263 -30.4724 -30.4183 -30.4096
   -30.3913 -30.3474 -30.3051 -30.1659 -30.0202 -29.9491 -29.8690 -29.8537
   -29.8049 -29.7608 -29.7077 -29.6642 -25.7997 -25.5819 -24.9002 -24.6752
   -22.8196 -22.0731 -19.2280 -18.6487 -18.2514 -17.8865  -8.0966  -7.4440
    -7.2367  -7.1898  -6.9865  -6.6697  -5.2818  -5.1156  -3.8310  -3.2606
    -3.0871  -2.4028  -2.0274  -1.9231  -1.8462  -1.7475  -1.3525  -1.2935
    -1.2606  -1.0255  -0.8952  -0.8734  -0.7123  -0.6401  -0.5628  -0.4767
    -0.2848  -0.2247  -0.0622   0.0080   0.0658   0.0944   0.1629   0.2490
     0.3150   0.4451   0.4862   0.6603   0.6735   0.8956   1.0244   1.0776
     1.2998   1.3766   1.4125   1.4804   1.6213   1.6716   1.7785   1.8629
     1.9469   2.1339   2.1975   2.3211   2.3687   2.4110   2.4853   2.5309
     2.5938   2.6069   2.6452   2.6742   2.7432   2.7753   2.7945   2.9573
     3.1219   3.3446   3.4135   3.5735   3.6289   3.7273   3.7743   3.9195
     4.0392   4.1677   4.2431   4.4109   4.4555   4.6554   4.7477   4.7613
     4.8045   4.8387   4.9747   5.0098   5.0902   5.2785   5.3457   5.4185

          k = 0.3333 0.5774 0.0000 ( 47664 PWs)   bands (ev):

  -130.0368-128.1862 -99.9113 -99.3628 -98.8127 -98.7793 -92.5788 -91.1620
   -87.2619 -86.3331 -83.0195 -82.3582 -62.3534 -62.0799 -60.1486 -59.7400
   -59.3434 -59.2906 -59.2091 -59.1879 -59.1655 -59.1625 -57.4937 -57.3393
   -54.9861 -54.6657 -54.3446 -54.2105 -54.1896 -54.1825 -54.1387 -54.1326
   -54.1301 -31.7208 -31.5162 -31.2278 -31.1166 -30.9634 -30.9017 -30.8747
   -30.8431 -30.6367 -30.6092 -30.6007 -30.5293 -30.4910 -30.4719 -30.3675
   -30.3594 -30.3407 -30.2919 -30.1038 -29.9675 -29.9116 -29.8991 -29.8909
   -29.8737 -29.7433 -29.7300 -29.6712 -25.7996 -25.5819 -24.9003 -24.6752
   -22.8195 -22.0731 -19.2274 -18.6489 -18.2508 -17.8867  -7.5889  -7.5555
    -7.5341  -7.0326  -6.9976  -6.9650  -5.0059  -4.8892  -3.8077  -3.4115
    -3.1040  -2.5265  -2.4721  -2.0989  -1.9927  -1.7860  -1.3597  -1.2828
    -1.0346  -0.9591  -0.8932  -0.7848  -0.7475  -0.6647  -0.6039  -0.3799
    -0.3485  -0.2119  -0.1734  -0.1214  -0.0667   0.1431   0.2482   0.2764
     0.3265   0.3592   0.5668   0.7233   1.0086   1.1185   1.1298   1.1907
     1.2223   1.2430   1.3035   1.3436   1.4060   1.4521   1.5832   1.9293
     1.9937   2.0656   2.1319   2.2418   2.3333   2.4201   2.4397   2.4635
     2.5103   2.5427   2.5665   2.6439   2.7219   2.7539   2.8269   2.9133
     3.1291   3.3453   3.5450   3.6362   3.7853   3.9159   3.9977   4.0757
     4.2247   4.3167   4.4801   4.5327   4.6155   4.6540   4.6878   4.7619
     4.8360   4.9168   4.9868   5.0035   5.1021   5.1384   5.2817   5.3662

          k = 0.3333-0.3849 0.0000 ( 47608 PWs)   bands (ev):

  -130.0367-128.1862 -99.9113 -99.3628 -98.8127 -98.7793 -92.5788 -91.1620
   -87.2619 -86.3331 -83.0194 -82.3582 -62.3534 -62.0799 -60.1486 -59.7400
   -59.3434 -59.2906 -59.2091 -59.1879 -59.1655 -59.1625 -57.4936 -57.3393
   -54.9864 -54.6659 -54.3442 -54.2183 -54.1900 -54.1742 -54.1479 -54.1309
   -54.1226 -31.7217 -31.5162 -31.2243 -31.1226 -30.9685 -30.9197 -30.8665
   -30.8384 -30.6351 -30.6326 -30.5935 -30.5533 -30.5233 -30.4685 -30.3813
   -30.3284 -30.3124 -30.2241 -30.0576 -29.9719 -29.9680 -29.8981 -29.8928
   -29.8001 -29.7712 -29.7614 -29.7019 -25.7996 -25.5819 -24.9004 -24.6753
   -22.8195 -22.0732 -19.2273 -18.6496 -18.2505 -17.8872  -8.0933  -7.4451
    -7.2292  -7.1917  -6.9761  -6.6862  -5.2599  -5.0973  -3.8283  -3.2480
    -3.1610  -2.5342  -2.0644  -1.9850  -1.8534  -1.7519  -1.4104  -1.3037
    -1.2554  -0.9710  -0.8559  -0.7748  -0.6853  -0.5817  -0.5526  -0.4733
    -0.3254  -0.1836  -0.1439   0.0274   0.0642   0.1684   0.1917   0.2271
     0.2600   0.3650   0.5376   0.6122   0.8334   0.8504   1.0009   1.0423
     1.2401   1.4108   1.4745   1.5648   1.6792   1.7388   1.8299   1.8979
     1.9334   2.0945   2.1511   2.2809   2.3404   2.3797   2.4719   2.5307
     2.5939   2.6246   2.6432   2.7251   2.7532   2.7767   2.8251   2.9805
     3.1174   3.3085   3.3719   3.5241   3.6188   3.7209   3.7741   3.9087
     4.0397   4.1164   4.2764   4.3678   4.4148   4.6770   4.7450   4.7733
     4.8118   4.9326   4.9649   5.0820   5.1583   5.2463   5.3367   5.3638

          k = 0.3333-0.1925 0.0000 ( 47521 PWs)   bands (ev):

  -130.0367-128.1861 -99.9113 -99.3628 -98.8127 -98.7793 -92.5788 -91.1620
   -87.2618 -86.3330 -83.0193 -82.3581 -62.3534 -62.0799 -60.1486 -59.7400
   -59.3434 -59.2906 -59.2091 -59.1879 -59.1655 -59.1625 -57.4935 -57.3393
   -54.9871 -54.6659 -54.3435 -54.2305 -54.1848 -54.1676 -54.1577 -54.1253
   -54.1177 -31.7237 -31.5159 -31.2206 -31.1272 -30.9642 -30.9261 -30.8611
   -30.8327 -30.6441 -30.6259 -30.5916 -30.5654 -30.5248 -30.4598 -30.4134
   -30.3145 -30.2861 -30.1919 -30.0766 -30.0421 -29.9862 -29.9081 -29.8415
   -29.8210 -29.7919 -29.7213 -29.6748 -25.7997 -25.5819 -24.9004 -24.6753
   -22.8195 -22.0732 -19.2277 -18.6502 -18.2507 -17.8874  -8.5232  -7.3936
    -7.1508  -7.0710  -6.9116  -6.5050  -5.6675  -5.4338  -3.8505  -2.8532
    -2.7747  -2.6416  -2.2379  -1.8441  -1.6685  -1.6433  -1.4195  -1.3586
    -1.2888  -1.0327  -0.8436  -0.6778  -0.5343  -0.4420  -0.3434  -0.2740
    -0.1550  -0.1375  -0.0390   0.0143   0.0474   0.0928   0.1427   0.1993
     0.2361   0.2732   0.2829   0.3898   0.7032   0.7803   0.9795   1.2783
     1.3711   1.5008   1.5631   1.6988   1.7861   1.8199   1.8890   2.0957
     2.1261   2.2115   2.2976   2.3407   2.4337   2.4807   2.5267   2.5555
     2.5887   2.6969   2.7132   2.7792   2.8387   2.8646   2.8727   2.9860
     3.0648   3.1411   3.2274   3.3095   3.4207   3.6035   3.6815   3.7921
     3.9553   4.1778   4.2380   4.3223   4.3718   4.4505   4.5503   4.6960
     4.9002   4.9269   4.9724   5.1100   5.1507   5.2614   5.3041   5.3635

          k = 0.3333 0.0000 0.0000 ( 47572 PWs)   bands (ev):

  -130.0367-128.1862 -99.9113 -99.3628 -98.8127 -98.7793 -92.5788 -91.1620
   -87.2618 -86.3330 -83.0194 -82.3581 -62.3534 -62.0799 -60.1486 -59.7400
   -59.3434 -59.2906 -59.2091 -59.1879 -59.1655 -59.1625 -57.4936 -57.3393
   -54.9875 -54.6658 -54.3433 -54.2356 -54.1816 -54.1664 -54.1610 -54.1214
   -54.1174 -31.7250 -31.5156 -31.2208 -31.1236 -30.9625 -30.9113 -30.8611
   -30.8312 -30.6308 -30.6215 -30.5915 -30.5492 -30.5231 -30.4473 -30.4363
   -30.3415 -30.2778 -30.2158 -30.1323 -30.0694 -29.9536 -29.9286 -29.8967
   -29.8265 -29.7449 -29.6832 -29.6302 -25.7997 -25.5819 -24.9004 -24.6752
   -22.8195 -22.0731 -19.2282 -18.6500 -18.2514 -17.8872  -8.6835  -7.4709
    -7.0293  -6.9993  -6.7018  -6.6619  -5.8313  -5.5795  -3.8973  -2.5070
    -2.3827  -2.3290  -2.1815  -2.0797  -1.9766  -1.9344  -1.5708  -1.3456
    -1.2039  -1.0967  -0.8027  -0.6938  -0.4791  -0.4452  -0.2359  -0.2105
    -0.1923  -0.1238  -0.0675   0.0080   0.0456   0.0952   0.1373   0.1813
     0.2666   0.3537   0.4068   0.5254   0.8795   1.1736   1.2233   1.2446
     1.3082   1.3945   1.4582   1.4923   1.8183   1.8837   1.9717   2.0237
     2.1574   2.2584   2.3245   2.3838   2.4068   2.4738   2.5609   2.6096
     2.6341   2.6791   2.7212   2.7380   2.7675   2.8088   2.8856   2.9339
     3.0742   3.1579   3.2607   3.3454   3.4131   3.5325   3.6680   3.7337
     3.9268   4.0771   4.2285   4.3868   4.4701   4.6930   4.7138   4.7472
     4.8074   4.8964   5.0285   5.1622   5.2590   5.3258   5.3361   5.3972

          k =-0.5000-0.2887 0.0000 ( 47568 PWs)   bands (ev):

  -130.0367-128.1862 -99.9112 -99.3628 -98.8126 -98.7794 -92.5788 -91.1620
   -87.2619 -86.3330 -83.0193 -82.3581 -62.3534 -62.0800 -60.1486 -59.7400
   -59.3328 -59.3012 -59.2090 -59.1878 -59.1656 -59.1626 -57.4938 -57.3393
   -54.9865 -54.6657 -54.3443 -54.2153 -54.1964 -54.1706 -54.1443 -54.1380
   -54.1190 -31.7219 -31.5161 -31.2265 -31.0917 -30.9650 -30.8897 -30.8802
   -30.8465 -30.6231 -30.6067 -30.6000 -30.5356 -30.4277 -30.4112 -30.4054
   -30.3873 -30.3815 -30.3603 -30.1833 -30.0451 -29.9541 -29.8468 -29.7973
   -29.7857 -29.7612 -29.7480 -29.6545 -25.7995 -25.5819 -24.9002 -24.6752
   -22.8196 -22.0730 -19.2282 -18.6488 -18.2512 -17.8863  -7.8537  -7.8198
    -7.1676  -7.1454  -7.1250  -6.4891  -5.2783  -5.1563  -3.8615  -3.3277
    -3.2122  -2.6610  -1.7611  -1.6120  -1.5120  -1.4191  -1.3780  -1.2886
    -1.1374  -1.0372  -0.9946  -0.9384  -0.8489  -0.6260  -0.4728  -0.4507
    -0.2888  -0.2658  -0.1046   0.0468   0.0478   0.0664   0.1119   0.1504
     0.2289   0.3144   0.3481   0.4908   0.5462   0.6926   0.7740   1.1290
     1.2319   1.2639   1.5739   1.6424   1.7388   1.7806   1.8224   1.9639
     2.0873   2.1393   2.3190   2.3507   2.3909   2.4500   2.4749   2.4902
     2.5472   2.6147   2.6416   2.7154   2.7466   2.8569   2.8954   2.9110
     2.9678   3.0483   3.3419   3.3701   3.6360   3.7003   3.9074   3.9656
     4.0416   4.0813   4.1957   4.2901   4.4564   4.5078   4.5547   4.6733
     4.8901   4.9470   5.0308   5.0782   5.1116   5.2356   5.3629   5.4295

          k =-0.5000-0.0962 0.0000 ( 47608 PWs)   bands (ev):

  -130.0367-128.1862 -99.9113 -99.3628 -98.8126 -98.7794 -92.5788 -91.1620
   -87.2619 -86.3331 -83.0194 -82.3581 -62.3534 -62.0799 -60.1486 -59.7400
   -59.3328 -59.3012 -59.2090 -59.1878 -59.1656 -59.1626 -57.4937 -57.3393
   -54.9864 -54.6657 -54.3443 -54.2181 -54.1906 -54.1738 -54.1480 -54.1313
   -54.1221 -31.7218 -31.5161 -31.2257 -31.0988 -30.9650 -30.8948 -30.8783
   -30.8439 -30.6190 -30.6118 -30.6019 -30.5394 -30.4928 -30.4173 -30.3977
   -30.3849 -30.3376 -30.3179 -30.1526 -30.0384 -29.9332 -29.8838 -29.8523
   -29.8050 -29.7580 -29.7171 -29.6474 -25.7995 -25.5819 -24.9002 -24.6753
   -22.8196 -22.0731 -19.2280 -18.6492 -18.2509 -17.8865  -8.1008  -7.4419
    -7.2298  -7.1976  -6.9874  -6.6707  -5.3297  -5.1568  -3.8248  -3.0377
    -2.9221  -2.3868  -2.2746  -2.0448  -1.9998  -1.7818  -1.3650  -1.2798
    -1.2470  -1.0048  -0.8896  -0.7874  -0.6376  -0.5656  -0.5070  -0.4832
    -0.2972  -0.2028  -0.1266   0.0088   0.0706   0.1394   0.2186   0.2301
     0.3370   0.4192   0.5009   0.6506   0.6909   0.8868   1.0114   1.1312
     1.1647   1.3521   1.3863   1.4738   1.6065   1.7585   1.8215   1.9546
     2.0804   2.1473   2.2677   2.2989   2.3465   2.4234   2.4520   2.4839
     2.5026   2.5247   2.5602   2.6066   2.6886   2.7597   2.7832   2.9392
     2.9600   3.2037   3.4087   3.5435   3.5968   3.6930   3.8350   4.0409
     4.1123   4.1922   4.2701   4.4032   4.5056   4.6717   4.7049   4.7394
     4.7897   4.8913   4.9714   5.0279   5.2146   5.3028   5.4017   5.4609

          k =-0.5000 0.0962 0.0000 ( 47608 PWs)   bands (ev):

  -130.0367-128.1862 -99.9113 -99.3628 -98.8126 -98.7794 -92.5788 -91.1620
   -87.2619 -86.3331 -83.0194 -82.3581 -62.3534 -62.0799 -60.1486 -59.7400
   -59.3328 -59.3012 -59.2090 -59.1878 -59.1656 -59.1626 -57.4936 -57.3393
   -54.9864 -54.6659 -54.3442 -54.2182 -54.1900 -54.1743 -54.1479 -54.1307
   -54.1228 -31.7216 -31.5162 -31.2235 -31.1144 -30.9626 -30.9076 -30.8746
   -30.8400 -30.6377 -30.6119 -30.6005 -30.5590 -30.5352 -30.4077 -30.3990
   -30.3857 -30.2799 -30.2621 -30.0856 -30.0146 -29.9482 -29.8924 -29.8639
   -29.8593 -29.7579 -29.7261 -29.6657 -25.7995 -25.5819 -24.9003 -24.6753
   -22.8195 -22.0732 -19.2276 -18.6498 -18.2503 -17.8869  -8.1002  -7.4388
    -7.2301  -7.2068  -6.9612  -6.6900  -5.3219  -5.1404  -3.8163  -3.0818
    -2.9001  -2.5278  -2.2941  -2.1402  -1.9450  -1.7251  -1.4129  -1.3241
    -1.2437  -0.9466  -0.8451  -0.7398  -0.6466  -0.5622  -0.5053  -0.3552
    -0.3046  -0.2067  -0.1425  -0.0787   0.0591   0.1375   0.1613   0.2155
     0.3718   0.4036   0.4994   0.6103   0.7949   0.9136   1.0620   1.1405
     1.2207   1.4352   1.4475   1.4686   1.5560   1.7651   1.8436   1.9247
     2.0427   2.1428   2.2311   2.2737   2.3109   2.4338   2.4449   2.4839
     2.5146   2.5344   2.5480   2.6080   2.6759   2.7531   2.8065   2.9037
     3.0835   3.2278   3.3136   3.4518   3.5988   3.7061   3.8418   3.9554
     4.0119   4.1985   4.2815   4.3589   4.4492   4.6603   4.7344   4.7838
     4.8691   4.9357   5.0381   5.1210   5.2662   5.3530   5.4222   5.4425

          k =-0.5000-0.8660 0.0000 ( 47568 PWs)   bands (ev):

  -130.0367-128.1862 -99.9113 -99.3628 -98.8126 -98.7794 -92.5788 -91.1620
   -87.2618 -86.3331 -83.0194 -82.3581 -62.3534 -62.0799 -60.1486 -59.7400
   -59.3328 -59.3013 -59.2090 -59.1878 -59.1656 -59.1626 -57.4935 -57.3393
   -54.9863 -54.6660 -54.3441 -54.2157 -54.1955 -54.1714 -54.1441 -54.1375
   -54.1197 -31.7215 -31.5163 -31.2220 -31.1230 -30.9598 -30.9154 -30.8734
   -30.8387 -30.6543 -30.6116 -30.5982 -30.5715 -30.5402 -30.4111 -30.3922
   -30.3872 -30.2506 -30.2394 -30.0531 -29.9705 -29.9610 -29.9381 -29.8891
   -29.7844 -29.7689 -29.7572 -29.7050 -25.7994 -25.5819 -24.9004 -24.6753
   -22.8195 -22.0732 -19.2273 -18.6501 -18.2499 -17.8871  -7.8481  -7.8233
    -7.1796  -7.1385  -7.1045  -6.5039  -5.2622  -5.1203  -3.8523  -3.4025
    -3.1899  -2.8053  -1.7648  -1.7402  -1.6229  -1.6043  -1.4301  -1.3640
    -1.0248  -0.9255  -0.8330  -0.7716  -0.6856  -0.5971  -0.5424  -0.5024
    -0.4039  -0.2867  -0.2118   0.0376   0.0582   0.0771   0.1611   0.2298
     0.2580   0.3022   0.4600   0.5651   0.6065   0.6470   0.8181   1.0871
     1.3371   1.3571   1.4770   1.5782   1.7999   1.8456   1.9295   1.9532
     2.0274   2.1899   2.3301   2.3472   2.3829   2.4659   2.4766   2.5106
     2.5118   2.5730   2.6144   2.6840   2.7534   2.7983   2.8468   2.8990
     2.9215   3.0183   3.2799   3.3302   3.5291   3.6933   3.7578   3.9314
     4.0272   4.0636   4.2089   4.4031   4.4553   4.5468   4.6774   4.8296
     4.9578   5.0165   5.0384   5.0436   5.1714   5.2302   5.2630   5.3549

     the Fermi energy is     0.1882 ev
     (compare with:     3.2646 eV, computed in scf)

     Writing all to output data dir ./outdir/hetero_r0_1h.save/ :
     XML data file, pseudopotentials, collected wavefunctions
 
     init_run     :     51.57s CPU      7.90s WALL (       1 calls)
     electrons    :     30.88s CPU     30.57s WALL (       1 calls)

     Called by init_run:
     wfcinit      :      0.00s CPU      0.00s WALL (       1 calls)
     potinit      :     46.32s CPU      3.05s WALL (       1 calls)
     hinit0       :      2.21s CPU      1.57s WALL (       1 calls)

     Called by electrons:
     c_bands      :     30.87s CPU     30.56s WALL (       1 calls)
     v_of_rho     :      0.06s CPU      0.07s WALL (       1 calls)
     newd         :      2.69s CPU      2.69s WALL (       1 calls)
     PAW_pot      :      1.80s CPU      0.17s WALL (       1 calls)

     Called by c_bands:
     init_us_2    :      0.01s CPU      0.01s WALL (      10 calls)
     cegterg      :     28.67s CPU     27.96s WALL (      21 calls)

     Called by *egterg:
     cdiaghg      :      5.18s CPU      5.58s WALL (     302 calls)
                                        5.57s GPU  (     302 calls)
     h_psi        :      9.03s CPU      8.58s WALL (     323 calls)
     s_psi        :      2.30s CPU      2.28s WALL (     323 calls)
     g_psi        :      0.04s CPU      0.04s WALL (     292 calls)

     Called by h_psi:
     h_psi:calbec :      0.06s CPU      0.15s WALL (     323 calls)
     vloc_psi     :      6.33s CPU      5.82s WALL (     323 calls)
                                        5.82s GPU  (     323 calls)
     add_vuspsi   :      2.61s CPU      2.58s WALL (     323 calls)

     General routines
     calbec       :      0.05s CPU      0.15s WALL (     323 calls)
     fft          :     33.31s CPU      2.04s WALL (      23 calls)
                                        0.02s GPU  (      21 calls)
     ffts         :     11.07s CPU      0.64s WALL (       2 calls)
     fftw         :      0.03s CPU      5.09s WALL (    2836 calls)
                                        5.07s GPU  (    2836 calls)
     interpolate  :     44.43s CPU      2.71s WALL (       2 calls)
     davcio       :      0.89s CPU      0.75s WALL (      80 calls)
 
 
     PWSCF        :   1m24.75s CPU     40.66s WALL

 
   This run was terminated on:  20:38:14  15Jun2026            

=------------------------------------------------------------------------------=
   JOB DONE.
=------------------------------------------------------------------------------=
