
     Program PWSCF v.7.5 starts on 13Jun2026 at  4:31:22 

     This program is part of the open-source Quantum ESPRESSO suite
     for quantum simulation of materials; please cite
         "P. Giannozzi et al., J. Phys.:Condens. Matter 21 395502 (2009);
         "P. Giannozzi et al., J. Phys.:Condens. Matter 29 465901 (2017);
         "P. Giannozzi et al., J. Chem. Phys. 152 154105 (2020);
          URL http://www.quantum-espresso.org", 
     in publications or presentations arising from this work. More details at
     http://www.quantum-espresso.org/quote

     Serial multi-threaded version, running on   32 processor cores
     10053 MiB available memory on the printing compute node when the environment starts
 
     Reading input from inputs/mg2ni_co_spinchk.in
Warning: card &CELL ignored
Warning: card     CELL_DYNAMICS = 'BFGS' ignored
Warning: card     PRESS_CONV_THR = 0.5 ignored

     Current dimensions of program PWSCF are:
     Max number of different atomic species (ntypx) = 10
     Max number of k-points (npk) =  40000
     Max angular momentum in pseudopotentials (lmaxx) =  4
     file Mg.pbe-n-kjpaw_psl.0.3.0.UPF: wavefunction(s)  3S renormalized
 
 
     G-vector sticks info
     --------------------
     sticks:   dense  smooth     PW     G-vecs:    dense   smooth      PW
     Sum        3029    1511    439               339857   120211   19269
 
     Using Slab Decomposition
 


     bravais-lattice index     =            0
     lattice parameter (alat)  =       9.5474  a.u.
     unit-cell volume          =    1913.4441 (a.u.)^3
     number of atoms/cell      =           18
     number of atomic types    =            3
     number of electrons       =       147.00
     number of Kohn-Sham states=           89
     kinetic-energy cutoff     =      60.0000  Ry
     charge density cutoff     =     480.0000  Ry
     scf convergence threshold =      1.0E-09
     mixing beta               =       0.3000
     number of iterations used =           12  plain     mixing
     Exchange-correlation=  SLA  PW   PBX  PBC
                           (   1   4   3   4   0   0   0)

     GPU acceleration is ACTIVE.  1 visible GPUs per MPI rank


     celldm(1)=   9.547385  celldm(2)=   0.000000  celldm(3)=   0.000000
     celldm(4)=   0.000000  celldm(5)=   0.000000  celldm(6)=   0.000000

     crystal axes: (cart. coord. in units of alat)
               a(1) = (   0.999888   0.001630  -0.014898 )  
               a(2) = (  -0.498532   0.866745  -0.014893 )  
               a(3) = (  -0.038093  -0.065966   2.536884 )  

     reciprocal axes: (cart. coord. in units 2 pi/alat)
               b(1) = (  0.999621  0.575475  0.029974 )  
               b(2) = ( -0.001434  1.153433  0.029971 )  
               b(3) = (  0.005862  0.010151  0.394536 )  


     PseudoPot. # 1 for Co read from file:
     /home/x/Workspace/3-hEspesso/pseudo/Co_pbe_v1.2.uspp.F.UPF
     MD5 check sum: 5f91765df6ddd3222702df6e7b74a16d
     Pseudo is Ultrasoft + core correction, Zval = 17.0
     Generated by new atomic code, or converted to UPF format
     Using radial grid of  863 points,  6 beta functions with: 
                l(1) =   0
                l(2) =   0
                l(3) =   1
                l(4) =   1
                l(5) =   2
                l(6) =   2
     Q(r) pseudized with  8 coefficients,  rinner =    1.200   1.200   1.200
                                                       1.200   1.200

     PseudoPot. # 2 for Mg read from file:
     /home/x/Workspace/3-hEspesso/pseudo/Mg.pbe-n-kjpaw_psl.0.3.0.UPF
     MD5 check sum: 24ecedc7f3e3cbe212e682f4413594e4
     Pseudo is Projector augmented-wave + core cor, Zval =  2.0
     Generated using "atomic" code by A. Dal Corso  v.5.0.99 svn rev. 10869
     Shape of augmentation charge: PSQ
     Using radial grid of 1129 points,  4 beta functions with: 
                l(1) =   0
                l(2) =   0
                l(3) =   1
                l(4) =   1
     Q(r) pseudized with 0 coefficients 


     PseudoPot. # 3 for Ni read from file:
     /home/x/Workspace/3-hEspesso/pseudo/ni_pbe_v1.4.uspp.F.UPF
     MD5 check sum: 1ee80287db30b12d2bc1f57a5b5d6409
     Pseudo is Ultrasoft + core correction, Zval = 18.0
     Generated by new atomic code, or converted to UPF format
     Using radial grid of  865 points,  6 beta functions with: 
                l(1) =   0
                l(2) =   0
                l(3) =   1
                l(4) =   1
                l(5) =   2
                l(6) =   2
     Q(r) pseudized with 10 coefficients,  rinner =    0.980   0.980   0.980
                                                       0.980   0.980

     atomic species   valence    mass     pseudopotential
     Co               17.00    58.93320     Co( 1.00)
     Mg                2.00    24.30500     Mg( 1.00)
     Ni               18.00    58.69340     Ni( 1.00)

     Starting magnetic structure 
     atomic species   magnetization
     Co              0.400
     Mg              0.000
     Ni              0.400

     No symmetry found



   Cartesian axes

     site n.     atom                  positions (alat units)
         1        Co     tau(   1) = (  -0.3066725   0.6826655   2.0991815  )
         2        Mg     tau(   2) = (  -0.0033593   0.2701990   1.2696958  )
         3        Mg     tau(   3) = (   0.6883943   0.1081664   2.0991725  )
         4        Mg     tau(   4) = (   0.4982157   0.5686388   1.2574390  )
         5        Mg     tau(   5) = (   0.2402858   0.6922055   0.3917702  )
         6        Mg     tau(   6) = (   0.2326177   0.1086097   0.4040268  )
         7        Mg     tau(   7) = (   0.2453769   0.4362416   1.8280815  )
         8        Mg     tau(   8) = (   0.4941736  -0.0078300   1.5559898  )
         9        Mg     tau(   9) = (   0.1827628   0.3278087   2.3702601  )
        10        Mg     tau(  10) = (   0.5003594  -0.0244229   0.9725664  )
        11        Mg     tau(  11) = (   0.7472946   0.4032825   0.6888951  )
        12        Mg     tau(  12) = (   0.7298316   0.4003447   0.1054682  )
        13        Ni     tau(  13) = (   0.2495106   0.4055424   0.8307317  )
        14        Ni     tau(  14) = (   0.4765055  -0.0367865  -0.0298076  )
        15        Ni     tau(  15) = (   0.7460775   0.4301223   1.6912749  )
        16        Ni     tau(  16) = (  -0.0001834  -0.0292135   0.8456274  )
        17        Ni     tau(  17) = (  -0.0198189  -0.0426975  -0.0294578  )
        18        Ni     tau(  18) = (   0.0016795  -0.0054654   1.7207201  )

     --------------------------------------------
     DFT-D3 Dispersion Correction (3-body terms):
     --------------------------------------------
       Reference C6 values for interpolation: 

         atom   Coordination number   C6
         Mg         0.000          1366.75
         Mg         0.963           902.54
         Mg         1.950           351.12
         Co         0.000          1065.56
         Co         1.715           373.09
         Co         2.926           296.13
         Co         7.779           236.57
         Ni         0.000          1149.49
         Ni         1.794           356.66
         Ni         6.546           257.56
         Ni         6.292           283.75

       Values used:

         atom   Coordination number  R0_AB[au]  C6      C8
         Co         7.507            3.243    236.57  20800.86
         Mg        11.203            3.292    351.12  31436.69
         Mg        11.114            3.292    351.12  31436.69
         Mg        11.179            3.292    351.12  31436.69
         Mg        11.203            3.292    351.12  31436.69
         Mg        11.179            3.292    351.12  31436.69
         Mg        10.714            3.292    351.12  31436.69
         Mg        11.060            3.292    351.12  31436.69
         Mg        10.714            3.292    351.12  31436.69
         Mg        11.166            3.292    351.12  31436.69
         Mg        11.166            3.292    351.12  31436.69
         Mg        11.060            3.292    351.12  31436.69
         Ni         8.634            3.162    257.83  21604.49
         Ni         8.600            3.162    257.85  21606.09
         Ni         8.600            3.162    257.85  21606.09
         Ni         8.681            3.162    257.81  21602.47
         Ni         8.608            3.162    257.85  21605.69
         Ni         8.608            3.162    257.85  21605.69

         Molecular C6 ( Ry / a.u.^6 ) =    100131.76


     number of k points=   256  Marzari-Vanderbilt smearing, width (Ry)=  0.0100

     Number of k-points >= 100: set verbosity='high' to print them.

     Dense  grid:   339857 G-vectors     FFT dimensions: (  72,  72, 180)

     Smooth grid:   120211 G-vectors     FFT dimensions: (  48,  48, 120)

     Estimated max dynamical RAM per process >      11.81 GB

     Check: negative core charge=   -0.000003
     Generating pointlists ...
     new r_m :   0.1943 (alat units)  1.8550 (a.u.) for type    1
     new r_m :   0.2120 (alat units)  2.0240 (a.u.) for type    2
     new r_m :   0.1943 (alat units)  1.8550 (a.u.) for type    3

     Initial potential from superposition of free atoms

     starting charge     133.9898, renormalised to     147.0000
     Starting wfcs are  135 randomized atomic wfcs

     total cpu time spent up to now is       23.7 secs

     Self-consistent Calculation

     iteration #  1     ecut=    60.00 Ry     beta= 0.30
     Davidson diagonalization with overlap
     ethr =  1.00E-02,  avg # of iterations =  5.5

     total cpu time spent up to now is      113.6 secs

     total energy              =   -2564.01839977 Ry
     estimated scf accuracy    <     492.57337353 Ry

     total magnetization       =     3.49 Bohr mag/cell
     absolute magnetization    =     4.52 Bohr mag/cell

     iteration #  2     ecut=    60.00 Ry     beta= 0.30
     Davidson diagonalization with overlap
     ethr =  1.00E-02,  avg # of iterations =  5.3

     total cpu time spent up to now is      199.6 secs

     total energy              =   -2630.82770635 Ry
     estimated scf accuracy    <     889.53483596 Ry

     total magnetization       =     1.65 Bohr mag/cell
     absolute magnetization    =     2.12 Bohr mag/cell

     iteration #  3     ecut=    60.00 Ry     beta= 0.30
     Davidson diagonalization with overlap
     ethr =  1.00E-02,  avg # of iterations =  6.8

     total cpu time spent up to now is      299.7 secs

     total energy              =   -2710.42857488 Ry
     estimated scf accuracy    <     430.23436157 Ry

     total magnetization       =     1.76 Bohr mag/cell
     absolute magnetization    =     2.52 Bohr mag/cell

     iteration #  4     ecut=    60.00 Ry     beta= 0.30
     Davidson diagonalization with overlap
     ethr =  1.00E-02,  avg # of iterations =  4.5

     total cpu time spent up to now is      375.1 secs

     total energy              =   -2732.99489355 Ry
     estimated scf accuracy    <      81.96312397 Ry

     total magnetization       =     1.32 Bohr mag/cell
     absolute magnetization    =     2.54 Bohr mag/cell

     iteration #  5     ecut=    60.00 Ry     beta= 0.30
     Davidson diagonalization with overlap
     ethr =  1.00E-02,  avg # of iterations =  2.0

     total cpu time spent up to now is      413.6 secs

     total energy              =   -2719.93179284 Ry
     estimated scf accuracy    <      38.83017156 Ry

     total magnetization       =     1.31 Bohr mag/cell
     absolute magnetization    =     3.05 Bohr mag/cell

     iteration #  6     ecut=    60.00 Ry     beta= 0.30
     Davidson diagonalization with overlap
     ethr =  1.00E-02,  avg # of iterations =  3.2

     total cpu time spent up to now is      472.9 secs

     total energy              =   -2728.93455670 Ry
     estimated scf accuracy    <      88.62179396 Ry

     total magnetization       =     4.91 Bohr mag/cell
     absolute magnetization    =     7.05 Bohr mag/cell

     iteration #  7     ecut=    60.00 Ry     beta= 0.30
     Davidson diagonalization with overlap
     ethr =  1.00E-02,  avg # of iterations =  1.4

     total cpu time spent up to now is      508.7 secs

     total energy              =   -2727.29293237 Ry
     estimated scf accuracy    <      64.31585917 Ry

     total magnetization       =     6.62 Bohr mag/cell
     absolute magnetization    =     9.41 Bohr mag/cell

     iteration #  8     ecut=    60.00 Ry     beta= 0.30
     Davidson diagonalization with overlap
     ethr =  1.00E-02,  avg # of iterations =  3.0

     total cpu time spent up to now is      555.6 secs

     total energy              =   -2721.68542778 Ry
     estimated scf accuracy    <     153.64720838 Ry

     total magnetization       =     1.85 Bohr mag/cell
     absolute magnetization    =     3.22 Bohr mag/cell

     iteration #  9     ecut=    60.00 Ry     beta= 0.30
     Davidson diagonalization with overlap
     ethr =  1.00E-02,  avg # of iterations =  3.5

     total cpu time spent up to now is      611.3 secs

     total energy              =   -2729.44788946 Ry
     estimated scf accuracy    <      13.85996149 Ry

     total magnetization       =     2.74 Bohr mag/cell
     absolute magnetization    =     4.27 Bohr mag/cell

     iteration # 10     ecut=    60.00 Ry     beta= 0.30
     Davidson diagonalization with overlap
     ethr =  9.43E-03,  avg # of iterations =  1.0

     total cpu time spent up to now is      641.8 secs

     total energy              =   -2729.40903413 Ry
     estimated scf accuracy    <      12.98237349 Ry

     total magnetization       =     2.47 Bohr mag/cell
     absolute magnetization    =     4.07 Bohr mag/cell

     iteration # 11     ecut=    60.00 Ry     beta= 0.30
     Davidson diagonalization with overlap
     ethr =  8.83E-03,  avg # of iterations =  1.0

     total cpu time spent up to now is      672.3 secs

     total energy              =   -2729.27350128 Ry
     estimated scf accuracy    <      10.40150709 Ry

     total magnetization       =     1.73 Bohr mag/cell
     absolute magnetization    =     3.42 Bohr mag/cell

     iteration # 12     ecut=    60.00 Ry     beta= 0.30
     Davidson diagonalization with overlap
     ethr =  7.08E-03,  avg # of iterations =  1.0

     total cpu time spent up to now is      703.0 secs

     total energy              =   -2728.95219109 Ry
     estimated scf accuracy    <       8.45840551 Ry

     total magnetization       =     3.11 Bohr mag/cell
     absolute magnetization    =     4.60 Bohr mag/cell

     iteration # 13     ecut=    60.00 Ry     beta= 0.30
     Davidson diagonalization with overlap
     ethr =  5.75E-03,  avg # of iterations =  1.0

     total cpu time spent up to now is      733.7 secs

     total energy              =   -2728.64166285 Ry
     estimated scf accuracy    <       8.67957934 Ry

     total magnetization       =     3.66 Bohr mag/cell
     absolute magnetization    =     4.98 Bohr mag/cell

     iteration # 14     ecut=    60.00 Ry     beta= 0.30
     Davidson diagonalization with overlap
     ethr =  5.75E-03,  avg # of iterations =  1.0

     total cpu time spent up to now is      764.5 secs

     total energy              =   -2728.16250605 Ry
     estimated scf accuracy    <       3.86960813 Ry

     total magnetization       =     2.37 Bohr mag/cell
     absolute magnetization    =     3.66 Bohr mag/cell

     iteration # 15     ecut=    60.00 Ry     beta= 0.30
     Davidson diagonalization with overlap
     ethr =  2.63E-03,  avg # of iterations =  2.1

     total cpu time spent up to now is      803.4 secs

     total energy              =   -2728.55062891 Ry
     estimated scf accuracy    <      13.68634666 Ry

     total magnetization       =     1.22 Bohr mag/cell
     absolute magnetization    =     2.36 Bohr mag/cell

     iteration # 16     ecut=    60.00 Ry     beta= 0.30
     Davidson diagonalization with overlap
     ethr =  2.63E-03,  avg # of iterations =  1.0

     total cpu time spent up to now is      834.1 secs

     total energy              =   -2728.50278349 Ry
     estimated scf accuracy    <       4.27048545 Ry

     total magnetization       =     1.44 Bohr mag/cell
     absolute magnetization    =     2.67 Bohr mag/cell

     iteration # 17     ecut=    60.00 Ry     beta= 0.30
     Davidson diagonalization with overlap
     ethr =  2.63E-03,  avg # of iterations =  1.0

     total cpu time spent up to now is      864.6 secs

     total energy              =   -2728.56090003 Ry
     estimated scf accuracy    <       0.88893692 Ry

     total magnetization       =     1.73 Bohr mag/cell
     absolute magnetization    =     2.97 Bohr mag/cell

     iteration # 18     ecut=    60.00 Ry     beta= 0.30
     Davidson diagonalization with overlap
     ethr =  6.05E-04,  avg # of iterations =  1.2

     total cpu time spent up to now is      896.4 secs

     total energy              =   -2728.50358604 Ry
     estimated scf accuracy    <       3.80078333 Ry

     total magnetization       =     1.57 Bohr mag/cell
     absolute magnetization    =     2.71 Bohr mag/cell

     iteration # 19     ecut=    60.00 Ry     beta= 0.30
     Davidson diagonalization with overlap
     ethr =  6.05E-04,  avg # of iterations =  1.0

     total cpu time spent up to now is      926.9 secs

     total energy              =   -2728.49389408 Ry
     estimated scf accuracy    <       0.66359846 Ry

     total magnetization       =     1.73 Bohr mag/cell
     absolute magnetization    =     2.77 Bohr mag/cell

     iteration # 20     ecut=    60.00 Ry     beta= 0.30
     Davidson diagonalization with overlap
     ethr =  4.51E-04,  avg # of iterations =  1.0

     total cpu time spent up to now is      957.8 secs

     total energy              =   -2728.50962313 Ry
     estimated scf accuracy    <       0.12487608 Ry

     total magnetization       =     1.49 Bohr mag/cell
     absolute magnetization    =     2.40 Bohr mag/cell

     iteration # 21     ecut=    60.00 Ry     beta= 0.30
     Davidson diagonalization with overlap
     ethr =  8.49E-05,  avg # of iterations =  2.3

     total cpu time spent up to now is     1000.4 secs

     total energy              =   -2728.53159839 Ry
     estimated scf accuracy    <       1.11288985 Ry

     total magnetization       =     2.09 Bohr mag/cell
     absolute magnetization    =     2.90 Bohr mag/cell

     iteration # 22     ecut=    60.00 Ry     beta= 0.30
     Davidson diagonalization with overlap
     ethr =  8.49E-05,  avg # of iterations =  1.0

     total cpu time spent up to now is     1030.9 secs

     total energy              =   -2728.50782659 Ry
     estimated scf accuracy    <       0.32720704 Ry

     total magnetization       =     1.92 Bohr mag/cell
     absolute magnetization    =     2.71 Bohr mag/cell

     iteration # 23     ecut=    60.00 Ry     beta= 0.30
     Davidson diagonalization with overlap
     ethr =  8.49E-05,  avg # of iterations =  1.8

     total cpu time spent up to now is     1070.7 secs

     total energy              =   -2728.52820614 Ry
     estimated scf accuracy    <       0.18216833 Ry

     total magnetization       =     1.49 Bohr mag/cell
     absolute magnetization    =     2.24 Bohr mag/cell

     iteration # 24     ecut=    60.00 Ry     beta= 0.30
     Davidson diagonalization with overlap
     ethr =  8.49E-05,  avg # of iterations =  1.0

     total cpu time spent up to now is     1101.2 secs

     total energy              =   -2728.53532873 Ry
     estimated scf accuracy    <       0.02067087 Ry

     total magnetization       =     1.62 Bohr mag/cell
     absolute magnetization    =     2.33 Bohr mag/cell

     iteration # 25     ecut=    60.00 Ry     beta= 0.30
     Davidson diagonalization with overlap
     ethr =  1.41E-05,  avg # of iterations =  3.6

     total cpu time spent up to now is     1174.9 secs

     total energy              =   -2728.53337900 Ry
     estimated scf accuracy    <       0.14613290 Ry

     total magnetization       =     1.49 Bohr mag/cell
     absolute magnetization    =     2.17 Bohr mag/cell

     iteration # 26     ecut=    60.00 Ry     beta= 0.30
     Davidson diagonalization with overlap
     ethr =  1.41E-05,  avg # of iterations =  1.0

     total cpu time spent up to now is     1205.4 secs

     total energy              =   -2728.53412407 Ry
     estimated scf accuracy    <       0.02603083 Ry

     total magnetization       =     1.63 Bohr mag/cell
     absolute magnetization    =     2.29 Bohr mag/cell

     iteration # 27     ecut=    60.00 Ry     beta= 0.30
     Davidson diagonalization with overlap
     ethr =  1.41E-05,  avg # of iterations =  1.0

     total cpu time spent up to now is     1235.9 secs

     total energy              =   -2728.53471070 Ry
     estimated scf accuracy    <       0.00890799 Ry

     total magnetization       =     1.69 Bohr mag/cell
     absolute magnetization    =     2.36 Bohr mag/cell

     iteration # 28     ecut=    60.00 Ry     beta= 0.30
     Davidson diagonalization with overlap
     ethr =  6.06E-06,  avg # of iterations =  1.6

     total cpu time spent up to now is     1276.0 secs

     total energy              =   -2728.53417554 Ry
     estimated scf accuracy    <       0.00494624 Ry

     total magnetization       =     1.72 Bohr mag/cell
     absolute magnetization    =     2.38 Bohr mag/cell

     iteration # 29     ecut=    60.00 Ry     beta= 0.30
     Davidson diagonalization with overlap
     ethr =  3.36E-06,  avg # of iterations =  2.1

     total cpu time spent up to now is     1322.1 secs

     total energy              =   -2728.53427779 Ry
     estimated scf accuracy    <       0.01170648 Ry

     total magnetization       =     1.64 Bohr mag/cell
     absolute magnetization    =     2.30 Bohr mag/cell

     iteration # 30     ecut=    60.00 Ry     beta= 0.30
     Davidson diagonalization with overlap
     ethr =  3.36E-06,  avg # of iterations =  1.0

     total cpu time spent up to now is     1352.6 secs

     total energy              =   -2728.53448709 Ry
     estimated scf accuracy    <       0.00974004 Ry

     total magnetization       =     1.62 Bohr mag/cell
     absolute magnetization    =     2.28 Bohr mag/cell

     iteration # 31     ecut=    60.00 Ry     beta= 0.30
     Davidson diagonalization with overlap
     ethr =  3.36E-06,  avg # of iterations =  1.0

     total cpu time spent up to now is     1383.1 secs

     total energy              =   -2728.53468866 Ry
     estimated scf accuracy    <       0.00769650 Ry

     total magnetization       =     1.66 Bohr mag/cell
     absolute magnetization    =     2.32 Bohr mag/cell

     iteration # 32     ecut=    60.00 Ry     beta= 0.30
     Davidson diagonalization with overlap
     ethr =  3.36E-06,  avg # of iterations =  1.0

     total cpu time spent up to now is     1413.5 secs

     total energy              =   -2728.53494826 Ry
     estimated scf accuracy    <       0.00684200 Ry

     total magnetization       =     1.69 Bohr mag/cell
     absolute magnetization    =     2.34 Bohr mag/cell

     iteration # 33     ecut=    60.00 Ry     beta= 0.30
     Davidson diagonalization with overlap
     ethr =  3.36E-06,  avg # of iterations =  1.5

     total cpu time spent up to now is     1449.7 secs

     total energy              =   -2728.53566821 Ry
     estimated scf accuracy    <       0.00193156 Ry

     total magnetization       =     1.81 Bohr mag/cell
     absolute magnetization    =     2.49 Bohr mag/cell

     iteration # 34     ecut=    60.00 Ry     beta= 0.30
     Davidson diagonalization with overlap
     ethr =  1.31E-06,  avg # of iterations =  2.2

     total cpu time spent up to now is     1493.5 secs

     total energy              =   -2728.53593961 Ry
     estimated scf accuracy    <       0.00247587 Ry

     total magnetization       =     1.96 Bohr mag/cell
     absolute magnetization    =     2.67 Bohr mag/cell

     iteration # 35     ecut=    60.00 Ry     beta= 0.30
     Davidson diagonalization with overlap
     ethr =  1.31E-06,  avg # of iterations =  1.9

     total cpu time spent up to now is     1533.1 secs

     total energy              =   -2728.53617266 Ry
     estimated scf accuracy    <       0.00097400 Ry

     total magnetization       =     2.07 Bohr mag/cell
     absolute magnetization    =     2.80 Bohr mag/cell

     iteration # 36     ecut=    60.00 Ry     beta= 0.30
     Davidson diagonalization with overlap
     ethr =  6.63E-07,  avg # of iterations =  1.4

     total cpu time spent up to now is     1568.9 secs

     total energy              =   -2728.53623663 Ry
     estimated scf accuracy    <       0.00011959 Ry

     total magnetization       =     2.05 Bohr mag/cell
     absolute magnetization    =     2.79 Bohr mag/cell

     iteration # 37     ecut=    60.00 Ry     beta= 0.30
     Davidson diagonalization with overlap
     ethr =  8.14E-08,  avg # of iterations =  4.1

     total cpu time spent up to now is     1630.8 secs

     total energy              =   -2728.53628223 Ry
     estimated scf accuracy    <       0.00001971 Ry

     total magnetization       =     2.05 Bohr mag/cell
     absolute magnetization    =     2.79 Bohr mag/cell

     iteration # 38     ecut=    60.00 Ry     beta= 0.30
     Davidson diagonalization with overlap
     ethr =  1.34E-08,  avg # of iterations =  1.6

     total cpu time spent up to now is     1668.1 secs

     total energy              =   -2728.53628645 Ry
     estimated scf accuracy    <       0.00002820 Ry

     total magnetization       =     2.05 Bohr mag/cell
     absolute magnetization    =     2.80 Bohr mag/cell

     iteration # 39     ecut=    60.00 Ry     beta= 0.30
     Davidson diagonalization with overlap
     ethr =  1.34E-08,  avg # of iterations =  2.0

     total cpu time spent up to now is     1705.5 secs

     total energy              =   -2728.53629128 Ry
     estimated scf accuracy    <       0.00001198 Ry

     total magnetization       =     2.05 Bohr mag/cell
     absolute magnetization    =     2.81 Bohr mag/cell

     iteration # 40     ecut=    60.00 Ry     beta= 0.30
     Davidson diagonalization with overlap
     ethr =  8.15E-09,  avg # of iterations =  1.0

     total cpu time spent up to now is     1735.9 secs

     total energy              =   -2728.53629258 Ry
     estimated scf accuracy    <       0.00000106 Ry

     total magnetization       =     2.05 Bohr mag/cell
     absolute magnetization    =     2.81 Bohr mag/cell

     iteration # 41     ecut=    60.00 Ry     beta= 0.30
     Davidson diagonalization with overlap
     ethr =  7.19E-10,  avg # of iterations =  2.9

     total cpu time spent up to now is     1787.1 secs

     total energy              =   -2728.53629299 Ry
     estimated scf accuracy    <       0.00000511 Ry

     total magnetization       =     2.05 Bohr mag/cell
     absolute magnetization    =     2.82 Bohr mag/cell

     iteration # 42     ecut=    60.00 Ry     beta= 0.30
     Davidson diagonalization with overlap
     ethr =  7.19E-10,  avg # of iterations =  2.2

     total cpu time spent up to now is     1828.8 secs

     total energy              =   -2728.53629352 Ry
     estimated scf accuracy    <       0.00000178 Ry

     total magnetization       =     2.05 Bohr mag/cell
     absolute magnetization    =     2.81 Bohr mag/cell

     iteration # 43     ecut=    60.00 Ry     beta= 0.30
     Davidson diagonalization with overlap
     ethr =  7.19E-10,  avg # of iterations =  2.0

     total cpu time spent up to now is     1866.1 secs

     total energy              =   -2728.53629376 Ry
     estimated scf accuracy    <       0.00000024 Ry

     total magnetization       =     2.05 Bohr mag/cell
     absolute magnetization    =     2.81 Bohr mag/cell

     iteration # 44     ecut=    60.00 Ry     beta= 0.30
     Davidson diagonalization with overlap
     ethr =  1.63E-10,  avg # of iterations =  2.1

     total cpu time spent up to now is     1905.8 secs

     total energy              =   -2728.53629381 Ry
     estimated scf accuracy    <       0.00000042 Ry

     total magnetization       =     2.05 Bohr mag/cell
     absolute magnetization    =     2.82 Bohr mag/cell

     iteration # 45     ecut=    60.00 Ry     beta= 0.30
     Davidson diagonalization with overlap
     ethr =  1.63E-10,  avg # of iterations =  1.8

     total cpu time spent up to now is     1944.4 secs

     total energy              =   -2728.53629386 Ry
     estimated scf accuracy    <       0.00000021 Ry

     total magnetization       =     2.05 Bohr mag/cell
     absolute magnetization    =     2.82 Bohr mag/cell

     iteration # 46     ecut=    60.00 Ry     beta= 0.30
     Davidson diagonalization with overlap
     ethr =  1.40E-10,  avg # of iterations =  1.1

     total cpu time spent up to now is     1976.2 secs

     total energy              =   -2728.53629388 Ry
     estimated scf accuracy    <       0.00000015 Ry

     total magnetization       =     2.05 Bohr mag/cell
     absolute magnetization    =     2.82 Bohr mag/cell

     iteration # 47     ecut=    60.00 Ry     beta= 0.30
     Davidson diagonalization with overlap
     ethr =  1.03E-10,  avg # of iterations =  1.0

     total cpu time spent up to now is     2006.9 secs

     total energy              =   -2728.53629391 Ry
     estimated scf accuracy    <       0.00000005 Ry

     total magnetization       =     2.05 Bohr mag/cell
     absolute magnetization    =     2.82 Bohr mag/cell

     iteration # 48     ecut=    60.00 Ry     beta= 0.30
     Davidson diagonalization with overlap
     ethr =  3.41E-11,  avg # of iterations =  2.7

     total cpu time spent up to now is     2054.3 secs

     total energy              =   -2728.53629393 Ry
     estimated scf accuracy    <       0.00000001 Ry

     total magnetization       =     2.05 Bohr mag/cell
     absolute magnetization    =     2.82 Bohr mag/cell

     iteration # 49     ecut=    60.00 Ry     beta= 0.30
     Davidson diagonalization with overlap
     ethr =  9.62E-12,  avg # of iterations =  2.9

     total cpu time spent up to now is     2106.9 secs

     total energy              =   -2728.53629394 Ry
     estimated scf accuracy    <          2.6E-09 Ry

     total magnetization       =     2.05 Bohr mag/cell
     absolute magnetization    =     2.82 Bohr mag/cell

     iteration # 50     ecut=    60.00 Ry     beta= 0.30
     Davidson diagonalization with overlap
     ethr =  1.77E-12,  avg # of iterations =  4.2

     total cpu time spent up to now is     2172.9 secs

     total energy              =   -2728.53629394 Ry
     estimated scf accuracy    <          1.3E-09 Ry

     total magnetization       =     2.05 Bohr mag/cell
     absolute magnetization    =     2.82 Bohr mag/cell

     iteration # 51     ecut=    60.00 Ry     beta= 0.30
     Davidson diagonalization with overlap
     ethr =  8.86E-13,  avg # of iterations =  2.7

     total cpu time spent up to now is     2219.7 secs

     total energy              =   -2728.53629394 Ry
     estimated scf accuracy    <          1.6E-09 Ry

     total magnetization       =     2.05 Bohr mag/cell
     absolute magnetization    =     2.82 Bohr mag/cell

     iteration # 52     ecut=    60.00 Ry     beta= 0.30
     Davidson diagonalization with overlap
     ethr =  8.86E-13,  avg # of iterations =  1.6
 
     Magnetic moment per site  (integrated on atomic sphere of radius R)
     atom   1 (R=0.194)  charge= 15.2575  magn=  1.5719
     atom   2 (R=0.212)  charge=  0.6214  magn= -0.0030
     atom   3 (R=0.212)  charge=  0.6225  magn= -0.0144
     atom   4 (R=0.212)  charge=  0.6269  magn= -0.0020
     atom   5 (R=0.212)  charge=  0.6214  magn= -0.0030
     atom   6 (R=0.212)  charge=  0.6269  magn= -0.0020
     atom   7 (R=0.212)  charge=  0.6349  magn= -0.0077
     atom   8 (R=0.212)  charge=  0.6236  magn= -0.0033
     atom   9 (R=0.212)  charge=  0.6349  magn= -0.0077
     atom  10 (R=0.212)  charge=  0.6344  magn=  0.0027
     atom  11 (R=0.212)  charge=  0.6344  magn=  0.0027
     atom  12 (R=0.212)  charge=  0.6236  magn= -0.0033
     atom  13 (R=0.194)  charge= 16.4786  magn=  0.0306
     atom  14 (R=0.194)  charge= 16.4838  magn=  0.1720
     atom  15 (R=0.194)  charge= 16.4838  magn=  0.1720
     atom  16 (R=0.194)  charge= 16.4972  magn= -0.0363
     atom  17 (R=0.194)  charge= 16.4867  magn=  0.1749
     atom  18 (R=0.194)  charge= 16.4867  magn=  0.1749

     total cpu time spent up to now is     2255.2 secs

     End of self-consistent calculation

     Number of k-points >= 100: set verbosity='high' to print the bands.

     the Fermi energy is     8.0266 ev

!    total energy              =   -2728.53629394 Ry
     estimated scf accuracy    <          3.4E-10 Ry
     smearing contrib. (-TS)   =       0.00059025 Ry
     internal energy E=F+TS    =   -2728.53688419 Ry

     The total energy is F=E-TS. E is the sum of the following terms:
     one-electron contribution =   -2548.87838979 Ry
     hartree contribution      =    1323.36520102 Ry
     xc contribution           =    -264.42617417 Ry
     ewald contribution        =    -893.69505899 Ry
     DFT-D3 Dispersion         =      -0.45150307 Ry
     one-center paw contrib.   =    -344.45095920 Ry

     total magnetization       =     2.05 Bohr mag/cell
     absolute magnetization    =     2.82 Bohr mag/cell

     convergence has been achieved in  52 iterations

     Forces acting on atoms (cartesian axes, Ry/au):

     atom    1 type  1   force =     0.00127778   -0.00073857    0.00001251
     atom    2 type  2   force =     0.00041733    0.00011209   -0.00007876
     atom    3 type  2   force =    -0.00047462    0.00027326   -0.00000076
     atom    4 type  2   force =    -0.00041208   -0.00055227   -0.00058242
     atom    5 type  2   force =     0.00011124   -0.00041741    0.00007751
     atom    6 type  2   force =     0.00027253    0.00063337    0.00058135
     atom    7 type  2   force =    -0.00051666   -0.00068627   -0.00245297
     atom    8 type  2   force =    -0.00006049    0.00045179   -0.00055161
     atom    9 type  2   force =     0.00033561    0.00079090    0.00245071
     atom   10 type  2   force =    -0.00014387    0.00036167   -0.00001622
     atom   11 type  2   force =    -0.00038507   -0.00005611    0.00001471
     atom   12 type  2   force =    -0.00042154   -0.00017330    0.00055065
     atom   13 type  3   force =    -0.00064831    0.00037408   -0.00000980
     atom   14 type  3   force =     0.00291283   -0.00096445    0.00072273
     atom   15 type  3   force =     0.00229188   -0.00203911   -0.00071448
     atom   16 type  3   force =    -0.00074485    0.00042968   -0.00001043
     atom   17 type  3   force =    -0.00191290    0.00108828    0.00039052
     atom   18 type  3   force =    -0.00189882    0.00111238   -0.00038324

     Total force =     0.007104     Total SCF correction =     0.000074


     Computing stress (Cartesian axis) and pressure

          total   stress  (Ry/bohr**3)                   (kbar)     P=        4.78
   0.00003842  -0.00000540   0.00000177            5.65       -0.79        0.26
  -0.00000540   0.00003218   0.00000306           -0.79        4.73        0.45
   0.00000177   0.00000306   0.00002687            0.26        0.45        3.95


     Writing all to output data dir ./outdir/mg2ni_co_spinchk.save/ :
     XML data file, charge density, pseudopotentials, collected wavefunctions
 
     init_run     :     44.91s CPU     23.50s WALL (       1 calls)
     electrons    :   2526.26s CPU   2231.47s WALL (       1 calls)
     forces       :      7.41s CPU      6.80s WALL (       1 calls)
     force_dftd3  :      0.24s CPU      0.22s WALL (       1 calls)
     stress       :     19.59s CPU     16.82s WALL (       1 calls)
     stres_dftd3  :      0.26s CPU      0.23s WALL (       1 calls)

     Called by init_run:
     wfcinit      :     19.38s CPU     20.50s WALL (       1 calls)
     potinit      :     24.16s CPU      1.60s WALL (       1 calls)
     hinit0       :      0.49s CPU      0.41s WALL (       1 calls)

     Called by electrons:
     c_bands      :   2141.73s CPU   1980.19s WALL (      52 calls)
     sum_band     :    290.24s CPU    226.99s WALL (      52 calls)
     v_of_rho     :      0.78s CPU      0.64s WALL (      53 calls)
     newd         :     16.65s CPU     16.53s WALL (      53 calls)
     PAW_pot      :     65.22s CPU      4.29s WALL (      53 calls)
     mix_rho      :      2.78s CPU      2.00s WALL (      52 calls)
     energy_dftd3 :      0.25s CPU      0.24s WALL (       1 calls)

     Called by c_bands:
     init_us_2    :     37.36s CPU     25.99s WALL (   54784 calls)
     cegterg      :   2000.69s CPU   1844.41s WALL (   26624 calls)

     Called by *egterg:
     cdiaghg      :    575.47s CPU    610.92s WALL (   82263 calls)
                                      610.51s GPU  (   82263 calls)
     h_psi        :    669.43s CPU    528.66s WALL (   82775 calls)
     s_psi        :    156.77s CPU    156.26s WALL (   82775 calls)
     g_psi        :      3.22s CPU      3.23s WALL (   55639 calls)

     Called by h_psi:
     h_psi:calbec :      2.62s CPU      2.08s WALL (   82775 calls)
     vloc_psi     :    492.80s CPU    355.68s WALL (   82775 calls)
                                      355.45s GPU  (   82775 calls)
     add_vuspsi   :    170.55s CPU    168.25s WALL (   82775 calls)

     General routines
     calbec       :      2.90s CPU      2.36s WALL (  118103 calls)
     fft          :     19.45s CPU      1.29s WALL (    1363 calls)
                                        0.16s GPU  (    1257 calls)
     ffts         :     10.63s CPU      0.66s WALL (     210 calls)
                                        0.01s GPU  (     104 calls)
     fftw         :      7.57s CPU    362.40s WALL (  929108 calls)
                                      359.62s GPU  (  929108 calls)
     interpolate  :     31.28s CPU      1.91s WALL (     106 calls)
 
 
     PWSCF        :  43m35.55s CPU  38m 2.72s WALL

 
   This run was terminated on:   5: 9:25  13Jun2026            

=------------------------------------------------------------------------------=
   JOB DONE.
=------------------------------------------------------------------------------=
