
     Program PWSCF v.7.5 starts on 13Jun2026 at  5:44:35 

     This program is part of the open-source Quantum ESPRESSO suite
     for quantum simulation of materials; please cite
         "P. Giannozzi et al., J. Phys.:Condens. Matter 21 395502 (2009);
         "P. Giannozzi et al., J. Phys.:Condens. Matter 29 465901 (2017);
         "P. Giannozzi et al., J. Chem. Phys. 152 154105 (2020);
          URL http://www.quantum-espresso.org", 
     in publications or presentations arising from this work. More details at
     http://www.quantum-espresso.org/quote

     Serial multi-threaded version, running on   32 processor cores
     13451 MiB available memory on the printing compute node when the environment starts
 
     Reading input from inputs/mg2nih4_co_spinchk.in
Warning: card &CELL ignored
Warning: card     CELL_DYNAMICS = 'BFGS' ignored
Warning: card     PRESS_CONV_THR = 0.5 ignored

     Current dimensions of program PWSCF are:
     Max number of different atomic species (ntypx) = 10
     Max number of k-points (npk) =  40000
     Max angular momentum in pseudopotentials (lmaxx) =  4
     file Mg.pbe-n-kjpaw_psl.0.3.0.UPF: wavefunction(s)  3S renormalized
 
 
     G-vector sticks info
     --------------------
     sticks:   dense  smooth     PW     G-vecs:    dense   smooth      PW
     Sum        5953    2975    857               292759   103449   16183
 
     Using Slab Decomposition
 


     bravais-lattice index     =            0
     lattice parameter (alat)  =      14.2314  a.u.
     unit-cell volume          =    1648.2864 (a.u.)^3
     number of atoms/cell      =           28
     number of atomic types    =            4
     number of electrons       =       119.00
     number of Kohn-Sham states=           72
     kinetic-energy cutoff     =      60.0000  Ry
     charge density cutoff     =     480.0000  Ry
     scf convergence threshold =      1.0E-09
     mixing beta               =       0.3000
     number of iterations used =           12  plain     mixing
     Exchange-correlation= PBE
                           (   1   4   3   4   0   0   0)

     GPU acceleration is ACTIVE.  1 visible GPUs per MPI rank


     celldm(1)=  14.231369  celldm(2)=   0.000000  celldm(3)=   0.000000
     celldm(4)=   0.000000  celldm(5)=   0.000000  celldm(6)=   0.000000

     crystal axes: (cart. coord. in units of alat)
               a(1) = (   0.999894   0.000926  -0.014546 )  
               a(2) = (  -0.667895   0.767635   0.025582 )  
               a(3) = (  -0.309221   0.153638   0.752125 )  

     reciprocal axes: (cart. coord. in units 2 pi/alat)
               b(1) = (  1.002733  0.864595  0.235640 )  
               b(2) = ( -0.005126  1.307213 -0.269134 )  
               b(3) = (  0.019567 -0.027742  1.343277 )  


     PseudoPot. # 1 for Co read from file:
     /home/x/Workspace/3-hEspesso/pseudo/Co_pbe_v1.2.uspp.F.UPF
     MD5 check sum: 5f91765df6ddd3222702df6e7b74a16d
     Pseudo is Ultrasoft + core correction, Zval = 17.0
     Generated by new atomic code, or converted to UPF format
     Using radial grid of  863 points,  6 beta functions with: 
                l(1) =   0
                l(2) =   0
                l(3) =   1
                l(4) =   1
                l(5) =   2
                l(6) =   2
     Q(r) pseudized with  8 coefficients,  rinner =    1.200   1.200   1.200
                                                       1.200   1.200

     PseudoPot. # 2 for Mg read from file:
     /home/x/Workspace/3-hEspesso/pseudo/Mg.pbe-n-kjpaw_psl.0.3.0.UPF
     MD5 check sum: 24ecedc7f3e3cbe212e682f4413594e4
     Pseudo is Projector augmented-wave + core cor, Zval =  2.0
     Generated using "atomic" code by A. Dal Corso  v.5.0.99 svn rev. 10869
     Shape of augmentation charge: PSQ
     Using radial grid of 1129 points,  4 beta functions with: 
                l(1) =   0
                l(2) =   0
                l(3) =   1
                l(4) =   1
     Q(r) pseudized with 0 coefficients 


     PseudoPot. # 3 for Ni read from file:
     /home/x/Workspace/3-hEspesso/pseudo/ni_pbe_v1.4.uspp.F.UPF
     MD5 check sum: 1ee80287db30b12d2bc1f57a5b5d6409
     Pseudo is Ultrasoft + core correction, Zval = 18.0
     Generated by new atomic code, or converted to UPF format
     Using radial grid of  865 points,  6 beta functions with: 
                l(1) =   0
                l(2) =   0
                l(3) =   1
                l(4) =   1
                l(5) =   2
                l(6) =   2
     Q(r) pseudized with 10 coefficients,  rinner =    0.980   0.980   0.980
                                                       0.980   0.980

     PseudoPot. # 4 for H  read from file:
     /home/x/Workspace/3-hEspesso/pseudo/H.pbe-rrkjus_psl.1.0.0.UPF
     MD5 check sum: f52b6d4d1c606e5624b1dc7b2218f220
     Pseudo is Ultrasoft, Zval =  1.0
     Generated using "atomic" code by A. Dal Corso  v.5.1
     Using radial grid of  929 points,  2 beta functions with: 
                l(1) =   0
                l(2) =   0
     Q(r) pseudized with 0 coefficients 


     atomic species   valence    mass     pseudopotential
     Co               17.00    58.93320     Co( 1.00)
     Mg                2.00    24.30500     Mg( 1.00)
     Ni               18.00    58.69340     Ni( 1.00)
     H                 1.00     1.00794     H ( 1.00)

     Starting magnetic structure 
     atomic species   magnetization
     Co              0.400
     Mg              0.000
     Ni              0.400
     H               0.000

     No symmetry found



   Cartesian axes

     site n.     atom                  positions (alat units)
         1        Co     tau(   1) = (  -0.5612031   0.7071279   0.7338938  )
         2        Mg     tau(   2) = (  -0.4015420   0.6496735   0.3678347  )
         3        Mg     tau(   3) = (   0.4262849   0.2709359   0.3894418  )
         4        Mg     tau(   4) = (   0.5904634   0.2078096   0.0115307  )
         5        Mg     tau(   5) = (   0.1045441   0.8729954   0.5833633  )
         6        Mg     tau(   6) = (  -0.0768310   0.0433825   0.1894053  )
         7        Mg     tau(   7) = (  -0.0787193   0.5028968   0.5662190  )
         8        Mg     tau(   8) = (   0.0778829   0.4248417   0.1861686  )
         9        Ni     tau(   9) = (  -0.2357268   0.8141404   0.6853164  )
        10        Ni     tau(  10) = (  -0.2420010   0.3340491   0.3051089  )
        11        Ni     tau(  11) = (   0.2681059   0.5789445   0.4541832  )
        12        Ni     tau(  12) = (   0.2545136   0.1127194   0.0792281  )
        13        H      tau(  13) = (  -0.0690487   0.7097436   0.7473746  )
        14        H      tau(  14) = (  -0.0522222   0.2807987   0.3670924  )
        15        H      tau(  15) = (   0.0783838   0.6390697   0.3975917  )
        16        H      tau(  16) = (   0.0795202   0.1979408   0.0194753  )
        17        H      tau(  17) = (   0.6700570   0.1502631   0.2709903  )
        18        H      tau(  18) = (   0.5055581   0.2379698   0.6567982  )
        19        H      tau(  19) = (  -0.4254217   0.6675007   0.0649382  )
        20        H      tau(  20) = (  -0.6520541   0.7648467   0.5415989  )
        21        H      tau(  21) = (  -0.4215536   0.8249705   0.5908071  )
        22        H      tau(  22) = (  -0.3417453   0.4437775   0.1496688  )
        23        H      tau(  23) = (   0.4248521   0.5266998   0.5972205  )
        24        H      tau(  24) = (   0.3963909   0.0855094   0.2212349  )
        25        H      tau(  25) = (   0.0579107   0.3111004   0.6611187  )
        26        H      tau(  26) = (   0.3446326   0.5028944   0.2798879  )
        27        H      tau(  27) = (  -0.3237669   0.4176906   0.4739437  )
        28        H      tau(  28) = (  -0.0783739   0.6304892   0.0928338  )

     --------------------------------------------
     DFT-D3 Dispersion Correction (3-body terms):
     --------------------------------------------
       Reference C6 values for interpolation: 

         atom   Coordination number   C6
         H          0.912             6.05
         H          0.000            15.18
         Mg         0.000          1366.75
         Mg         0.963           902.54
         Mg         1.950           351.12
         Co         0.000          1065.56
         Co         1.715           373.09
         Co         2.926           296.13
         Co         7.779           236.57
         Ni         0.000          1149.49
         Ni         1.794           356.66
         Ni         6.546           257.56
         Ni         6.292           283.75

       Values used:

         atom   Coordination number  R0_AB[au]  C6      C8
         Co         8.221            3.243    236.57  20800.86
         Mg         9.644            3.292    351.12  31436.69
         Mg        10.305            3.292    351.12  31436.69
         Mg        10.379            3.292    351.12  31436.69
         Mg        10.179            3.292    351.12  31436.69
         Mg        10.013            3.292    351.12  31436.69
         Mg        10.878            3.292    351.12  31436.69
         Mg        10.206            3.292    351.12  31436.69
         Ni         9.522            3.162    257.61  21585.74
         Ni         9.810            3.162    257.59  21584.09
         Ni         9.708            3.162    257.59  21584.57
         Ni         9.364            3.162    257.63  21587.15
         H          2.291            2.062      6.05     73.18
         H          2.168            2.062      6.05     73.18
         H          2.124            2.062      6.05     73.18
         H          2.254            2.062      6.05     73.18
         H          2.180            2.062      6.05     73.18
         H          2.302            2.062      6.05     73.18
         H          2.172            2.062      6.05     73.18
         H          2.229            2.062      6.05     73.18
         H          1.904            2.062      6.05     73.18
         H          2.265            2.062      6.05     73.18
         H          2.196            2.062      6.05     73.18
         H          2.532            2.062      6.05     73.18
         H          2.561            2.062      6.05     73.18
         H          2.116            2.062      6.05     73.18
         H          2.396            2.062      6.05     73.18
         H          2.006            2.062      6.05     73.18

         Molecular C6 ( Ry / a.u.^6 ) =     61523.73


     number of k points=   384  Marzari-Vanderbilt smearing, width (Ry)=  0.0100

     Number of k-points >= 100: set verbosity='high' to print them.

     Dense  grid:   292759 G-vectors     FFT dimensions: ( 100, 108,  90)

     Smooth grid:   103449 G-vectors     FFT dimensions: (  72,  72,  60)

     Estimated max dynamical RAM per process >      12.13 GB

     Check: negative core charge=   -0.000003
     Generating pointlists ...
     new r_m :   0.0904 (alat units)  1.2861 (a.u.) for type    1
     new r_m :   0.1035 (alat units)  1.4726 (a.u.) for type    2
     new r_m :   0.0836 (alat units)  1.1892 (a.u.) for type    3
     new r_m :   0.0836 (alat units)  1.1892 (a.u.) for type    4

     Initial potential from superposition of free atoms

     starting charge     109.9934, renormalised to     119.0000
     Starting wfcs are  109 randomized atomic wfcs

     total cpu time spent up to now is       27.1 secs

     Self-consistent Calculation

     iteration #  1     ecut=    60.00 Ry     beta= 0.30
     Davidson diagonalization with overlap
     ethr =  1.00E-02,  avg # of iterations =  5.6

     total cpu time spent up to now is      130.6 secs

     total energy              =   -1839.53947452 Ry
     estimated scf accuracy    <     264.80961777 Ry

     total magnetization       =     2.05 Bohr mag/cell
     absolute magnetization    =     3.81 Bohr mag/cell

     iteration #  2     ecut=    60.00 Ry     beta= 0.30
     Davidson diagonalization with overlap
     ethr =  1.00E-02,  avg # of iterations =  3.5

     total cpu time spent up to now is      213.3 secs

     total energy              =   -1923.64919432 Ry
     estimated scf accuracy    <     111.74613222 Ry

     total magnetization       =     1.88 Bohr mag/cell
     absolute magnetization    =     2.46 Bohr mag/cell

     iteration #  3     ecut=    60.00 Ry     beta= 0.30
     Davidson diagonalization with overlap
     ethr =  1.00E-02,  avg # of iterations =  2.1

     total cpu time spent up to now is      271.6 secs

     total energy              =   -1925.03506035 Ry
     estimated scf accuracy    <      24.02709900 Ry

     total magnetization       =     1.90 Bohr mag/cell
     absolute magnetization    =     3.36 Bohr mag/cell

     iteration #  4     ecut=    60.00 Ry     beta= 0.30
     Davidson diagonalization with overlap
     ethr =  1.00E-02,  avg # of iterations =  2.0

     total cpu time spent up to now is      318.1 secs

     total energy              =   -1924.53437051 Ry
     estimated scf accuracy    <       6.42161192 Ry

     total magnetization       =     2.84 Bohr mag/cell
     absolute magnetization    =     4.70 Bohr mag/cell

     iteration #  5     ecut=    60.00 Ry     beta= 0.30
     Davidson diagonalization with overlap
     ethr =  5.40E-03,  avg # of iterations =  2.8

     total cpu time spent up to now is      379.5 secs

     total energy              =   -1923.17625404 Ry
     estimated scf accuracy    <      21.35207773 Ry

     total magnetization       =     5.60 Bohr mag/cell
     absolute magnetization    =     8.21 Bohr mag/cell

     iteration #  6     ecut=    60.00 Ry     beta= 0.30
     Davidson diagonalization with overlap
     ethr =  5.40E-03,  avg # of iterations =  3.0

     total cpu time spent up to now is      441.3 secs

     total energy              =   -1926.30803932 Ry
     estimated scf accuracy    <       8.43091002 Ry

     total magnetization       =     2.54 Bohr mag/cell
     absolute magnetization    =     4.11 Bohr mag/cell

     iteration #  7     ecut=    60.00 Ry     beta= 0.30
     Davidson diagonalization with overlap
     ethr =  5.40E-03,  avg # of iterations =  1.6

     total cpu time spent up to now is      484.9 secs

     total energy              =   -1926.14182189 Ry
     estimated scf accuracy    <       6.21608370 Ry

     total magnetization       =     1.14 Bohr mag/cell
     absolute magnetization    =     2.48 Bohr mag/cell

     iteration #  8     ecut=    60.00 Ry     beta= 0.30
     Davidson diagonalization with overlap
     ethr =  5.22E-03,  avg # of iterations =  1.0

     total cpu time spent up to now is      522.2 secs

     total energy              =   -1926.23734078 Ry
     estimated scf accuracy    <       1.68917840 Ry

     total magnetization       =     1.05 Bohr mag/cell
     absolute magnetization    =     2.41 Bohr mag/cell

     iteration #  9     ecut=    60.00 Ry     beta= 0.30
     Davidson diagonalization with overlap
     ethr =  1.42E-03,  avg # of iterations =  1.0

     total cpu time spent up to now is      559.5 secs

     total energy              =   -1926.24443909 Ry
     estimated scf accuracy    <       0.70239448 Ry

     total magnetization       =     0.97 Bohr mag/cell
     absolute magnetization    =     2.26 Bohr mag/cell

     iteration # 10     ecut=    60.00 Ry     beta= 0.30
     Davidson diagonalization with overlap
     ethr =  5.90E-04,  avg # of iterations =  1.0

     total cpu time spent up to now is      596.8 secs

     total energy              =   -1926.27178149 Ry
     estimated scf accuracy    <       0.19215190 Ry

     total magnetization       =     0.98 Bohr mag/cell
     absolute magnetization    =     2.07 Bohr mag/cell

     iteration # 11     ecut=    60.00 Ry     beta= 0.30
     Davidson diagonalization with overlap
     ethr =  1.61E-04,  avg # of iterations =  1.8

     total cpu time spent up to now is      645.7 secs

     total energy              =   -1926.26879738 Ry
     estimated scf accuracy    <       0.33535292 Ry

     total magnetization       =     0.88 Bohr mag/cell
     absolute magnetization    =     1.56 Bohr mag/cell

     iteration # 12     ecut=    60.00 Ry     beta= 0.30
     Davidson diagonalization with overlap
     ethr =  1.61E-04,  avg # of iterations =  1.0

     total cpu time spent up to now is      683.4 secs

     total energy              =   -1926.24906561 Ry
     estimated scf accuracy    <       0.10021217 Ry

     total magnetization       =     0.76 Bohr mag/cell
     absolute magnetization    =     1.29 Bohr mag/cell

     iteration # 13     ecut=    60.00 Ry     beta= 0.30
     Davidson diagonalization with overlap
     ethr =  8.42E-05,  avg # of iterations =  2.4

     total cpu time spent up to now is      741.0 secs

     total energy              =   -1926.26999623 Ry
     estimated scf accuracy    <       0.22010422 Ry

     total magnetization       =     0.77 Bohr mag/cell
     absolute magnetization    =     1.07 Bohr mag/cell

     iteration # 14     ecut=    60.00 Ry     beta= 0.30
     Davidson diagonalization with overlap
     ethr =  8.42E-05,  avg # of iterations =  1.0

     total cpu time spent up to now is      778.3 secs

     total energy              =   -1926.26966767 Ry
     estimated scf accuracy    <       0.07706260 Ry

     total magnetization       =     0.75 Bohr mag/cell
     absolute magnetization    =     1.02 Bohr mag/cell

     iteration # 15     ecut=    60.00 Ry     beta= 0.30
     Davidson diagonalization with overlap
     ethr =  6.48E-05,  avg # of iterations =  1.0

     total cpu time spent up to now is      815.7 secs

     total energy              =   -1926.27265044 Ry
     estimated scf accuracy    <       0.00868852 Ry

     total magnetization       =     0.62 Bohr mag/cell
     absolute magnetization    =     0.87 Bohr mag/cell

     iteration # 16     ecut=    60.00 Ry     beta= 0.30
     Davidson diagonalization with overlap
     ethr =  7.30E-06,  avg # of iterations =  3.3

     total cpu time spent up to now is      895.0 secs

     total energy              =   -1926.27255812 Ry
     estimated scf accuracy    <       0.00355764 Ry

     total magnetization       =     0.62 Bohr mag/cell
     absolute magnetization    =     0.85 Bohr mag/cell

     iteration # 17     ecut=    60.00 Ry     beta= 0.30
     Davidson diagonalization with overlap
     ethr =  2.99E-06,  avg # of iterations =  4.2

     total cpu time spent up to now is      965.4 secs

     total energy              =   -1926.27306736 Ry
     estimated scf accuracy    <       0.00021138 Ry

     total magnetization       =     0.62 Bohr mag/cell
     absolute magnetization    =     0.81 Bohr mag/cell

     iteration # 18     ecut=    60.00 Ry     beta= 0.30
     Davidson diagonalization with overlap
     ethr =  1.78E-07,  avg # of iterations =  4.5

     total cpu time spent up to now is     1052.9 secs

     total energy              =   -1926.27318912 Ry
     estimated scf accuracy    <       0.00014508 Ry

     total magnetization       =     0.60 Bohr mag/cell
     absolute magnetization    =     0.79 Bohr mag/cell

     iteration # 19     ecut=    60.00 Ry     beta= 0.30
     Davidson diagonalization with overlap
     ethr =  1.22E-07,  avg # of iterations =  2.1

     total cpu time spent up to now is     1103.9 secs

     total energy              =   -1926.27320975 Ry
     estimated scf accuracy    <       0.00019705 Ry

     total magnetization       =     0.58 Bohr mag/cell
     absolute magnetization    =     0.76 Bohr mag/cell

     iteration # 20     ecut=    60.00 Ry     beta= 0.30
     Davidson diagonalization with overlap
     ethr =  1.22E-07,  avg # of iterations =  2.5

     total cpu time spent up to now is     1158.2 secs

     total energy              =   -1926.27325275 Ry
     estimated scf accuracy    <       0.00025274 Ry

     total magnetization       =     0.57 Bohr mag/cell
     absolute magnetization    =     0.74 Bohr mag/cell

     iteration # 21     ecut=    60.00 Ry     beta= 0.30
     Davidson diagonalization with overlap
     ethr =  1.22E-07,  avg # of iterations =  1.5

     total cpu time spent up to now is     1202.1 secs

     total energy              =   -1926.27322413 Ry
     estimated scf accuracy    <       0.00003753 Ry

     total magnetization       =     0.55 Bohr mag/cell
     absolute magnetization    =     0.72 Bohr mag/cell

     iteration # 22     ecut=    60.00 Ry     beta= 0.30
     Davidson diagonalization with overlap
     ethr =  3.15E-08,  avg # of iterations =  3.0

     total cpu time spent up to now is     1263.8 secs

     total energy              =   -1926.27328993 Ry
     estimated scf accuracy    <       0.00001307 Ry

     total magnetization       =     0.50 Bohr mag/cell
     absolute magnetization    =     0.64 Bohr mag/cell

     iteration # 23     ecut=    60.00 Ry     beta= 0.30
     Davidson diagonalization with overlap
     ethr =  1.10E-08,  avg # of iterations =  3.0

     total cpu time spent up to now is     1325.3 secs

     total energy              =   -1926.27331232 Ry
     estimated scf accuracy    <       0.00000639 Ry

     total magnetization       =     0.46 Bohr mag/cell
     absolute magnetization    =     0.59 Bohr mag/cell

     iteration # 24     ecut=    60.00 Ry     beta= 0.30
     Davidson diagonalization with overlap
     ethr =  5.37E-09,  avg # of iterations =  3.0

     total cpu time spent up to now is     1387.5 secs

     total energy              =   -1926.27330748 Ry
     estimated scf accuracy    <       0.00000496 Ry

     total magnetization       =     0.44 Bohr mag/cell
     absolute magnetization    =     0.56 Bohr mag/cell

     iteration # 25     ecut=    60.00 Ry     beta= 0.30
     Davidson diagonalization with overlap
     ethr =  4.17E-09,  avg # of iterations =  3.8

     total cpu time spent up to now is     1464.7 secs

     total energy              =   -1926.27333561 Ry
     estimated scf accuracy    <       0.00000155 Ry

     total magnetization       =     0.39 Bohr mag/cell
     absolute magnetization    =     0.50 Bohr mag/cell

     iteration # 26     ecut=    60.00 Ry     beta= 0.30
     Davidson diagonalization with overlap
     ethr =  1.30E-09,  avg # of iterations =  3.8

     total cpu time spent up to now is     1541.0 secs

     total energy              =   -1926.27333678 Ry
     estimated scf accuracy    <       0.00000056 Ry

     total magnetization       =     0.37 Bohr mag/cell
     absolute magnetization    =     0.47 Bohr mag/cell

     iteration # 27     ecut=    60.00 Ry     beta= 0.30
     Davidson diagonalization with overlap
     ethr =  4.74E-10,  avg # of iterations =  4.5

     total cpu time spent up to now is     1628.1 secs

     total energy              =   -1926.27334309 Ry
     estimated scf accuracy    <       0.00000030 Ry

     total magnetization       =     0.35 Bohr mag/cell
     absolute magnetization    =     0.43 Bohr mag/cell

     iteration # 28     ecut=    60.00 Ry     beta= 0.30
     Davidson diagonalization with overlap
     ethr =  2.51E-10,  avg # of iterations =  4.0

     total cpu time spent up to now is     1708.2 secs

     total energy              =   -1926.27334773 Ry
     estimated scf accuracy    <       0.00000008 Ry

     total magnetization       =     0.33 Bohr mag/cell
     absolute magnetization    =     0.41 Bohr mag/cell

     iteration # 29     ecut=    60.00 Ry     beta= 0.30
     Davidson diagonalization with overlap
     ethr =  6.53E-11,  avg # of iterations =  4.2

     total cpu time spent up to now is     1792.5 secs

     total energy              =   -1926.27334854 Ry
     estimated scf accuracy    <       0.00000005 Ry

     total magnetization       =     0.32 Bohr mag/cell
     absolute magnetization    =     0.40 Bohr mag/cell

     iteration # 30     ecut=    60.00 Ry     beta= 0.30
     Davidson diagonalization with overlap
     ethr =  4.23E-11,  avg # of iterations =  4.0

     total cpu time spent up to now is     1872.0 secs

     total energy              =   -1926.27334906 Ry
     estimated scf accuracy    <       0.00000001 Ry

     total magnetization       =     0.31 Bohr mag/cell
     absolute magnetization    =     0.38 Bohr mag/cell

     iteration # 31     ecut=    60.00 Ry     beta= 0.30
     Davidson diagonalization with overlap
     ethr =  1.21E-11,  avg # of iterations =  4.3

     total cpu time spent up to now is     1960.3 secs

     total energy              =   -1926.27334972 Ry
     estimated scf accuracy    <          5.1E-09 Ry

     total magnetization       =     0.30 Bohr mag/cell
     absolute magnetization    =     0.38 Bohr mag/cell

     iteration # 32     ecut=    60.00 Ry     beta= 0.30
     Davidson diagonalization with overlap
     ethr =  4.31E-12,  avg # of iterations =  4.0

     total cpu time spent up to now is     2036.1 secs

     total energy              =   -1926.27334976 Ry
     estimated scf accuracy    <          2.4E-09 Ry

     total magnetization       =     0.30 Bohr mag/cell
     absolute magnetization    =     0.37 Bohr mag/cell

     iteration # 33     ecut=    60.00 Ry     beta= 0.30
     Davidson diagonalization with overlap
     ethr =  2.00E-12,  avg # of iterations =  3.1
 
     Magnetic moment per site  (integrated on atomic sphere of radius R)
     atom   1 (R=0.090)  charge= 13.2911  magn=  0.1830
     atom   2 (R=0.103)  charge=  0.1429  magn=  0.0006
     atom   3 (R=0.103)  charge=  0.1528  magn=  0.0008
     atom   4 (R=0.103)  charge=  0.1489  magn=  0.0004
     atom   5 (R=0.103)  charge=  0.1430  magn=  0.0006
     atom   6 (R=0.103)  charge=  0.1507  magn=  0.0010
     atom   7 (R=0.103)  charge=  0.1531  magn=  0.0008
     atom   8 (R=0.103)  charge=  0.1479  magn=  0.0005
     atom   9 (R=0.084)  charge= 13.8683  magn=  0.0051
     atom  10 (R=0.084)  charge= 13.8660  magn=  0.0031
     atom  11 (R=0.084)  charge= 13.8744  magn= -0.0022
     atom  12 (R=0.084)  charge= 13.8615  magn= -0.0027
     atom  13 (R=0.084)  charge=  0.7718  magn=  0.0003
     atom  14 (R=0.084)  charge=  0.7686  magn= -0.0000
     atom  15 (R=0.084)  charge=  0.7680  magn=  0.0004
     atom  16 (R=0.084)  charge=  0.7778  magn=  0.0003
     atom  17 (R=0.084)  charge=  0.7676  magn=  0.0003
     atom  18 (R=0.084)  charge=  0.7752  magn=  0.0009
     atom  19 (R=0.084)  charge=  0.7681  magn=  0.0001
     atom  20 (R=0.084)  charge=  0.7743  magn= -0.0006
     atom  21 (R=0.084)  charge=  0.7653  magn= -0.0006
     atom  22 (R=0.084)  charge=  0.7830  magn= -0.0008
     atom  23 (R=0.084)  charge=  0.7751  magn= -0.0005
     atom  24 (R=0.084)  charge=  0.7979  magn=  0.0007
     atom  25 (R=0.084)  charge=  0.7787  magn= -0.0001
     atom  26 (R=0.084)  charge=  0.7634  magn=  0.0001
     atom  27 (R=0.084)  charge=  0.7763  magn=  0.0004
     atom  28 (R=0.084)  charge=  0.7531  magn= -0.0013

     total cpu time spent up to now is     2101.3 secs

     End of self-consistent calculation

     Number of k-points >= 100: set verbosity='high' to print the bands.

     the Fermi energy is     6.9702 ev

!    total energy              =   -1926.27334977 Ry
     estimated scf accuracy    <          5.1E-10 Ry
     smearing contrib. (-TS)   =      -0.00022723 Ry
     internal energy E=F+TS    =   -1926.27312254 Ry

     The total energy is F=E-TS. E is the sum of the following terms:
     one-electron contribution =   -1695.82591251 Ry
     hartree contribution      =     882.75994393 Ry
     xc contribution           =    -198.32757320 Ry
     ewald contribution        =    -695.45719290 Ry
     DFT-D3 Dispersion         =      -0.36884100 Ry
     one-center paw contrib.   =    -219.05354687 Ry

     total magnetization       =     0.30 Bohr mag/cell
     absolute magnetization    =     0.37 Bohr mag/cell

     convergence has been achieved in  33 iterations

     Forces acting on atoms (cartesian axes, Ry/au):

     atom    1 type  1   force =     0.00026267   -0.00008530    0.00014711
     atom    2 type  2   force =     0.00009852    0.00006321    0.00004833
     atom    3 type  2   force =    -0.00004904   -0.00004892   -0.00002437
     atom    4 type  2   force =     0.00007016   -0.00006100    0.00007156
     atom    5 type  2   force =     0.00004064   -0.00004770   -0.00005535
     atom    6 type  2   force =    -0.00005997    0.00005824   -0.00000571
     atom    7 type  2   force =    -0.00007479    0.00006330   -0.00011566
     atom    8 type  2   force =     0.00001601   -0.00008458    0.00006784
     atom    9 type  3   force =    -0.00024159   -0.00014158    0.00011997
     atom   10 type  3   force =     0.00002300   -0.00003359    0.00001112
     atom   11 type  3   force =     0.00000735   -0.00000629    0.00015283
     atom   12 type  3   force =    -0.00009450   -0.00001042   -0.00001101
     atom   13 type  4   force =    -0.00000750    0.00008126    0.00000717
     atom   14 type  4   force =    -0.00003402    0.00004233   -0.00004915
     atom   15 type  4   force =     0.00000766   -0.00002499    0.00004635
     atom   16 type  4   force =    -0.00008384   -0.00005882   -0.00005279
     atom   17 type  4   force =     0.00010398    0.00001174    0.00010311
     atom   18 type  4   force =     0.00005285    0.00007987    0.00009055
     atom   19 type  4   force =    -0.00031702    0.00009051    0.00007353
     atom   20 type  4   force =    -0.00020270    0.00011829   -0.00038914
     atom   21 type  4   force =     0.00025254    0.00006545   -0.00026151
     atom   22 type  4   force =    -0.00005824   -0.00005215    0.00009616
     atom   23 type  4   force =    -0.00022158   -0.00018643   -0.00017948
     atom   24 type  4   force =     0.00003269    0.00007502   -0.00002769
     atom   25 type  4   force =    -0.00002249   -0.00000098   -0.00002401
     atom   26 type  4   force =     0.00010290   -0.00006486   -0.00005200
     atom   27 type  4   force =    -0.00002089    0.00002869    0.00003451
     atom   28 type  4   force =     0.00041721    0.00012968    0.00017773

     Total force =     0.001103     Total SCF correction =     0.000042


     Computing stress (Cartesian axis) and pressure

          total   stress  (Ry/bohr**3)                   (kbar)     P=        0.14
   0.00000081   0.00000015   0.00000041            0.12        0.02        0.06
   0.00000015  -0.00000001   0.00000054            0.02       -0.00        0.08
   0.00000041   0.00000054   0.00000213            0.06        0.08        0.31


     Writing all to output data dir ./outdir/mg2nih4_co_spinchk.save/ :
     XML data file, charge density, pseudopotentials, collected wavefunctions
 
     init_run     :     47.87s CPU     26.83s WALL (       1 calls)
     electrons    :   2311.24s CPU   2074.26s WALL (       1 calls)
     forces       :      8.55s CPU      7.91s WALL (       1 calls)
     force_dftd3  :      0.74s CPU      0.71s WALL (       1 calls)
     stress       :     21.22s CPU     17.55s WALL (       1 calls)
     stres_dftd3  :      0.75s CPU      0.71s WALL (       1 calls)

     Called by init_run:
     wfcinit      :     22.65s CPU     23.81s WALL (       1 calls)
     potinit      :     23.63s CPU      1.41s WALL (       1 calls)
     hinit0       :      0.65s CPU      0.54s WALL (       1 calls)

     Called by electrons:
     c_bands      :   2026.45s CPU   1871.88s WALL (      33 calls)
     sum_band     :    241.50s CPU    188.88s WALL (      33 calls)
     v_of_rho     :      0.51s CPU      0.43s WALL (      34 calls)
     newd         :      9.38s CPU      9.29s WALL (      34 calls)
     PAW_pot      :     25.82s CPU      1.75s WALL (      34 calls)
     mix_rho      :      1.50s CPU      1.09s WALL (      33 calls)
     energy_dftd3 :      0.64s CPU      0.64s WALL (       1 calls)

     Called by c_bands:
     init_us_2    :     41.28s CPU     30.87s WALL (   52992 calls)
     cegterg      :   1916.78s CPU   1766.61s WALL (   25344 calls)

     Called by *egterg:
     cdiaghg      :    622.23s CPU    661.00s WALL (   97323 calls)
                                      660.30s GPU  (   97323 calls)
     h_psi        :    655.75s CPU    524.06s WALL (   98091 calls)
     s_psi        :    154.34s CPU    153.98s WALL (   98091 calls)
     g_psi        :      2.96s CPU      2.96s WALL (   71979 calls)

     Called by h_psi:
     h_psi:calbec :      2.67s CPU      2.30s WALL (   98091 calls)
     vloc_psi     :    490.99s CPU    363.00s WALL (   98091 calls)
                                      362.75s GPU  (   98091 calls)
     add_vuspsi   :    158.58s CPU    156.24s WALL (   98091 calls)

     General routines
     calbec       :      2.78s CPU      2.55s WALL (  136491 calls)
     fft          :     17.92s CPU      1.05s WALL (     888 calls)
                                        0.12s GPU  (     820 calls)
     ffts         :      9.47s CPU      0.58s WALL (     134 calls)
                                        0.00s GPU  (      66 calls)
     fftw         :      6.04s CPU    365.99s WALL (  834842 calls)
                                      363.31s GPU  (  834842 calls)
     interpolate  :     28.21s CPU      1.59s WALL (      68 calls)
 
 
     PWSCF        :  40m14.71s CPU  35m30.64s WALL

 
   This run was terminated on:   6:20: 5  13Jun2026            

=------------------------------------------------------------------------------=
   JOB DONE.
=------------------------------------------------------------------------------=
