
     Program PWSCF v.7.5 starts on 13Jun2026 at  5: 9:26 

     This program is part of the open-source Quantum ESPRESSO suite
     for quantum simulation of materials; please cite
         "P. Giannozzi et al., J. Phys.:Condens. Matter 21 395502 (2009);
         "P. Giannozzi et al., J. Phys.:Condens. Matter 29 465901 (2017);
         "P. Giannozzi et al., J. Chem. Phys. 152 154105 (2020);
          URL http://www.quantum-espresso.org", 
     in publications or presentations arising from this work. More details at
     http://www.quantum-espresso.org/quote

     Serial multi-threaded version, running on   32 processor cores
     16383 MiB available memory on the printing compute node when the environment starts
 
     Reading input from inputs/mg2ni_co_nisite_spinchk.in
Warning: card &CELL ignored
Warning: card     CELL_DYNAMICS = 'BFGS' ignored
Warning: card     PRESS_CONV_THR = 0.5 ignored

     Current dimensions of program PWSCF are:
     Max number of different atomic species (ntypx) = 10
     Max number of k-points (npk) =  40000
     Max angular momentum in pseudopotentials (lmaxx) =  4
     file Mg.pbe-n-kjpaw_psl.0.3.0.UPF: wavefunction(s)  3S renormalized
 
 
     G-vector sticks info
     --------------------
     sticks:   dense  smooth     PW     G-vecs:    dense   smooth      PW
     Sum        3103    1555    451               354005   125019   19967
 
     Using Slab Decomposition
 


     bravais-lattice index     =            0
     lattice parameter (alat)  =       9.6877  a.u.
     unit-cell volume          =    1994.0267 (a.u.)^3
     number of atoms/cell      =           18
     number of atomic types    =            3
     number of electrons       =       131.00
     number of Kohn-Sham states=           79
     kinetic-energy cutoff     =      60.0000  Ry
     charge density cutoff     =     480.0000  Ry
     scf convergence threshold =      1.0E-09
     mixing beta               =       0.3000
     number of iterations used =           12  plain     mixing
     Exchange-correlation=  SLA  PW   PBX  PBC
                           (   1   4   3   4   0   0   0)

     GPU acceleration is ACTIVE.  1 visible GPUs per MPI rank


     celldm(1)=   9.687739  celldm(2)=   0.000000  celldm(3)=   0.000000
     celldm(4)=   0.000000  celldm(5)=   0.000000  celldm(6)=   0.000000

     crystal axes: (cart. coord. in units of alat)
               a(1) = (   1.000000  -0.000066   0.000000 )  
               a(2) = (  -0.500057   0.865992  -0.000000 )  
               a(3) = (   0.000000  -0.000000   2.532598 )  

     reciprocal axes: (cart. coord. in units 2 pi/alat)
               b(1) = (  1.000038  0.577461 -0.000000 )  
               b(2) = (  0.000077  1.154789  0.000000 )  
               b(3) = ( -0.000000  0.000000  0.394851 )  


     PseudoPot. # 1 for Mg read from file:
     /home/x/Workspace/3-hEspesso/pseudo/Mg.pbe-n-kjpaw_psl.0.3.0.UPF
     MD5 check sum: 24ecedc7f3e3cbe212e682f4413594e4
     Pseudo is Projector augmented-wave + core cor, Zval =  2.0
     Generated using "atomic" code by A. Dal Corso  v.5.0.99 svn rev. 10869
     Shape of augmentation charge: PSQ
     Using radial grid of 1129 points,  4 beta functions with: 
                l(1) =   0
                l(2) =   0
                l(3) =   1
                l(4) =   1
     Q(r) pseudized with 0 coefficients 


     PseudoPot. # 2 for Co read from file:
     /home/x/Workspace/3-hEspesso/pseudo/Co_pbe_v1.2.uspp.F.UPF
     MD5 check sum: 5f91765df6ddd3222702df6e7b74a16d
     Pseudo is Ultrasoft + core correction, Zval = 17.0
     Generated by new atomic code, or converted to UPF format
     Using radial grid of  863 points,  6 beta functions with: 
                l(1) =   0
                l(2) =   0
                l(3) =   1
                l(4) =   1
                l(5) =   2
                l(6) =   2
     Q(r) pseudized with  8 coefficients,  rinner =    1.200   1.200   1.200
                                                       1.200   1.200

     PseudoPot. # 3 for Ni read from file:
     /home/x/Workspace/3-hEspesso/pseudo/ni_pbe_v1.4.uspp.F.UPF
     MD5 check sum: 1ee80287db30b12d2bc1f57a5b5d6409
     Pseudo is Ultrasoft + core correction, Zval = 18.0
     Generated by new atomic code, or converted to UPF format
     Using radial grid of  865 points,  6 beta functions with: 
                l(1) =   0
                l(2) =   0
                l(3) =   1
                l(4) =   1
                l(5) =   2
                l(6) =   2
     Q(r) pseudized with 10 coefficients,  rinner =    0.980   0.980   0.980
                                                       0.980   0.980

     atomic species   valence    mass     pseudopotential
     Mg                2.00    24.30500     Mg( 1.00)
     Co               17.00    58.93320     Co( 1.00)
     Ni               18.00    58.69340     Ni( 1.00)

     Starting magnetic structure 
     atomic species   magnetization
     Mg              0.000
     Co              0.400
     Ni              0.400

     No symmetry found



   Cartesian axes

     site n.     atom                  positions (alat units)
         1        Mg     tau(   1) = (  -0.2522348   0.7229118   2.1104985  )
         2        Mg     tau(   2) = (   0.0013731   0.2873423   1.2653624  )
         3        Mg     tau(   3) = (   0.7521773   0.1430142   2.1104985  )
         4        Mg     tau(   4) = (   0.4985695   0.5785836   1.2653624  )
         5        Mg     tau(   5) = (   0.2517833   0.7210656   0.4230365  )
         6        Mg     tau(   6) = (   0.2481592   0.1448603   0.4230365  )
         7        Mg     tau(   7) = (   0.2499713   0.4329630   1.8198007  )
         8        Mg     tau(   8) = (   0.5000000  -0.0000332   1.5561350  )
         9        Mg     tau(   9) = (   0.2499713   0.4329630   2.4011963  )
        10        Mg     tau(  10) = (   0.5000000  -0.0000332   0.9729791  )
        11        Mg     tau(  11) = (   0.7499713   0.4329298   0.7154198  )
        12        Mg     tau(  12) = (   0.7499713   0.4329298   0.1322638  )
        13        Co     tau(  13) = (   0.2499713   0.4329630   0.8441994  )
        14        Ni     tau(  14) = (   0.5000000  -0.0000332   0.0005284  )
        15        Ni     tau(  15) = (   0.7499713   0.4329298   1.6878706  )
        16        Ni     tau(  16) = (   0.0000000  -0.0000000   0.8441993  )
        17        Ni     tau(  17) = (  -0.0000000   0.0000000   0.0003651  )
        18        Ni     tau(  18) = (   0.0000000  -0.0000000   1.6880339  )

     --------------------------------------------
     DFT-D3 Dispersion Correction (3-body terms):
     --------------------------------------------
       Reference C6 values for interpolation: 

         atom   Coordination number   C6
         Mg         0.000          1366.75
         Mg         0.963           902.54
         Mg         1.950           351.12
         Co         0.000          1065.56
         Co         1.715           373.09
         Co         2.926           296.13
         Co         7.779           236.57
         Ni         0.000          1149.49
         Ni         1.794           356.66
         Ni         6.546           257.56
         Ni         6.292           283.75

       Values used:

         atom   Coordination number  R0_AB[au]  C6      C8
         Mg        10.879            3.292    351.12  31436.69
         Mg        10.904            3.292    351.12  31436.69
         Mg        10.879            3.292    351.12  31436.69
         Mg        10.904            3.292    351.12  31436.69
         Mg        10.904            3.292    351.12  31436.69
         Mg        10.904            3.292    351.12  31436.69
         Mg        10.865            3.292    351.12  31436.69
         Mg        10.849            3.292    351.12  31436.69
         Mg        10.865            3.292    351.12  31436.69
         Mg        10.907            3.292    351.12  31436.69
         Mg        10.907            3.292    351.12  31436.69
         Mg        10.849            3.292    351.12  31436.69
         Co         8.618            3.243    236.57  20800.86
         Ni         8.475            3.162    257.93  21612.99
         Ni         8.475            3.162    257.93  21612.99
         Ni         8.561            3.162    257.88  21608.07
         Ni         8.499            3.162    257.92  21611.50
         Ni         8.499            3.162    257.92  21611.50

         Molecular C6 ( Ry / a.u.^6 ) =    101896.89


     number of k points=   256  Marzari-Vanderbilt smearing, width (Ry)=  0.0100

     Number of k-points >= 100: set verbosity='high' to print them.

     Dense  grid:   354005 G-vectors     FFT dimensions: (  72,  72, 180)

     Smooth grid:   125019 G-vectors     FFT dimensions: (  48,  48, 125)

     Estimated max dynamical RAM per process >      11.12 GB

     Check: negative core charge=   -0.000002
     Generating pointlists ...
     new r_m :   0.2103 (alat units)  2.0375 (a.u.) for type    1
     new r_m :   0.2062 (alat units)  1.9979 (a.u.) for type    2
     new r_m :   0.2062 (alat units)  1.9979 (a.u.) for type    3

     Initial potential from superposition of free atoms

     starting charge     119.9889, renormalised to     131.0000
     Starting wfcs are  126 randomized atomic wfcs

     total cpu time spent up to now is       21.9 secs

     Self-consistent Calculation

     iteration #  1     ecut=    60.00 Ry     beta= 0.30
     Davidson diagonalization with overlap
     ethr =  1.00E-02,  avg # of iterations =  5.4

     total cpu time spent up to now is      104.8 secs

     total energy              =   -2275.69943251 Ry
     estimated scf accuracy    <     421.89527098 Ry

     total magnetization       =     3.46 Bohr mag/cell
     absolute magnetization    =     4.64 Bohr mag/cell

     iteration #  2     ecut=    60.00 Ry     beta= 0.30
     Davidson diagonalization with overlap
     ethr =  1.00E-02,  avg # of iterations =  6.1

     total cpu time spent up to now is      194.0 secs

     total energy              =   -2358.42109422 Ry
     estimated scf accuracy    <     563.66390403 Ry

     total magnetization       =    14.75 Bohr mag/cell
     absolute magnetization    =    15.04 Bohr mag/cell

     iteration #  3     ecut=    60.00 Ry     beta= 0.30
     Davidson diagonalization with overlap
     ethr =  1.00E-02,  avg # of iterations =  6.5

     total cpu time spent up to now is      285.9 secs

     total energy              =   -2401.78409054 Ry
     estimated scf accuracy    <     351.01759021 Ry

     total magnetization       =     5.85 Bohr mag/cell
     absolute magnetization    =     6.09 Bohr mag/cell

     iteration #  4     ecut=    60.00 Ry     beta= 0.30
     Davidson diagonalization with overlap
     ethr =  1.00E-02,  avg # of iterations =  4.8

     total cpu time spent up to now is      357.9 secs

     total energy              =   -2423.05551060 Ry
     estimated scf accuracy    <      71.72891862 Ry

     total magnetization       =     1.14 Bohr mag/cell
     absolute magnetization    =     2.06 Bohr mag/cell

     iteration #  5     ecut=    60.00 Ry     beta= 0.30
     Davidson diagonalization with overlap
     ethr =  1.00E-02,  avg # of iterations =  2.0

     total cpu time spent up to now is      392.9 secs

     total energy              =   -2413.69300579 Ry
     estimated scf accuracy    <      38.33133713 Ry

     total magnetization       =     1.35 Bohr mag/cell
     absolute magnetization    =     2.51 Bohr mag/cell

     iteration #  6     ecut=    60.00 Ry     beta= 0.30
     Davidson diagonalization with overlap
     ethr =  1.00E-02,  avg # of iterations =  2.7

     total cpu time spent up to now is      441.8 secs

     total energy              =   -2419.33921404 Ry
     estimated scf accuracy    <      38.78178247 Ry

     total magnetization       =     4.66 Bohr mag/cell
     absolute magnetization    =     7.18 Bohr mag/cell

     iteration #  7     ecut=    60.00 Ry     beta= 0.30
     Davidson diagonalization with overlap
     ethr =  1.00E-02,  avg # of iterations =  2.3

     total cpu time spent up to now is      481.4 secs

     total energy              =   -2419.59765483 Ry
     estimated scf accuracy    <      58.67238647 Ry

     total magnetization       =     9.61 Bohr mag/cell
     absolute magnetization    =    12.35 Bohr mag/cell

     iteration #  8     ecut=    60.00 Ry     beta= 0.30
     Davidson diagonalization with overlap
     ethr =  1.00E-02,  avg # of iterations =  2.9

     total cpu time spent up to now is      525.3 secs

     total energy              =   -2416.35303739 Ry
     estimated scf accuracy    <     132.31671413 Ry

     total magnetization       =     2.74 Bohr mag/cell
     absolute magnetization    =     4.51 Bohr mag/cell

     iteration #  9     ecut=    60.00 Ry     beta= 0.30
     Davidson diagonalization with overlap
     ethr =  1.00E-02,  avg # of iterations =  3.1

     total cpu time spent up to now is      569.9 secs

     total energy              =   -2418.49964556 Ry
     estimated scf accuracy    <      21.99459891 Ry

     total magnetization       =     5.18 Bohr mag/cell
     absolute magnetization    =     6.64 Bohr mag/cell

     iteration # 10     ecut=    60.00 Ry     beta= 0.30
     Davidson diagonalization with overlap
     ethr =  1.00E-02,  avg # of iterations =  1.7

     total cpu time spent up to now is      607.1 secs

     total energy              =   -2419.34372651 Ry
     estimated scf accuracy    <       8.54873283 Ry

     total magnetization       =     1.18 Bohr mag/cell
     absolute magnetization    =     2.96 Bohr mag/cell

     iteration # 11     ecut=    60.00 Ry     beta= 0.30
     Davidson diagonalization with overlap
     ethr =  6.53E-03,  avg # of iterations =  1.1

     total cpu time spent up to now is      637.0 secs

     total energy              =   -2419.24580465 Ry
     estimated scf accuracy    <       8.58843931 Ry

     total magnetization       =     2.35 Bohr mag/cell
     absolute magnetization    =     4.06 Bohr mag/cell

     iteration # 12     ecut=    60.00 Ry     beta= 0.30
     Davidson diagonalization with overlap
     ethr =  6.53E-03,  avg # of iterations =  1.0

     total cpu time spent up to now is      666.1 secs

     total energy              =   -2418.85643270 Ry
     estimated scf accuracy    <       9.15567250 Ry

     total magnetization       =     3.66 Bohr mag/cell
     absolute magnetization    =     4.92 Bohr mag/cell

     iteration # 13     ecut=    60.00 Ry     beta= 0.30
     Davidson diagonalization with overlap
     ethr =  6.53E-03,  avg # of iterations =  1.1

     total cpu time spent up to now is      695.8 secs

     total energy              =   -2418.73998042 Ry
     estimated scf accuracy    <       4.15066079 Ry

     total magnetization       =     1.06 Bohr mag/cell
     absolute magnetization    =     2.64 Bohr mag/cell

     iteration # 14     ecut=    60.00 Ry     beta= 0.30
     Davidson diagonalization with overlap
     ethr =  3.17E-03,  avg # of iterations =  1.2

     total cpu time spent up to now is      726.7 secs

     total energy              =   -2418.81852913 Ry
     estimated scf accuracy    <       1.13967950 Ry

     total magnetization       =     1.72 Bohr mag/cell
     absolute magnetization    =     3.25 Bohr mag/cell

     iteration # 15     ecut=    60.00 Ry     beta= 0.30
     Davidson diagonalization with overlap
     ethr =  8.70E-04,  avg # of iterations =  2.1

     total cpu time spent up to now is      766.8 secs

     total energy              =   -2418.87428012 Ry
     estimated scf accuracy    <       0.31942418 Ry

     total magnetization       =     1.79 Bohr mag/cell
     absolute magnetization    =     3.20 Bohr mag/cell

     iteration # 16     ecut=    60.00 Ry     beta= 0.30
     Davidson diagonalization with overlap
     ethr =  2.44E-04,  avg # of iterations =  1.7

     total cpu time spent up to now is      803.8 secs

     total energy              =   -2418.92236417 Ry
     estimated scf accuracy    <       0.58709977 Ry

     total magnetization       =     2.17 Bohr mag/cell
     absolute magnetization    =     3.44 Bohr mag/cell

     iteration # 17     ecut=    60.00 Ry     beta= 0.30
     Davidson diagonalization with overlap
     ethr =  2.44E-04,  avg # of iterations =  1.5

     total cpu time spent up to now is      838.5 secs

     total energy              =   -2418.81520644 Ry
     estimated scf accuracy    <       1.41632959 Ry

     total magnetization       =     2.50 Bohr mag/cell
     absolute magnetization    =     3.60 Bohr mag/cell

     iteration # 18     ecut=    60.00 Ry     beta= 0.30
     Davidson diagonalization with overlap
     ethr =  2.44E-04,  avg # of iterations =  2.1

     total cpu time spent up to now is      875.7 secs

     total energy              =   -2418.84757546 Ry
     estimated scf accuracy    <       0.87186598 Ry

     total magnetization       =     0.87 Bohr mag/cell
     absolute magnetization    =     2.05 Bohr mag/cell

     iteration # 19     ecut=    60.00 Ry     beta= 0.30
     Davidson diagonalization with overlap
     ethr =  2.44E-04,  avg # of iterations =  2.1

     total cpu time spent up to now is      912.9 secs

     total energy              =   -2418.88366746 Ry
     estimated scf accuracy    <       0.07901611 Ry

     total magnetization       =     0.89 Bohr mag/cell
     absolute magnetization    =     1.86 Bohr mag/cell

     iteration # 20     ecut=    60.00 Ry     beta= 0.30
     Davidson diagonalization with overlap
     ethr =  6.03E-05,  avg # of iterations =  1.7

     total cpu time spent up to now is      952.4 secs

     total energy              =   -2418.88299693 Ry
     estimated scf accuracy    <       0.05928799 Ry

     total magnetization       =     0.57 Bohr mag/cell
     absolute magnetization    =     1.35 Bohr mag/cell

     iteration # 21     ecut=    60.00 Ry     beta= 0.30
     Davidson diagonalization with overlap
     ethr =  4.53E-05,  avg # of iterations =  1.7

     total cpu time spent up to now is      991.0 secs

     total energy              =   -2418.88444231 Ry
     estimated scf accuracy    <       0.03291311 Ry

     total magnetization       =     0.32 Bohr mag/cell
     absolute magnetization    =     0.92 Bohr mag/cell

     iteration # 22     ecut=    60.00 Ry     beta= 0.30
     Davidson diagonalization with overlap
     ethr =  2.51E-05,  avg # of iterations =  2.8

     total cpu time spent up to now is     1046.5 secs

     total energy              =   -2418.88608734 Ry
     estimated scf accuracy    <       0.03278738 Ry

     total magnetization       =     0.51 Bohr mag/cell
     absolute magnetization    =     0.99 Bohr mag/cell

     iteration # 23     ecut=    60.00 Ry     beta= 0.30
     Davidson diagonalization with overlap
     ethr =  2.50E-05,  avg # of iterations =  1.0

     total cpu time spent up to now is     1076.0 secs

     total energy              =   -2418.88754431 Ry
     estimated scf accuracy    <       0.00285608 Ry

     total magnetization       =     0.45 Bohr mag/cell
     absolute magnetization    =     0.90 Bohr mag/cell

     iteration # 24     ecut=    60.00 Ry     beta= 0.30
     Davidson diagonalization with overlap
     c_bands:  1 eigenvalues not converged
     ethr =  2.18E-06,  avg # of iterations =  5.6

     total cpu time spent up to now is     1151.5 secs

     total energy              =   -2418.88814865 Ry
     estimated scf accuracy    <       0.00975162 Ry

     total magnetization       =     0.55 Bohr mag/cell
     absolute magnetization    =     0.94 Bohr mag/cell

     iteration # 25     ecut=    60.00 Ry     beta= 0.30
     Davidson diagonalization with overlap
     ethr =  2.18E-06,  avg # of iterations =  1.5

     total cpu time spent up to now is     1185.5 secs

     total energy              =   -2418.88846789 Ry
     estimated scf accuracy    <       0.00192207 Ry

     total magnetization       =     0.53 Bohr mag/cell
     absolute magnetization    =     0.90 Bohr mag/cell

     iteration # 26     ecut=    60.00 Ry     beta= 0.30
     Davidson diagonalization with overlap
     ethr =  1.47E-06,  avg # of iterations =  1.9

     total cpu time spent up to now is     1225.9 secs

     total energy              =   -2418.88874961 Ry
     estimated scf accuracy    <       0.00421820 Ry

     total magnetization       =     0.61 Bohr mag/cell
     absolute magnetization    =     0.94 Bohr mag/cell

     iteration # 27     ecut=    60.00 Ry     beta= 0.30
     Davidson diagonalization with overlap
     ethr =  1.47E-06,  avg # of iterations =  1.0

     total cpu time spent up to now is     1254.8 secs

     total energy              =   -2418.88888820 Ry
     estimated scf accuracy    <       0.00383393 Ry

     total magnetization       =     0.64 Bohr mag/cell
     absolute magnetization    =     0.97 Bohr mag/cell

     iteration # 28     ecut=    60.00 Ry     beta= 0.30
     Davidson diagonalization with overlap
     ethr =  1.47E-06,  avg # of iterations =  1.5

     total cpu time spent up to now is     1288.5 secs

     total energy              =   -2418.88905213 Ry
     estimated scf accuracy    <       0.00369600 Ry

     total magnetization       =     0.69 Bohr mag/cell
     absolute magnetization    =     1.02 Bohr mag/cell

     iteration # 29     ecut=    60.00 Ry     beta= 0.30
     Davidson diagonalization with overlap
     ethr =  1.47E-06,  avg # of iterations =  1.1

     total cpu time spent up to now is     1318.6 secs

     total energy              =   -2418.88906661 Ry
     estimated scf accuracy    <       0.00187861 Ry

     total magnetization       =     0.70 Bohr mag/cell
     absolute magnetization    =     1.04 Bohr mag/cell

     iteration # 30     ecut=    60.00 Ry     beta= 0.30
     Davidson diagonalization with overlap
     ethr =  1.43E-06,  avg # of iterations =  2.0

     total cpu time spent up to now is     1353.9 secs

     total energy              =   -2418.88938668 Ry
     estimated scf accuracy    <       0.00208133 Ry

     total magnetization       =     0.77 Bohr mag/cell
     absolute magnetization    =     1.18 Bohr mag/cell

     iteration # 31     ecut=    60.00 Ry     beta= 0.30
     Davidson diagonalization with overlap
     ethr =  1.43E-06,  avg # of iterations =  1.1

     total cpu time spent up to now is     1384.3 secs

     total energy              =   -2418.88929225 Ry
     estimated scf accuracy    <       0.00299083 Ry

     total magnetization       =     0.82 Bohr mag/cell
     absolute magnetization    =     1.26 Bohr mag/cell

     iteration # 32     ecut=    60.00 Ry     beta= 0.30
     Davidson diagonalization with overlap
     ethr =  1.43E-06,  avg # of iterations =  1.6

     total cpu time spent up to now is     1418.1 secs

     total energy              =   -2418.88950506 Ry
     estimated scf accuracy    <       0.00010758 Ry

     total magnetization       =     0.84 Bohr mag/cell
     absolute magnetization    =     1.35 Bohr mag/cell

     iteration # 33     ecut=    60.00 Ry     beta= 0.30
     Davidson diagonalization with overlap
     ethr =  8.21E-08,  avg # of iterations =  4.0

     total cpu time spent up to now is     1477.5 secs

     total energy              =   -2418.88953129 Ry
     estimated scf accuracy    <       0.00001337 Ry

     total magnetization       =     0.83 Bohr mag/cell
     absolute magnetization    =     1.34 Bohr mag/cell

     iteration # 34     ecut=    60.00 Ry     beta= 0.30
     Davidson diagonalization with overlap
     ethr =  1.02E-08,  avg # of iterations =  3.7

     total cpu time spent up to now is     1535.4 secs

     total energy              =   -2418.88956261 Ry
     estimated scf accuracy    <       0.00002162 Ry

     total magnetization       =     0.86 Bohr mag/cell
     absolute magnetization    =     1.39 Bohr mag/cell

     iteration # 35     ecut=    60.00 Ry     beta= 0.30
     Davidson diagonalization with overlap
     ethr =  1.02E-08,  avg # of iterations =  1.5

     total cpu time spent up to now is     1568.0 secs

     total energy              =   -2418.88956477 Ry
     estimated scf accuracy    <       0.00000164 Ry

     total magnetization       =     0.86 Bohr mag/cell
     absolute magnetization    =     1.39 Bohr mag/cell

     iteration # 36     ecut=    60.00 Ry     beta= 0.30
     Davidson diagonalization with overlap
     ethr =  1.25E-09,  avg # of iterations =  2.6

     total cpu time spent up to now is     1612.1 secs

     total energy              =   -2418.88956532 Ry
     estimated scf accuracy    <       0.00000143 Ry

     total magnetization       =     0.86 Bohr mag/cell
     absolute magnetization    =     1.39 Bohr mag/cell

     iteration # 37     ecut=    60.00 Ry     beta= 0.30
     Davidson diagonalization with overlap
     ethr =  1.09E-09,  avg # of iterations =  2.0

     total cpu time spent up to now is     1647.5 secs

     total energy              =   -2418.88956563 Ry
     estimated scf accuracy    <       0.00000039 Ry

     total magnetization       =     0.86 Bohr mag/cell
     absolute magnetization    =     1.39 Bohr mag/cell

     iteration # 38     ecut=    60.00 Ry     beta= 0.30
     Davidson diagonalization with overlap
     ethr =  2.94E-10,  avg # of iterations =  2.5

     total cpu time spent up to now is     1690.4 secs

     total energy              =   -2418.88956572 Ry
     estimated scf accuracy    <       0.00000024 Ry

     total magnetization       =     0.86 Bohr mag/cell
     absolute magnetization    =     1.39 Bohr mag/cell

     iteration # 39     ecut=    60.00 Ry     beta= 0.30
     Davidson diagonalization with overlap
     ethr =  1.82E-10,  avg # of iterations =  2.1

     total cpu time spent up to now is     1727.4 secs

     total energy              =   -2418.88956571 Ry
     estimated scf accuracy    <       0.00000012 Ry

     total magnetization       =     0.86 Bohr mag/cell
     absolute magnetization    =     1.39 Bohr mag/cell

     iteration # 40     ecut=    60.00 Ry     beta= 0.30
     Davidson diagonalization with overlap
     ethr =  9.11E-11,  avg # of iterations =  3.8

     total cpu time spent up to now is     1783.2 secs

     total energy              =   -2418.88956582 Ry
     estimated scf accuracy    <       0.00000031 Ry

     total magnetization       =     0.86 Bohr mag/cell
     absolute magnetization    =     1.39 Bohr mag/cell

     iteration # 41     ecut=    60.00 Ry     beta= 0.30
     Davidson diagonalization with overlap
     ethr =  9.11E-11,  avg # of iterations =  1.9

     total cpu time spent up to now is     1820.3 secs

     total energy              =   -2418.88956585 Ry
     estimated scf accuracy    <       0.00000004 Ry

     total magnetization       =     0.86 Bohr mag/cell
     absolute magnetization    =     1.39 Bohr mag/cell

     iteration # 42     ecut=    60.00 Ry     beta= 0.30
     Davidson diagonalization with overlap
     ethr =  2.77E-11,  avg # of iterations =  2.4

     total cpu time spent up to now is     1860.1 secs

     total energy              =   -2418.88956586 Ry
     estimated scf accuracy    <       0.00000003 Ry

     total magnetization       =     0.86 Bohr mag/cell
     absolute magnetization    =     1.39 Bohr mag/cell

     iteration # 43     ecut=    60.00 Ry     beta= 0.30
     Davidson diagonalization with overlap
     ethr =  2.41E-11,  avg # of iterations =  2.6

     total cpu time spent up to now is     1901.7 secs

     total energy              =   -2418.88956587 Ry
     estimated scf accuracy    <       0.00000002 Ry

     total magnetization       =     0.86 Bohr mag/cell
     absolute magnetization    =     1.39 Bohr mag/cell

     iteration # 44     ecut=    60.00 Ry     beta= 0.30
     Davidson diagonalization with overlap
     ethr =  1.24E-11,  avg # of iterations =  1.9

     total cpu time spent up to now is     1939.3 secs

     total energy              =   -2418.88956587 Ry
     estimated scf accuracy    <       0.00000002 Ry

     total magnetization       =     0.86 Bohr mag/cell
     absolute magnetization    =     1.39 Bohr mag/cell

     iteration # 45     ecut=    60.00 Ry     beta= 0.30
     Davidson diagonalization with overlap
     ethr =  1.24E-11,  avg # of iterations =  2.0

     total cpu time spent up to now is     1978.4 secs

     total energy              =   -2418.88956588 Ry
     estimated scf accuracy    <          8.4E-09 Ry

     total magnetization       =     0.86 Bohr mag/cell
     absolute magnetization    =     1.39 Bohr mag/cell

     iteration # 46     ecut=    60.00 Ry     beta= 0.30
     Davidson diagonalization with overlap
     ethr =  6.44E-12,  avg # of iterations =  3.2

     total cpu time spent up to now is     2029.0 secs

     total energy              =   -2418.88956588 Ry
     estimated scf accuracy    <          2.1E-09 Ry

     total magnetization       =     0.86 Bohr mag/cell
     absolute magnetization    =     1.39 Bohr mag/cell

     iteration # 47     ecut=    60.00 Ry     beta= 0.30
     Davidson diagonalization with overlap
     ethr =  1.63E-12,  avg # of iterations =  3.6
 
     Magnetic moment per site  (integrated on atomic sphere of radius R)
     atom   1 (R=0.210)  charge=  0.6371  magn=  0.0002
     atom   2 (R=0.210)  charge=  0.6423  magn= -0.0079
     atom   3 (R=0.210)  charge=  0.6371  magn=  0.0002
     atom   4 (R=0.210)  charge=  0.6423  magn= -0.0079
     atom   5 (R=0.210)  charge=  0.6423  magn= -0.0079
     atom   6 (R=0.210)  charge=  0.6423  magn= -0.0079
     atom   7 (R=0.210)  charge=  0.6307  magn= -0.0007
     atom   8 (R=0.210)  charge=  0.6289  magn=  0.0001
     atom   9 (R=0.210)  charge=  0.6307  magn= -0.0007
     atom  10 (R=0.210)  charge=  0.6403  magn= -0.0137
     atom  11 (R=0.210)  charge=  0.6403  magn= -0.0137
     atom  12 (R=0.210)  charge=  0.6289  magn=  0.0001
     atom  13 (R=0.206)  charge= 15.7457  magn=  0.8758
     atom  14 (R=0.206)  charge= 16.8558  magn=  0.0048
     atom  15 (R=0.206)  charge= 16.8558  magn=  0.0048
     atom  16 (R=0.206)  charge= 16.8689  magn=  0.1669
     atom  17 (R=0.206)  charge= 16.8694  magn=  0.0006
     atom  18 (R=0.206)  charge= 16.8694  magn=  0.0006

     total cpu time spent up to now is     2079.8 secs

     End of self-consistent calculation

     Number of k-points >= 100: set verbosity='high' to print the bands.

     the Fermi energy is     7.2516 ev

!    total energy              =   -2418.88956588 Ry
     estimated scf accuracy    <          3.7E-10 Ry
     smearing contrib. (-TS)   =       0.00014108 Ry
     internal energy E=F+TS    =   -2418.88970696 Ry

     The total energy is F=E-TS. E is the sum of the following terms:
     one-electron contribution =   -2091.51088686 Ry
     hartree contribution      =    1087.36441471 Ry
     xc contribution           =    -230.46015317 Ry
     ewald contribution        =    -808.09143684 Ry
     DFT-D3 Dispersion         =      -0.44079967 Ry
     one-center paw contrib.   =    -375.75084514 Ry

     total magnetization       =     0.86 Bohr mag/cell
     absolute magnetization    =     1.39 Bohr mag/cell

     convergence has been achieved in  47 iterations

     Forces acting on atoms (cartesian axes, Ry/au):

     atom    1 type  1   force =    -0.00005601    0.00003239   -0.00000025
     atom    2 type  1   force =    -0.00124653   -0.00028921    0.00265031
     atom    3 type  1   force =     0.00005602   -0.00003239   -0.00000024
     atom    4 type  1   force =     0.00124653    0.00028921    0.00265031
     atom    5 type  1   force =    -0.00037282    0.00122413   -0.00265046
     atom    6 type  1   force =     0.00037282   -0.00122414   -0.00265046
     atom    7 type  1   force =     0.00000000   -0.00000000   -0.00017160
     atom    8 type  1   force =     0.00000000   -0.00000000   -0.00013087
     atom    9 type  1   force =     0.00000000   -0.00000000    0.00017100
     atom   10 type  1   force =     0.00000000   -0.00000000    0.00152961
     atom   11 type  1   force =     0.00000000   -0.00000000   -0.00152967
     atom   12 type  1   force =     0.00000000   -0.00000000    0.00013079
     atom   13 type  2   force =    -0.00000000    0.00000001   -0.00000661
     atom   14 type  3   force =    -0.00000002   -0.00000001   -0.00013133
     atom   15 type  3   force =    -0.00000002    0.00000002    0.00013765
     atom   16 type  3   force =     0.00000002    0.00000000   -0.00000974
     atom   17 type  3   force =     0.00000000   -0.00000000   -0.00002823
     atom   18 type  3   force =     0.00000001   -0.00000000    0.00003979

     Total force =     0.006282     Total SCF correction =     0.000041


     Computing stress (Cartesian axis) and pressure

          total   stress  (Ry/bohr**3)                   (kbar)     P=        1.46
   0.00001228  -0.00001905  -0.00000000            1.81       -2.80       -0.00
  -0.00001905  -0.00000971   0.00000000           -2.80       -1.43        0.00
  -0.00000000   0.00000000   0.00002722           -0.00        0.00        4.00


     Writing all to output data dir ./outdir/mg2ni_co_nisite_spinchk.save/ :
     XML data file, charge density, pseudopotentials, collected wavefunctions
 
     init_run     :     37.14s CPU     21.65s WALL (       1 calls)
     electrons    :   2306.36s CPU   2057.97s WALL (       1 calls)
     forces       :      7.25s CPU      6.92s WALL (       1 calls)
     force_dftd3  :      0.24s CPU      0.21s WALL (       1 calls)
     stress       :     19.71s CPU     17.24s WALL (       1 calls)
     stres_dftd3  :      0.24s CPU      0.21s WALL (       1 calls)

     Called by init_run:
     wfcinit      :     17.60s CPU     18.92s WALL (       1 calls)
     potinit      :     18.15s CPU      1.27s WALL (       1 calls)
     hinit0       :      0.48s CPU      0.42s WALL (       1 calls)

     Called by electrons:
     c_bands      :   1968.02s CPU   1836.17s WALL (      47 calls)
     sum_band     :    249.25s CPU    198.87s WALL (      47 calls)
     v_of_rho     :      0.70s CPU      0.58s WALL (      48 calls)
     newd         :     15.76s CPU     15.59s WALL (      48 calls)
     PAW_pot      :     62.59s CPU      4.22s WALL (      48 calls)
     mix_rho      :      2.47s CPU      1.83s WALL (      47 calls)
     energy_dftd3 :      0.24s CPU      0.23s WALL (       1 calls)

     Called by c_bands:
     init_us_2    :     32.48s CPU     22.73s WALL (   49664 calls)
     cegterg      :   1851.39s CPU   1723.94s WALL (   24064 calls)

     Called by *egterg:
     cdiaghg      :    538.28s CPU    571.57s WALL (   83154 calls)
                                      571.02s GPU  (   83154 calls)
     h_psi        :    599.88s CPU    488.71s WALL (   83666 calls)
     s_psi        :    140.87s CPU    140.28s WALL (   83666 calls)
     g_psi        :      2.83s CPU      2.83s WALL (   59090 calls)

     Called by h_psi:
     h_psi:calbec :      2.52s CPU      1.84s WALL (   83666 calls)
     vloc_psi     :    427.17s CPU    321.21s WALL (   83666 calls)
                                      320.98s GPU  (   83666 calls)
     add_vuspsi   :    166.69s CPU    163.24s WALL (   83666 calls)

     General routines
     calbec       :      2.60s CPU      2.09s WALL (  116434 calls)
     fft          :     17.76s CPU      1.22s WALL (    1238 calls)
                                        0.14s GPU  (    1142 calls)
     ffts         :      5.42s CPU      0.32s WALL (     190 calls)
                                        0.01s GPU  (      94 calls)
     fftw         :      4.97s CPU    330.19s WALL (  731898 calls)
                                      327.87s GPU  (  731898 calls)
     interpolate  :     24.23s CPU      1.52s WALL (      96 calls)
 
 
     PWSCF        :  39m48.07s CPU  35m 7.45s WALL

 
   This run was terminated on:   5:44:33  13Jun2026            

=------------------------------------------------------------------------------=
   JOB DONE.
=------------------------------------------------------------------------------=
