
     Program PWSCF v.7.5 starts on 13Jun2026 at  6:21:35 

     This program is part of the open-source Quantum ESPRESSO suite
     for quantum simulation of materials; please cite
         "P. Giannozzi et al., J. Phys.:Condens. Matter 21 395502 (2009);
         "P. Giannozzi et al., J. Phys.:Condens. Matter 29 465901 (2017);
         "P. Giannozzi et al., J. Chem. Phys. 152 154105 (2020);
          URL http://www.quantum-espresso.org", 
     in publications or presentations arising from this work. More details at
     http://www.quantum-espresso.org/quote

     Serial multi-threaded version, running on   32 processor cores
     14786 MiB available memory on the printing compute node when the environment starts
 
     Reading input from inputs/mg2ni_co.in
Warning: card &CELL ignored
Warning: card     CELL_DYNAMICS = 'BFGS' ignored
Warning: card     PRESS_CONV_THR = 0.5 ignored

     Current dimensions of program PWSCF are:
     Max number of different atomic species (ntypx) = 10
     Max number of k-points (npk) =  40000
     Max angular momentum in pseudopotentials (lmaxx) =  4
     file Mg.pbe-n-kjpaw_psl.0.3.0.UPF: wavefunction(s)  3S renormalized
 
 
     G-vector sticks info
     --------------------
     sticks:   dense  smooth     PW     G-vecs:    dense   smooth      PW
     Sum        3029    1511    439               339857   120211   19269
 
     Using Slab Decomposition
 


     bravais-lattice index     =            0
     lattice parameter (alat)  =       9.5474  a.u.
     unit-cell volume          =    1913.4441 (a.u.)^3
     number of atoms/cell      =           18
     number of atomic types    =            3
     number of electrons       =       147.00
     number of Kohn-Sham states=           89
     kinetic-energy cutoff     =      60.0000  Ry
     charge density cutoff     =     480.0000  Ry
     scf convergence threshold =      1.0E-09
     mixing beta               =       0.3000
     number of iterations used =           12  plain     mixing
     energy convergence thresh.=      1.0E-05
     force convergence thresh. =      1.0E-04
     Exchange-correlation=  SLA  PW   PBX  PBC
                           (   1   4   3   4   0   0   0)
     nstep                     =          200


     GPU acceleration is ACTIVE.  1 visible GPUs per MPI rank


     celldm(1)=   9.547385  celldm(2)=   0.000000  celldm(3)=   0.000000
     celldm(4)=   0.000000  celldm(5)=   0.000000  celldm(6)=   0.000000

     crystal axes: (cart. coord. in units of alat)
               a(1) = (   0.999888   0.001630  -0.014898 )  
               a(2) = (  -0.498532   0.866745  -0.014893 )  
               a(3) = (  -0.038093  -0.065966   2.536884 )  

     reciprocal axes: (cart. coord. in units 2 pi/alat)
               b(1) = (  0.999621  0.575475  0.029974 )  
               b(2) = ( -0.001434  1.153433  0.029971 )  
               b(3) = (  0.005862  0.010151  0.394536 )  


     PseudoPot. # 1 for Co read from file:
     /home/x/Workspace/3-hEspesso/pseudo/Co_pbe_v1.2.uspp.F.UPF
     MD5 check sum: 5f91765df6ddd3222702df6e7b74a16d
     Pseudo is Ultrasoft + core correction, Zval = 17.0
     Generated by new atomic code, or converted to UPF format
     Using radial grid of  863 points,  6 beta functions with: 
                l(1) =   0
                l(2) =   0
                l(3) =   1
                l(4) =   1
                l(5) =   2
                l(6) =   2
     Q(r) pseudized with  8 coefficients,  rinner =    1.200   1.200   1.200
                                                       1.200   1.200

     PseudoPot. # 2 for Mg read from file:
     /home/x/Workspace/3-hEspesso/pseudo/Mg.pbe-n-kjpaw_psl.0.3.0.UPF
     MD5 check sum: 24ecedc7f3e3cbe212e682f4413594e4
     Pseudo is Projector augmented-wave + core cor, Zval =  2.0
     Generated using "atomic" code by A. Dal Corso  v.5.0.99 svn rev. 10869
     Shape of augmentation charge: PSQ
     Using radial grid of 1129 points,  4 beta functions with: 
                l(1) =   0
                l(2) =   0
                l(3) =   1
                l(4) =   1
     Q(r) pseudized with 0 coefficients 


     PseudoPot. # 3 for Ni read from file:
     /home/x/Workspace/3-hEspesso/pseudo/ni_pbe_v1.4.uspp.F.UPF
     MD5 check sum: 1ee80287db30b12d2bc1f57a5b5d6409
     Pseudo is Ultrasoft + core correction, Zval = 18.0
     Generated by new atomic code, or converted to UPF format
     Using radial grid of  865 points,  6 beta functions with: 
                l(1) =   0
                l(2) =   0
                l(3) =   1
                l(4) =   1
                l(5) =   2
                l(6) =   2
     Q(r) pseudized with 10 coefficients,  rinner =    0.980   0.980   0.980
                                                       0.980   0.980

     atomic species   valence    mass     pseudopotential
     Co               17.00    58.93320     Co( 1.00)
     Mg                2.00    24.30500     Mg( 1.00)
     Ni               18.00    58.69340     Ni( 1.00)

     Starting magnetic structure 
     atomic species   magnetization
     Co              0.400
     Mg              0.000
     Ni              0.100

     No symmetry found



   Cartesian axes

     site n.     atom                  positions (alat units)
         1        Co     tau(   1) = (  -0.3066725   0.6826655   2.0991815  )
         2        Mg     tau(   2) = (  -0.0033593   0.2701990   1.2696958  )
         3        Mg     tau(   3) = (   0.6883943   0.1081664   2.0991725  )
         4        Mg     tau(   4) = (   0.4982157   0.5686388   1.2574390  )
         5        Mg     tau(   5) = (   0.2402858   0.6922055   0.3917702  )
         6        Mg     tau(   6) = (   0.2326177   0.1086097   0.4040268  )
         7        Mg     tau(   7) = (   0.2453769   0.4362416   1.8280815  )
         8        Mg     tau(   8) = (   0.4941736  -0.0078300   1.5559898  )
         9        Mg     tau(   9) = (   0.1827628   0.3278087   2.3702601  )
        10        Mg     tau(  10) = (   0.5003594  -0.0244229   0.9725664  )
        11        Mg     tau(  11) = (   0.7472946   0.4032825   0.6888951  )
        12        Mg     tau(  12) = (   0.7298316   0.4003447   0.1054682  )
        13        Ni     tau(  13) = (   0.2495106   0.4055424   0.8307317  )
        14        Ni     tau(  14) = (   0.4765055  -0.0367865  -0.0298076  )
        15        Ni     tau(  15) = (   0.7460775   0.4301223   1.6912749  )
        16        Ni     tau(  16) = (  -0.0001834  -0.0292135   0.8456274  )
        17        Ni     tau(  17) = (  -0.0198189  -0.0426975  -0.0294578  )
        18        Ni     tau(  18) = (   0.0016795  -0.0054654   1.7207201  )

     --------------------------------------------
     DFT-D3 Dispersion Correction (3-body terms):
     --------------------------------------------
       Reference C6 values for interpolation: 

         atom   Coordination number   C6
         Mg         0.000          1366.75
         Mg         0.963           902.54
         Mg         1.950           351.12
         Co         0.000          1065.56
         Co         1.715           373.09
         Co         2.926           296.13
         Co         7.779           236.57
         Ni         0.000          1149.49
         Ni         1.794           356.66
         Ni         6.546           257.56
         Ni         6.292           283.75

       Values used:

         atom   Coordination number  R0_AB[au]  C6      C8
         Co         7.507            3.243    236.57  20800.86
         Mg        11.203            3.292    351.12  31436.69
         Mg        11.114            3.292    351.12  31436.69
         Mg        11.179            3.292    351.12  31436.69
         Mg        11.203            3.292    351.12  31436.69
         Mg        11.179            3.292    351.12  31436.69
         Mg        10.714            3.292    351.12  31436.69
         Mg        11.060            3.292    351.12  31436.69
         Mg        10.714            3.292    351.12  31436.69
         Mg        11.166            3.292    351.12  31436.69
         Mg        11.166            3.292    351.12  31436.69
         Mg        11.060            3.292    351.12  31436.69
         Ni         8.634            3.162    257.83  21604.49
         Ni         8.600            3.162    257.85  21606.09
         Ni         8.600            3.162    257.85  21606.09
         Ni         8.681            3.162    257.81  21602.47
         Ni         8.608            3.162    257.85  21605.69
         Ni         8.608            3.162    257.85  21605.69

         Molecular C6 ( Ry / a.u.^6 ) =    100131.76


     number of k points=   256  Marzari-Vanderbilt smearing, width (Ry)=  0.0100

     Number of k-points >= 100: set verbosity='high' to print them.

     Dense  grid:   339857 G-vectors     FFT dimensions: (  72,  72, 180)

     Smooth grid:   120211 G-vectors     FFT dimensions: (  48,  48, 120)

     Estimated max dynamical RAM per process >      11.81 GB

     Check: negative core charge=   -0.000003
     Generating pointlists ...
     new r_m :   0.1943 (alat units)  1.8550 (a.u.) for type    1
     new r_m :   0.2120 (alat units)  2.0240 (a.u.) for type    2
     new r_m :   0.1943 (alat units)  1.8550 (a.u.) for type    3

     Initial potential from superposition of free atoms

     starting charge     133.9898, renormalised to     147.0000
     Starting wfcs are  135 randomized atomic wfcs

     total cpu time spent up to now is       23.4 secs

     Self-consistent Calculation

     iteration #  1     ecut=    60.00 Ry     beta= 0.30
     Davidson diagonalization with overlap
     ethr =  1.00E-02,  avg # of iterations =  5.5

     total cpu time spent up to now is      113.3 secs

     total energy              =   -2565.05571161 Ry
     estimated scf accuracy    <     481.84478395 Ry

     total magnetization       =     1.25 Bohr mag/cell
     absolute magnetization    =     1.56 Bohr mag/cell

     iteration #  2     ecut=    60.00 Ry     beta= 0.30
     Davidson diagonalization with overlap
     ethr =  1.00E-02,  avg # of iterations =  5.2

     total cpu time spent up to now is      197.1 secs

     total energy              =   -2633.73376062 Ry
     estimated scf accuracy    <     883.11394198 Ry

     total magnetization       =     0.87 Bohr mag/cell
     absolute magnetization    =     1.03 Bohr mag/cell

     iteration #  3     ecut=    60.00 Ry     beta= 0.30
     Davidson diagonalization with overlap
     ethr =  1.00E-02,  avg # of iterations =  7.0

     total cpu time spent up to now is      296.3 secs

     total energy              =   -2712.48932111 Ry
     estimated scf accuracy    <     426.29891114 Ry

     total magnetization       =     0.62 Bohr mag/cell
     absolute magnetization    =     0.80 Bohr mag/cell

     iteration #  4     ecut=    60.00 Ry     beta= 0.30
     Davidson diagonalization with overlap
     ethr =  1.00E-02,  avg # of iterations =  4.5

     total cpu time spent up to now is      371.5 secs

     total energy              =   -2735.39890899 Ry
     estimated scf accuracy    <      80.55108230 Ry

     total magnetization       =     0.54 Bohr mag/cell
     absolute magnetization    =     0.85 Bohr mag/cell

     iteration #  5     ecut=    60.00 Ry     beta= 0.30
     Davidson diagonalization with overlap
     ethr =  1.00E-02,  avg # of iterations =  2.0

     total cpu time spent up to now is      409.3 secs

     total energy              =   -2726.34692759 Ry
     estimated scf accuracy    <      39.87722769 Ry

     total magnetization       =     0.41 Bohr mag/cell
     absolute magnetization    =     0.97 Bohr mag/cell

     iteration #  6     ecut=    60.00 Ry     beta= 0.30
     Davidson diagonalization with overlap
     ethr =  1.00E-02,  avg # of iterations =  2.2

     total cpu time spent up to now is      453.3 secs

     total energy              =   -2729.70844200 Ry
     estimated scf accuracy    <      24.05112018 Ry

     total magnetization       =     2.68 Bohr mag/cell
     absolute magnetization    =     3.44 Bohr mag/cell

     iteration #  7     ecut=    60.00 Ry     beta= 0.30
     Davidson diagonalization with overlap
     ethr =  1.00E-02,  avg # of iterations =  1.0

     total cpu time spent up to now is      483.7 secs

     total energy              =   -2728.75601882 Ry
     estimated scf accuracy    <      13.87356099 Ry

     total magnetization       =     4.05 Bohr mag/cell
     absolute magnetization    =     4.88 Bohr mag/cell

     iteration #  8     ecut=    60.00 Ry     beta= 0.30
     Davidson diagonalization with overlap
     ethr =  9.44E-03,  avg # of iterations =  1.0

     total cpu time spent up to now is      514.1 secs

     total energy              =   -2727.55541069 Ry
     estimated scf accuracy    <       4.15349009 Ry

     total magnetization       =     3.77 Bohr mag/cell
     absolute magnetization    =     4.83 Bohr mag/cell

     iteration #  9     ecut=    60.00 Ry     beta= 0.30
     Davidson diagonalization with overlap
     ethr =  2.83E-03,  avg # of iterations =  3.0

     total cpu time spent up to now is      564.1 secs

     total energy              =   -2727.83749383 Ry
     estimated scf accuracy    <      51.33417233 Ry

     total magnetization       =     2.66 Bohr mag/cell
     absolute magnetization    =     3.54 Bohr mag/cell

     iteration # 10     ecut=    60.00 Ry     beta= 0.30
     Davidson diagonalization with overlap
     ethr =  2.83E-03,  avg # of iterations =  1.7

     total cpu time spent up to now is      603.3 secs

     total energy              =   -2728.61342965 Ry
     estimated scf accuracy    <       3.63430458 Ry

     total magnetization       =     3.14 Bohr mag/cell
     absolute magnetization    =     4.14 Bohr mag/cell

     iteration # 11     ecut=    60.00 Ry     beta= 0.30
     Davidson diagonalization with overlap
     ethr =  2.47E-03,  avg # of iterations =  1.0

     total cpu time spent up to now is      633.7 secs

     total energy              =   -2728.73435555 Ry
     estimated scf accuracy    <      14.63884452 Ry

     total magnetization       =     2.04 Bohr mag/cell
     absolute magnetization    =     2.97 Bohr mag/cell

     iteration # 12     ecut=    60.00 Ry     beta= 0.30
     Davidson diagonalization with overlap
     ethr =  2.47E-03,  avg # of iterations =  1.0

     total cpu time spent up to now is      664.1 secs

     total energy              =   -2728.75256553 Ry
     estimated scf accuracy    <      12.51862697 Ry

     total magnetization       =     1.99 Bohr mag/cell
     absolute magnetization    =     2.85 Bohr mag/cell

     iteration # 13     ecut=    60.00 Ry     beta= 0.30
     Davidson diagonalization with overlap
     ethr =  2.47E-03,  avg # of iterations =  1.0

     total cpu time spent up to now is      694.5 secs

     total energy              =   -2728.75577274 Ry
     estimated scf accuracy    <      10.99757070 Ry

     total magnetization       =     2.12 Bohr mag/cell
     absolute magnetization    =     2.96 Bohr mag/cell

     iteration # 14     ecut=    60.00 Ry     beta= 0.30
     Davidson diagonalization with overlap
     ethr =  2.47E-03,  avg # of iterations =  1.0

     total cpu time spent up to now is      724.9 secs

     total energy              =   -2728.46774524 Ry
     estimated scf accuracy    <       8.90727910 Ry

     total magnetization       =     2.51 Bohr mag/cell
     absolute magnetization    =     3.30 Bohr mag/cell

     iteration # 15     ecut=    60.00 Ry     beta= 0.30
     Davidson diagonalization with overlap
     ethr =  2.47E-03,  avg # of iterations =  1.0

     total cpu time spent up to now is      755.3 secs

     total energy              =   -2728.63718502 Ry
     estimated scf accuracy    <       4.01915282 Ry

     total magnetization       =     2.45 Bohr mag/cell
     absolute magnetization    =     3.23 Bohr mag/cell

     iteration # 16     ecut=    60.00 Ry     beta= 0.30
     Davidson diagonalization with overlap
     ethr =  2.47E-03,  avg # of iterations =  1.0

     total cpu time spent up to now is      785.7 secs

     total energy              =   -2728.40887769 Ry
     estimated scf accuracy    <       2.94161100 Ry

     total magnetization       =     2.07 Bohr mag/cell
     absolute magnetization    =     2.78 Bohr mag/cell

     iteration # 17     ecut=    60.00 Ry     beta= 0.30
     Davidson diagonalization with overlap
     ethr =  2.00E-03,  avg # of iterations =  1.0

     total cpu time spent up to now is      816.1 secs

     total energy              =   -2728.49909654 Ry
     estimated scf accuracy    <       1.16763621 Ry

     total magnetization       =     2.76 Bohr mag/cell
     absolute magnetization    =     3.48 Bohr mag/cell

     iteration # 18     ecut=    60.00 Ry     beta= 0.30
     Davidson diagonalization with overlap
     ethr =  7.94E-04,  avg # of iterations =  1.0

     total cpu time spent up to now is      846.7 secs

     total energy              =   -2728.50450855 Ry
     estimated scf accuracy    <       0.30764387 Ry

     total magnetization       =     1.60 Bohr mag/cell
     absolute magnetization    =     2.24 Bohr mag/cell

     iteration # 19     ecut=    60.00 Ry     beta= 0.30
     Davidson diagonalization with overlap
     ethr =  2.09E-04,  avg # of iterations =  1.2

     total cpu time spent up to now is      880.7 secs

     total energy              =   -2728.51550649 Ry
     estimated scf accuracy    <       0.21579598 Ry

     total magnetization       =     1.08 Bohr mag/cell
     absolute magnetization    =     1.63 Bohr mag/cell

     iteration # 20     ecut=    60.00 Ry     beta= 0.30
     Davidson diagonalization with overlap
     ethr =  1.47E-04,  avg # of iterations =  1.1

     total cpu time spent up to now is      912.6 secs

     total energy              =   -2728.53220572 Ry
     estimated scf accuracy    <       0.15915214 Ry

     total magnetization       =     1.09 Bohr mag/cell
     absolute magnetization    =     1.63 Bohr mag/cell

     iteration # 21     ecut=    60.00 Ry     beta= 0.30
     Davidson diagonalization with overlap
     ethr =  1.08E-04,  avg # of iterations =  1.0

     total cpu time spent up to now is      943.4 secs

     total energy              =   -2728.53632021 Ry
     estimated scf accuracy    <       0.39485084 Ry

     total magnetization       =     1.30 Bohr mag/cell
     absolute magnetization    =     1.84 Bohr mag/cell

     iteration # 22     ecut=    60.00 Ry     beta= 0.30
     Davidson diagonalization with overlap
     ethr =  1.08E-04,  avg # of iterations =  1.0

     total cpu time spent up to now is      973.8 secs

     total energy              =   -2728.51410086 Ry
     estimated scf accuracy    <       0.36543484 Ry

     total magnetization       =     1.37 Bohr mag/cell
     absolute magnetization    =     1.93 Bohr mag/cell

     iteration # 23     ecut=    60.00 Ry     beta= 0.30
     Davidson diagonalization with overlap
     ethr =  1.08E-04,  avg # of iterations =  1.1

     total cpu time spent up to now is     1005.9 secs

     total energy              =   -2728.52339179 Ry
     estimated scf accuracy    <       0.12415566 Ry

     total magnetization       =     2.10 Bohr mag/cell
     absolute magnetization    =     2.78 Bohr mag/cell

     iteration # 24     ecut=    60.00 Ry     beta= 0.30
     Davidson diagonalization with overlap
     ethr =  8.45E-05,  avg # of iterations =  1.0

     total cpu time spent up to now is     1036.5 secs

     total energy              =   -2728.53319465 Ry
     estimated scf accuracy    <       0.05728309 Ry

     total magnetization       =     1.70 Bohr mag/cell
     absolute magnetization    =     2.32 Bohr mag/cell

     iteration # 25     ecut=    60.00 Ry     beta= 0.30
     Davidson diagonalization with overlap
     ethr =  3.90E-05,  avg # of iterations =  1.0

     total cpu time spent up to now is     1067.1 secs

     total energy              =   -2728.53405312 Ry
     estimated scf accuracy    <       0.02957979 Ry

     total magnetization       =     1.92 Bohr mag/cell
     absolute magnetization    =     2.59 Bohr mag/cell

     iteration # 26     ecut=    60.00 Ry     beta= 0.30
     Davidson diagonalization with overlap
     ethr =  2.01E-05,  avg # of iterations =  1.7

     total cpu time spent up to now is     1109.7 secs

     total energy              =   -2728.53504866 Ry
     estimated scf accuracy    <       0.00896962 Ry

     total magnetization       =     2.05 Bohr mag/cell
     absolute magnetization    =     2.75 Bohr mag/cell

     iteration # 27     ecut=    60.00 Ry     beta= 0.30
     Davidson diagonalization with overlap
     ethr =  6.10E-06,  avg # of iterations =  3.5

     total cpu time spent up to now is     1180.4 secs

     total energy              =   -2728.53554011 Ry
     estimated scf accuracy    <       0.00173520 Ry

     total magnetization       =     2.09 Bohr mag/cell
     absolute magnetization    =     2.81 Bohr mag/cell

     iteration # 28     ecut=    60.00 Ry     beta= 0.30
     Davidson diagonalization with overlap
     ethr =  1.18E-06,  avg # of iterations =  4.2

     total cpu time spent up to now is     1240.9 secs

     total energy              =   -2728.53592850 Ry
     estimated scf accuracy    <       0.00489182 Ry

     total magnetization       =     2.13 Bohr mag/cell
     absolute magnetization    =     2.87 Bohr mag/cell

     iteration # 29     ecut=    60.00 Ry     beta= 0.30
     Davidson diagonalization with overlap
     ethr =  1.18E-06,  avg # of iterations =  2.0

     total cpu time spent up to now is     1281.1 secs

     total energy              =   -2728.53620207 Ry
     estimated scf accuracy    <       0.00052670 Ry

     total magnetization       =     2.12 Bohr mag/cell
     absolute magnetization    =     2.88 Bohr mag/cell

     iteration # 30     ecut=    60.00 Ry     beta= 0.30
     Davidson diagonalization with overlap
     ethr =  3.58E-07,  avg # of iterations =  1.6

     total cpu time spent up to now is     1317.8 secs

     total energy              =   -2728.53625084 Ry
     estimated scf accuracy    <       0.00017349 Ry

     total magnetization       =     2.09 Bohr mag/cell
     absolute magnetization    =     2.86 Bohr mag/cell

     iteration # 31     ecut=    60.00 Ry     beta= 0.30
     Davidson diagonalization with overlap
     ethr =  1.18E-07,  avg # of iterations =  1.9

     total cpu time spent up to now is     1357.2 secs

     total energy              =   -2728.53627782 Ry
     estimated scf accuracy    <       0.00003069 Ry

     total magnetization       =     2.07 Bohr mag/cell
     absolute magnetization    =     2.85 Bohr mag/cell

     iteration # 32     ecut=    60.00 Ry     beta= 0.30
     Davidson diagonalization with overlap
     ethr =  2.09E-08,  avg # of iterations =  2.3

     total cpu time spent up to now is     1400.0 secs

     total energy              =   -2728.53628610 Ry
     estimated scf accuracy    <       0.00006056 Ry

     total magnetization       =     2.05 Bohr mag/cell
     absolute magnetization    =     2.83 Bohr mag/cell

     iteration # 33     ecut=    60.00 Ry     beta= 0.30
     Davidson diagonalization with overlap
     ethr =  2.09E-08,  avg # of iterations =  1.9

     total cpu time spent up to now is     1439.4 secs

     total energy              =   -2728.53629007 Ry
     estimated scf accuracy    <       0.00001429 Ry

     total magnetization       =     2.05 Bohr mag/cell
     absolute magnetization    =     2.83 Bohr mag/cell

     iteration # 34     ecut=    60.00 Ry     beta= 0.30
     Davidson diagonalization with overlap
     ethr =  9.72E-09,  avg # of iterations =  2.0

     total cpu time spent up to now is     1478.1 secs

     total energy              =   -2728.53629274 Ry
     estimated scf accuracy    <       0.00000480 Ry

     total magnetization       =     2.05 Bohr mag/cell
     absolute magnetization    =     2.82 Bohr mag/cell

     iteration # 35     ecut=    60.00 Ry     beta= 0.30
     Davidson diagonalization with overlap
     ethr =  3.27E-09,  avg # of iterations =  1.5

     total cpu time spent up to now is     1514.5 secs

     total energy              =   -2728.53629318 Ry
     estimated scf accuracy    <       0.00000162 Ry

     total magnetization       =     2.05 Bohr mag/cell
     absolute magnetization    =     2.82 Bohr mag/cell

     iteration # 36     ecut=    60.00 Ry     beta= 0.30
     Davidson diagonalization with overlap
     ethr =  1.10E-09,  avg # of iterations =  2.5

     total cpu time spent up to now is     1557.9 secs

     total energy              =   -2728.53629330 Ry
     estimated scf accuracy    <       0.00000241 Ry

     total magnetization       =     2.05 Bohr mag/cell
     absolute magnetization    =     2.82 Bohr mag/cell

     iteration # 37     ecut=    60.00 Ry     beta= 0.30
     Davidson diagonalization with overlap
     ethr =  1.10E-09,  avg # of iterations =  1.6

     total cpu time spent up to now is     1594.3 secs

     total energy              =   -2728.53629369 Ry
     estimated scf accuracy    <       0.00000043 Ry

     total magnetization       =     2.05 Bohr mag/cell
     absolute magnetization    =     2.82 Bohr mag/cell

     iteration # 38     ecut=    60.00 Ry     beta= 0.30
     Davidson diagonalization with overlap
     ethr =  2.95E-10,  avg # of iterations =  3.8

     total cpu time spent up to now is     1654.9 secs

     total energy              =   -2728.53629390 Ry
     estimated scf accuracy    <       0.00000007 Ry

     total magnetization       =     2.05 Bohr mag/cell
     absolute magnetization    =     2.82 Bohr mag/cell

     iteration # 39     ecut=    60.00 Ry     beta= 0.30
     Davidson diagonalization with overlap
     ethr =  4.80E-11,  avg # of iterations =  3.0

     total cpu time spent up to now is     1704.1 secs

     total energy              =   -2728.53629392 Ry
     estimated scf accuracy    <       0.00000005 Ry

     total magnetization       =     2.05 Bohr mag/cell
     absolute magnetization    =     2.82 Bohr mag/cell

     iteration # 40     ecut=    60.00 Ry     beta= 0.30
     Davidson diagonalization with overlap
     ethr =  3.74E-11,  avg # of iterations =  1.1

     total cpu time spent up to now is     1735.3 secs

     total energy              =   -2728.53629392 Ry
     estimated scf accuracy    <       0.00000003 Ry

     total magnetization       =     2.05 Bohr mag/cell
     absolute magnetization    =     2.82 Bohr mag/cell

     iteration # 41     ecut=    60.00 Ry     beta= 0.30
     Davidson diagonalization with overlap
     ethr =  1.79E-11,  avg # of iterations =  1.9

     total cpu time spent up to now is     1773.6 secs

     total energy              =   -2728.53629393 Ry
     estimated scf accuracy    <       0.00000004 Ry

     total magnetization       =     2.05 Bohr mag/cell
     absolute magnetization    =     2.82 Bohr mag/cell

     iteration # 42     ecut=    60.00 Ry     beta= 0.30
     Davidson diagonalization with overlap
     ethr =  1.79E-11,  avg # of iterations =  1.8

     total cpu time spent up to now is     1810.6 secs

     total energy              =   -2728.53629394 Ry
     estimated scf accuracy    <          7.1E-09 Ry

     total magnetization       =     2.05 Bohr mag/cell
     absolute magnetization    =     2.82 Bohr mag/cell

     iteration # 43     ecut=    60.00 Ry     beta= 0.30
     Davidson diagonalization with overlap
     ethr =  4.83E-12,  avg # of iterations =  3.0

     total cpu time spent up to now is     1858.9 secs

     total energy              =   -2728.53629394 Ry
     estimated scf accuracy    <          5.4E-09 Ry

     total magnetization       =     2.05 Bohr mag/cell
     absolute magnetization    =     2.82 Bohr mag/cell

     iteration # 44     ecut=    60.00 Ry     beta= 0.30
     Davidson diagonalization with overlap
     ethr =  3.64E-12,  avg # of iterations =  2.0

     total cpu time spent up to now is     1896.5 secs

     total energy              =   -2728.53629394 Ry
     estimated scf accuracy    <          1.5E-09 Ry

     total magnetization       =     2.05 Bohr mag/cell
     absolute magnetization    =     2.82 Bohr mag/cell

     iteration # 45     ecut=    60.00 Ry     beta= 0.30
     Davidson diagonalization with overlap
     ethr =  1.03E-12,  avg # of iterations =  2.6

     total cpu time spent up to now is     1943.7 secs

     total energy              =   -2728.53629394 Ry
     estimated scf accuracy    <          1.9E-09 Ry

     total magnetization       =     2.05 Bohr mag/cell
     absolute magnetization    =     2.82 Bohr mag/cell

     iteration # 46     ecut=    60.00 Ry     beta= 0.30
     Davidson diagonalization with overlap
     ethr =  1.03E-12,  avg # of iterations =  1.3
 
     Magnetic moment per site  (integrated on atomic sphere of radius R)
     atom   1 (R=0.194)  charge= 15.2575  magn=  1.5719
     atom   2 (R=0.212)  charge=  0.6214  magn= -0.0030
     atom   3 (R=0.212)  charge=  0.6225  magn= -0.0144
     atom   4 (R=0.212)  charge=  0.6269  magn= -0.0020
     atom   5 (R=0.212)  charge=  0.6214  magn= -0.0030
     atom   6 (R=0.212)  charge=  0.6269  magn= -0.0020
     atom   7 (R=0.212)  charge=  0.6349  magn= -0.0077
     atom   8 (R=0.212)  charge=  0.6236  magn= -0.0033
     atom   9 (R=0.212)  charge=  0.6349  magn= -0.0077
     atom  10 (R=0.212)  charge=  0.6344  magn=  0.0027
     atom  11 (R=0.212)  charge=  0.6344  magn=  0.0027
     atom  12 (R=0.212)  charge=  0.6236  magn= -0.0033
     atom  13 (R=0.194)  charge= 16.4786  magn=  0.0307
     atom  14 (R=0.194)  charge= 16.4839  magn=  0.1720
     atom  15 (R=0.194)  charge= 16.4839  magn=  0.1720
     atom  16 (R=0.194)  charge= 16.4972  magn= -0.0364
     atom  17 (R=0.194)  charge= 16.4867  magn=  0.1749
     atom  18 (R=0.194)  charge= 16.4867  magn=  0.1749

     total cpu time spent up to now is     1977.9 secs

     End of self-consistent calculation

     Number of k-points >= 100: set verbosity='high' to print the bands.

     the Fermi energy is     8.0266 ev

!    total energy              =   -2728.53629394 Ry
     estimated scf accuracy    <          5.4E-10 Ry
     smearing contrib. (-TS)   =       0.00059023 Ry
     internal energy E=F+TS    =   -2728.53688416 Ry

     The total energy is F=E-TS. E is the sum of the following terms:
     one-electron contribution =   -2548.87892705 Ry
     hartree contribution      =    1323.36580292 Ry
     xc contribution           =    -264.42623959 Ry
     ewald contribution        =    -893.69505899 Ry
     DFT-D3 Dispersion         =      -0.45150307 Ry
     one-center paw contrib.   =    -344.45095840 Ry

     total magnetization       =     2.05 Bohr mag/cell
     absolute magnetization    =     2.82 Bohr mag/cell

     convergence has been achieved in  46 iterations

     Forces acting on atoms (cartesian axes, Ry/au):

     atom    1 type  1   force =     0.00127503   -0.00073637    0.00000046
     atom    2 type  2   force =     0.00041772    0.00011188   -0.00007865
     atom    3 type  2   force =    -0.00047423    0.00027296    0.00000038
     atom    4 type  2   force =    -0.00041174   -0.00055271   -0.00058238
     atom    5 type  2   force =     0.00011165   -0.00041767    0.00007841
     atom    6 type  2   force =     0.00027292    0.00063315    0.00058236
     atom    7 type  2   force =    -0.00051625   -0.00068658   -0.00245199
     atom    8 type  2   force =    -0.00006012    0.00045146   -0.00055120
     atom    9 type  2   force =     0.00033606    0.00079062    0.00245171
     atom   10 type  2   force =    -0.00014348    0.00036142   -0.00001584
     atom   11 type  2   force =    -0.00038471   -0.00005641    0.00001533
     atom   12 type  2   force =    -0.00042113   -0.00017356    0.00055161
     atom   13 type  3   force =    -0.00064824    0.00037417    0.00000055
     atom   14 type  3   force =     0.00291575   -0.00096352    0.00071803
     atom   15 type  3   force =     0.00229240   -0.00204194   -0.00071825
     atom   16 type  3   force =    -0.00074567    0.00043059    0.00000037
     atom   17 type  3   force =    -0.00191554    0.00108874    0.00038736
     atom   18 type  3   force =    -0.00190043    0.00111380   -0.00038827

     Total force =     0.007107     Total SCF correction =     0.000041


     Computing stress (Cartesian axis) and pressure

          total   stress  (Ry/bohr**3)                   (kbar)     P=        4.85
   0.00003888  -0.00000540   0.00000177            5.72       -0.79        0.26
  -0.00000540   0.00003265   0.00000306           -0.79        4.80        0.45
   0.00000177   0.00000306   0.00002732            0.26        0.45        4.02


     BFGS Geometry Optimization
     Energy error            =      5.1E-05 Ry
     Gradient error          =      2.9E-03 Ry/Bohr

     number of scf cycles    =   1
     number of bfgs steps    =   0

     energy             new  =   -2728.5362939386 Ry

     new trust radius        =       0.0031536540 bohr
     new conv_thr            =       0.0000000010 Ry


ATOMIC_POSITIONS (angstrom)
Co              -1.5487141546        3.4486129179       10.6056082931
Mg              -0.0167512433        1.3651745425        6.4147898837
Mg               3.4776950705        0.5466288856       10.6055628083
Mg               2.5168967614        2.8726179004        6.3525991009
Mg               1.2140450374        3.4969802281        1.9793659713
Mg               1.1753890939        0.5490595309        2.0415558581
Mg               1.2394346001        2.2036418459        9.2346432292
Mg               2.4966610403       -0.0393201951        7.8609713090
Mg               0.9235427328        1.6565928672       11.9764644857
Mg               2.5278691413       -0.1231995120        4.9136489117
Mg               3.7753221608        2.0374576705        3.4804842165
Mg               3.6870753622        2.0225533140        0.5331446886
Ni               1.2602489286        2.0491033303        4.1970715995
Ni               2.4089722502       -0.1863646070       -0.1502157772
Ni               3.7705896937        2.1720084098        8.5443782252
Ni              -0.0013209837       -0.1473665252        4.2723284502
Ni              -0.1011439984       -0.2151429147       -0.1486235413
Ni               0.0074795238       -0.0270233778        8.6933176989



     Writing config-only to output data dir ./outdir/mg2ni_co.save/ :
     XML data file
     NEW-OLD atomic charge density approx. for the potential

     Check: negative core charge=   -0.000003
     Generating pointlists ...

     total cpu time spent up to now is     2004.7 secs

     Self-consistent Calculation

     iteration #  1     ecut=    60.00 Ry     beta= 0.30
     Davidson diagonalization with overlap
     ethr =  1.00E-06,  avg # of iterations =  3.0

     total cpu time spent up to now is     2064.1 secs

     total energy              =   -2728.53596762 Ry
     estimated scf accuracy    <       0.00082894 Ry

     total magnetization       =     2.07 Bohr mag/cell
     absolute magnetization    =     2.84 Bohr mag/cell

     iteration #  2     ecut=    60.00 Ry     beta= 0.30
     Davidson diagonalization with overlap
     ethr =  5.64E-07,  avg # of iterations =  3.2

     total cpu time spent up to now is     2119.7 secs

     total energy              =   -2728.53391372 Ry
     estimated scf accuracy    <       0.11259809 Ry

     total magnetization       =     1.82 Bohr mag/cell
     absolute magnetization    =     2.58 Bohr mag/cell

     iteration #  3     ecut=    60.00 Ry     beta= 0.30
     Davidson diagonalization with overlap
     ethr =  5.64E-07,  avg # of iterations =  3.3

     total cpu time spent up to now is     2176.0 secs

     total energy              =   -2728.53631715 Ry
     estimated scf accuracy    <       0.00037067 Ry

     total magnetization       =     2.05 Bohr mag/cell
     absolute magnetization    =     2.82 Bohr mag/cell

     iteration #  4     ecut=    60.00 Ry     beta= 0.30
     Davidson diagonalization with overlap
     ethr =  2.52E-07,  avg # of iterations =  1.0

     total cpu time spent up to now is     2206.4 secs

     total energy              =   -2728.53633736 Ry
     estimated scf accuracy    <       0.00002131 Ry

     total magnetization       =     2.05 Bohr mag/cell
     absolute magnetization    =     2.82 Bohr mag/cell

     iteration #  5     ecut=    60.00 Ry     beta= 0.30
     Davidson diagonalization with overlap
     ethr =  1.45E-08,  avg # of iterations =  2.0

     total cpu time spent up to now is     2245.0 secs

     total energy              =   -2728.53633857 Ry
     estimated scf accuracy    <       0.00001638 Ry

     total magnetization       =     2.05 Bohr mag/cell
     absolute magnetization    =     2.82 Bohr mag/cell

     iteration #  6     ecut=    60.00 Ry     beta= 0.30
     Davidson diagonalization with overlap
     ethr =  1.11E-08,  avg # of iterations =  1.4

     total cpu time spent up to now is     2281.3 secs

     total energy              =   -2728.53633963 Ry
     estimated scf accuracy    <       0.00000240 Ry

     total magnetization       =     2.05 Bohr mag/cell
     absolute magnetization    =     2.82 Bohr mag/cell

     iteration #  7     ecut=    60.00 Ry     beta= 0.30
     Davidson diagonalization with overlap
     ethr =  1.63E-09,  avg # of iterations =  2.0

     total cpu time spent up to now is     2318.2 secs

     total energy              =   -2728.53633975 Ry
     estimated scf accuracy    <       0.00000216 Ry

     total magnetization       =     2.05 Bohr mag/cell
     absolute magnetization    =     2.82 Bohr mag/cell

     iteration #  8     ecut=    60.00 Ry     beta= 0.30
     Davidson diagonalization with overlap
     ethr =  1.47E-09,  avg # of iterations =  1.0

     total cpu time spent up to now is     2348.6 secs

     total energy              =   -2728.53633978 Ry
     estimated scf accuracy    <       0.00000164 Ry

     total magnetization       =     2.05 Bohr mag/cell
     absolute magnetization    =     2.82 Bohr mag/cell

     iteration #  9     ecut=    60.00 Ry     beta= 0.30
     Davidson diagonalization with overlap
     ethr =  1.11E-09,  avg # of iterations =  1.0

     total cpu time spent up to now is     2379.0 secs

     total energy              =   -2728.53633985 Ry
     estimated scf accuracy    <       0.00000033 Ry

     total magnetization       =     2.05 Bohr mag/cell
     absolute magnetization    =     2.82 Bohr mag/cell

     iteration # 10     ecut=    60.00 Ry     beta= 0.30
     Davidson diagonalization with overlap
     ethr =  2.21E-10,  avg # of iterations =  1.0

     total cpu time spent up to now is     2409.5 secs

     total energy              =   -2728.53633987 Ry
     estimated scf accuracy    <       0.00000009 Ry

     total magnetization       =     2.05 Bohr mag/cell
     absolute magnetization    =     2.82 Bohr mag/cell

     iteration # 11     ecut=    60.00 Ry     beta= 0.30
     Davidson diagonalization with overlap
     ethr =  6.12E-11,  avg # of iterations =  2.9

     total cpu time spent up to now is     2457.1 secs

     total energy              =   -2728.53633987 Ry
     estimated scf accuracy    <       0.00000015 Ry

     total magnetization       =     2.05 Bohr mag/cell
     absolute magnetization    =     2.82 Bohr mag/cell

     iteration # 12     ecut=    60.00 Ry     beta= 0.30
     Davidson diagonalization with overlap
     ethr =  6.12E-11,  avg # of iterations =  1.9

     total cpu time spent up to now is     2497.2 secs

     total energy              =   -2728.53633988 Ry
     estimated scf accuracy    <          6.0E-09 Ry

     total magnetization       =     2.05 Bohr mag/cell
     absolute magnetization    =     2.82 Bohr mag/cell

     iteration # 13     ecut=    60.00 Ry     beta= 0.30
     Davidson diagonalization with overlap
     ethr =  4.11E-12,  avg # of iterations =  4.0

     total cpu time spent up to now is     2572.1 secs

     total energy              =   -2728.53633989 Ry
     estimated scf accuracy    <       0.00000001 Ry

     total magnetization       =     2.05 Bohr mag/cell
     absolute magnetization    =     2.82 Bohr mag/cell

     iteration # 14     ecut=    60.00 Ry     beta= 0.30
     Davidson diagonalization with overlap
     ethr =  4.11E-12,  avg # of iterations =  1.3

     total cpu time spent up to now is     2606.7 secs

     total energy              =   -2728.53633989 Ry
     estimated scf accuracy    <          9.7E-09 Ry

     total magnetization       =     2.05 Bohr mag/cell
     absolute magnetization    =     2.82 Bohr mag/cell

     iteration # 15     ecut=    60.00 Ry     beta= 0.30
     Davidson diagonalization with overlap
     ethr =  4.11E-12,  avg # of iterations =  1.0

     total cpu time spent up to now is     2637.2 secs

     total energy              =   -2728.53633989 Ry
     estimated scf accuracy    <          3.7E-09 Ry

     total magnetization       =     2.05 Bohr mag/cell
     absolute magnetization    =     2.82 Bohr mag/cell

     iteration # 16     ecut=    60.00 Ry     beta= 0.30
     Davidson diagonalization with overlap
     ethr =  2.50E-12,  avg # of iterations =  1.1
 
     Magnetic moment per site  (integrated on atomic sphere of radius R)
     atom   1 (R=0.194)  charge= 15.2568  magn=  1.5736
     atom   2 (R=0.212)  charge=  0.6216  magn= -0.0030
     atom   3 (R=0.212)  charge=  0.6225  magn= -0.0144
     atom   4 (R=0.212)  charge=  0.6268  magn= -0.0020
     atom   5 (R=0.212)  charge=  0.6216  magn= -0.0030
     atom   6 (R=0.212)  charge=  0.6268  magn= -0.0020
     atom   7 (R=0.212)  charge=  0.6349  magn= -0.0077
     atom   8 (R=0.212)  charge=  0.6236  magn= -0.0033
     atom   9 (R=0.212)  charge=  0.6349  magn= -0.0077
     atom  10 (R=0.212)  charge=  0.6344  magn=  0.0027
     atom  11 (R=0.212)  charge=  0.6344  magn=  0.0027
     atom  12 (R=0.212)  charge=  0.6236  magn= -0.0033
     atom  13 (R=0.194)  charge= 16.4786  magn=  0.0306
     atom  14 (R=0.194)  charge= 16.4838  magn=  0.1721
     atom  15 (R=0.194)  charge= 16.4838  magn=  0.1721
     atom  16 (R=0.194)  charge= 16.4972  magn= -0.0363
     atom  17 (R=0.194)  charge= 16.4866  magn=  0.1748
     atom  18 (R=0.194)  charge= 16.4866  magn=  0.1748

     total cpu time spent up to now is     2668.9 secs

     End of self-consistent calculation

     Number of k-points >= 100: set verbosity='high' to print the bands.

     the Fermi energy is     8.0264 ev

!    total energy              =   -2728.53633989 Ry
     estimated scf accuracy    <          7.1E-10 Ry
     smearing contrib. (-TS)   =       0.00059185 Ry
     internal energy E=F+TS    =   -2728.53693174 Ry

     The total energy is F=E-TS. E is the sum of the following terms:
     one-electron contribution =   -2548.44573208 Ry
     hartree contribution      =    1323.14909416 Ry
     xc contribution           =    -264.42601231 Ry
     ewald contribution        =    -893.91174109 Ry
     DFT-D3 Dispersion         =      -0.45150127 Ry
     one-center paw contrib.   =    -344.45103915 Ry

     total magnetization       =     2.05 Bohr mag/cell
     absolute magnetization    =     2.82 Bohr mag/cell

     convergence has been achieved in  16 iterations

     Forces acting on atoms (cartesian axes, Ry/au):

     atom    1 type  1   force =     0.00113911   -0.00065812   -0.00000242
     atom    2 type  2   force =     0.00038041    0.00007667   -0.00017319
     atom    3 type  2   force =    -0.00043621    0.00025108    0.00000035
     atom    4 type  2   force =    -0.00032411   -0.00048135   -0.00048689
     atom    5 type  2   force =     0.00012350   -0.00036782    0.00017303
     atom    6 type  2   force =     0.00025492    0.00052157    0.00048686
     atom    7 type  2   force =    -0.00027435   -0.00056840   -0.00212244
     atom    8 type  2   force =    -0.00020057    0.00031876   -0.00051834
     atom    9 type  2   force =     0.00035465    0.00052197    0.00212237
     atom   10 type  2   force =    -0.00020350    0.00034572   -0.00003591
     atom   11 type  2   force =    -0.00040115    0.00000340    0.00003532
     atom   12 type  2   force =    -0.00037644    0.00001449    0.00051880
     atom   13 type  3   force =    -0.00062147    0.00035901    0.00000698
     atom   14 type  3   force =     0.00233249   -0.00077295    0.00065278
     atom   15 type  3   force =     0.00183455   -0.00163238   -0.00065832
     atom   16 type  3   force =    -0.00067530    0.00039015    0.00000676
     atom   17 type  3   force =    -0.00137106    0.00098188    0.00032493
     atom   18 type  3   force =    -0.00153547    0.00069630   -0.00033068

     Total force =     0.005865     Total SCF correction =     0.000057


     Computing stress (Cartesian axis) and pressure

          total   stress  (Ry/bohr**3)                   (kbar)     P=        4.77
   0.00003848  -0.00000527   0.00000192            5.66       -0.77        0.28
  -0.00000527   0.00003240   0.00000333           -0.77        4.77        0.49
   0.00000192   0.00000333   0.00002634            0.28        0.49        3.87

     Energy error            =      4.6E-05 Ry
     Gradient error          =      2.3E-03 Ry/Bohr

     number of scf cycles    =   2
     number of bfgs steps    =   1

     energy             old  =   -2728.5362939386 Ry
     energy             new  =   -2728.5363398900 Ry

     CASE: energy            _new < energy            _old


     WARNING: bfgs curvature condition failed, Theta= 0.974
     new trust radius        =       0.0034690194 bohr
     new conv_thr            =            4.6E-11 Ry


ATOMIC_POSITIONS (angstrom)
Co              -1.5478967802        3.4481406893       10.6056066736
Mg              -0.0164785817        1.3652305278        6.4146698854
Mg               3.4773825848        0.5468087509       10.6055630613
Mg               2.5166623811        2.8722719875        6.3522483411
Mg               1.2141326671        3.4967160799        1.9794858513
Mg               1.1755715519        0.5494356180        2.0419065961
Mg               1.2392299765        2.2032321188        9.2331174307
Mg               2.4965232238       -0.0390879519        7.8606004480
Mg               0.9237949528        1.6569750709       11.9779902244
Mg               2.5277262488       -0.1229523859        4.9136240505
Mg               3.7750367000        2.0374578776        3.4805086634
Mg               3.6868052526        2.0225566678        0.5335158752
Ni               1.2598047479        2.0493599097        4.1970763400
Ni               2.4106572553       -0.1869228937       -0.1497478415
Ni               3.7719149542        2.1708291177        8.5439065399
Ni              -0.0018051674       -0.1470867955        4.2723330354
Ni              -0.1021419469       -0.2144387457       -0.1483895067
Ni               0.0063709963       -0.0265113318        8.6930797434



     Writing config-only to output data dir ./outdir/mg2ni_co.save/ :
     XML data file
     NEW-OLD atomic charge density approx. for the potential

     Check: negative core charge=   -0.000003
     Generating pointlists ...

     total cpu time spent up to now is     2695.8 secs

     Self-consistent Calculation

     iteration #  1     ecut=    60.00 Ry     beta= 0.30
     Davidson diagonalization with overlap
     ethr =  1.00E-06,  avg # of iterations =  3.0

     total cpu time spent up to now is     2755.7 secs

     total energy              =   -2728.53588798 Ry
     estimated scf accuracy    <       0.00109166 Ry

     total magnetization       =     2.08 Bohr mag/cell
     absolute magnetization    =     2.85 Bohr mag/cell

     iteration #  2     ecut=    60.00 Ry     beta= 0.30
     Davidson diagonalization with overlap
     ethr =  7.43E-07,  avg # of iterations =  3.3

     total cpu time spent up to now is     2811.9 secs

     total energy              =   -2728.53315502 Ry
     estimated scf accuracy    <       0.15025306 Ry

     total magnetization       =     1.79 Bohr mag/cell
     absolute magnetization    =     2.55 Bohr mag/cell

     iteration #  3     ecut=    60.00 Ry     beta= 0.30
     Davidson diagonalization with overlap
     ethr =  7.43E-07,  avg # of iterations =  3.5

     total cpu time spent up to now is     2870.8 secs

     total energy              =   -2728.53635635 Ry
     estimated scf accuracy    <       0.00039336 Ry

     total magnetization       =     2.05 Bohr mag/cell
     absolute magnetization    =     2.82 Bohr mag/cell

     iteration #  4     ecut=    60.00 Ry     beta= 0.30
     Davidson diagonalization with overlap
     ethr =  2.68E-07,  avg # of iterations =  1.0

     total cpu time spent up to now is     2901.2 secs

     total energy              =   -2728.53637814 Ry
     estimated scf accuracy    <       0.00002780 Ry

     total magnetization       =     2.05 Bohr mag/cell
     absolute magnetization    =     2.82 Bohr mag/cell

     iteration #  5     ecut=    60.00 Ry     beta= 0.30
     Davidson diagonalization with overlap
     ethr =  1.89E-08,  avg # of iterations =  2.0

     total cpu time spent up to now is     2939.4 secs

     total energy              =   -2728.53637966 Ry
     estimated scf accuracy    <       0.00001975 Ry

     total magnetization       =     2.05 Bohr mag/cell
     absolute magnetization    =     2.82 Bohr mag/cell

     iteration #  6     ecut=    60.00 Ry     beta= 0.30
     Davidson diagonalization with overlap
     ethr =  1.34E-08,  avg # of iterations =  1.1

     total cpu time spent up to now is     2971.4 secs

     total energy              =   -2728.53638078 Ry
     estimated scf accuracy    <       0.00000781 Ry

     total magnetization       =     2.05 Bohr mag/cell
     absolute magnetization    =     2.82 Bohr mag/cell

     iteration #  7     ecut=    60.00 Ry     beta= 0.30
     Davidson diagonalization with overlap
     ethr =  5.32E-09,  avg # of iterations =  1.1

     total cpu time spent up to now is     3002.9 secs

     total energy              =   -2728.53638113 Ry
     estimated scf accuracy    <       0.00000396 Ry

     total magnetization       =     2.05 Bohr mag/cell
     absolute magnetization    =     2.82 Bohr mag/cell

     iteration #  8     ecut=    60.00 Ry     beta= 0.30
     Davidson diagonalization with overlap
     ethr =  2.69E-09,  avg # of iterations =  1.0

     total cpu time spent up to now is     3033.2 secs

     total energy              =   -2728.53638124 Ry
     estimated scf accuracy    <       0.00000145 Ry

     total magnetization       =     2.05 Bohr mag/cell
     absolute magnetization    =     2.82 Bohr mag/cell

     iteration #  9     ecut=    60.00 Ry     beta= 0.30
     Davidson diagonalization with overlap
     ethr =  9.87E-10,  avg # of iterations =  1.0

     total cpu time spent up to now is     3063.7 secs

     total energy              =   -2728.53638131 Ry
     estimated scf accuracy    <       0.00000034 Ry

     total magnetization       =     2.05 Bohr mag/cell
     absolute magnetization    =     2.82 Bohr mag/cell

     iteration # 10     ecut=    60.00 Ry     beta= 0.30
     Davidson diagonalization with overlap
     ethr =  2.30E-10,  avg # of iterations =  1.1

     total cpu time spent up to now is     3095.0 secs

     total energy              =   -2728.53638133 Ry
     estimated scf accuracy    <       0.00000009 Ry

     total magnetization       =     2.05 Bohr mag/cell
     absolute magnetization    =     2.82 Bohr mag/cell

     iteration # 11     ecut=    60.00 Ry     beta= 0.30
     Davidson diagonalization with overlap
     ethr =  6.36E-11,  avg # of iterations =  3.7

     total cpu time spent up to now is     3150.5 secs

     total energy              =   -2728.53638134 Ry
     estimated scf accuracy    <       0.00000021 Ry

     total magnetization       =     2.05 Bohr mag/cell
     absolute magnetization    =     2.82 Bohr mag/cell

     iteration # 12     ecut=    60.00 Ry     beta= 0.30
     Davidson diagonalization with overlap
     ethr =  6.36E-11,  avg # of iterations =  2.3

     total cpu time spent up to now is     3191.5 secs

     total energy              =   -2728.53638135 Ry
     estimated scf accuracy    <          8.3E-09 Ry

     total magnetization       =     2.05 Bohr mag/cell
     absolute magnetization    =     2.82 Bohr mag/cell

     iteration # 13     ecut=    60.00 Ry     beta= 0.30
     Davidson diagonalization with overlap
     ethr =  5.66E-12,  avg # of iterations =  3.9

     total cpu time spent up to now is     3261.0 secs

     total energy              =   -2728.53638136 Ry
     estimated scf accuracy    <       0.00000002 Ry

     total magnetization       =     2.05 Bohr mag/cell
     absolute magnetization    =     2.82 Bohr mag/cell

     iteration # 14     ecut=    60.00 Ry     beta= 0.30
     Davidson diagonalization with overlap
     ethr =  5.66E-12,  avg # of iterations =  1.0

     total cpu time spent up to now is     3292.2 secs

     total energy              =   -2728.53638136 Ry
     estimated scf accuracy    <       0.00000001 Ry

     total magnetization       =     2.05 Bohr mag/cell
     absolute magnetization    =     2.82 Bohr mag/cell

     iteration # 15     ecut=    60.00 Ry     beta= 0.30
     Davidson diagonalization with overlap
     ethr =  5.66E-12,  avg # of iterations =  1.0

     total cpu time spent up to now is     3322.6 secs

     total energy              =   -2728.53638136 Ry
     estimated scf accuracy    <          6.5E-09 Ry

     total magnetization       =     2.05 Bohr mag/cell
     absolute magnetization    =     2.82 Bohr mag/cell

     iteration # 16     ecut=    60.00 Ry     beta= 0.30
     Davidson diagonalization with overlap
     ethr =  4.43E-12,  avg # of iterations =  1.1

     total cpu time spent up to now is     3354.3 secs

     total energy              =   -2728.53638136 Ry
     estimated scf accuracy    <          8.2E-10 Ry

     total magnetization       =     2.05 Bohr mag/cell
     absolute magnetization    =     2.82 Bohr mag/cell

     iteration # 17     ecut=    60.00 Ry     beta= 0.30
     Davidson diagonalization with overlap
     ethr =  5.58E-13,  avg # of iterations =  1.8

     total cpu time spent up to now is     3392.8 secs

     total energy              =   -2728.53638136 Ry
     estimated scf accuracy    <          2.3E-09 Ry

     total magnetization       =     2.05 Bohr mag/cell
     absolute magnetization    =     2.82 Bohr mag/cell

     iteration # 18     ecut=    60.00 Ry     beta= 0.30
     Davidson diagonalization with overlap
     ethr =  5.58E-13,  avg # of iterations =  2.1

     total cpu time spent up to now is     3431.5 secs

     total energy              =   -2728.53638136 Ry
     estimated scf accuracy    <          1.7E-10 Ry

     total magnetization       =     2.05 Bohr mag/cell
     absolute magnetization    =     2.82 Bohr mag/cell

     iteration # 19     ecut=    60.00 Ry     beta= 0.30
     Davidson diagonalization with overlap
     ethr =  1.17E-13,  avg # of iterations =  1.8
 
     Magnetic moment per site  (integrated on atomic sphere of radius R)
     atom   1 (R=0.194)  charge= 15.2560  magn=  1.5755
     atom   2 (R=0.212)  charge=  0.6219  magn= -0.0030
     atom   3 (R=0.212)  charge=  0.6226  magn= -0.0144
     atom   4 (R=0.212)  charge=  0.6268  magn= -0.0020
     atom   5 (R=0.212)  charge=  0.6219  magn= -0.0030
     atom   6 (R=0.212)  charge=  0.6268  magn= -0.0020
     atom   7 (R=0.212)  charge=  0.6349  magn= -0.0077
     atom   8 (R=0.212)  charge=  0.6237  magn= -0.0033
     atom   9 (R=0.212)  charge=  0.6349  magn= -0.0077
     atom  10 (R=0.212)  charge=  0.6345  magn=  0.0027
     atom  11 (R=0.212)  charge=  0.6345  magn=  0.0027
     atom  12 (R=0.212)  charge=  0.6237  magn= -0.0033
     atom  13 (R=0.194)  charge= 16.4788  magn=  0.0305
     atom  14 (R=0.194)  charge= 16.4838  magn=  0.1723
     atom  15 (R=0.194)  charge= 16.4838  magn=  0.1723
     atom  16 (R=0.194)  charge= 16.4973  magn= -0.0362
     atom  17 (R=0.194)  charge= 16.4865  magn=  0.1748
     atom  18 (R=0.194)  charge= 16.4865  magn=  0.1748

     total cpu time spent up to now is     3468.4 secs

     End of self-consistent calculation

     Number of k-points >= 100: set verbosity='high' to print the bands.

     the Fermi energy is     8.0262 ev

!    total energy              =   -2728.53638136 Ry
     estimated scf accuracy    <          3.5E-11 Ry
     smearing contrib. (-TS)   =       0.00059383 Ry
     internal energy E=F+TS    =   -2728.53697519 Ry

     The total energy is F=E-TS. E is the sum of the following terms:
     one-electron contribution =   -2547.95501653 Ry
     hartree contribution      =    1322.90370945 Ry
     xc contribution           =    -264.42583779 Ry
     ewald contribution        =    -894.15720015 Ry
     DFT-D3 Dispersion         =      -0.45149912 Ry
     one-center paw contrib.   =    -344.45113105 Ry

     total magnetization       =     2.05 Bohr mag/cell
     absolute magnetization    =     2.82 Bohr mag/cell

     convergence has been achieved in  19 iterations

     Forces acting on atoms (cartesian axes, Ry/au):

     atom    1 type  1   force =     0.00097069   -0.00056100   -0.00000079
     atom    2 type  2   force =     0.00032998    0.00003442   -0.00025952
     atom    3 type  2   force =    -0.00037805    0.00021780   -0.00000019
     atom    4 type  2   force =    -0.00022972   -0.00040146   -0.00039202
     atom    5 type  2   force =     0.00013521   -0.00030297    0.00025979
     atom    6 type  2   force =     0.00023274    0.00039989    0.00039232
     atom    7 type  2   force =    -0.00004113   -0.00045066   -0.00173808
     atom    8 type  2   force =    -0.00032550    0.00017239   -0.00047741
     atom    9 type  2   force =     0.00036940    0.00026099    0.00173769
     atom   10 type  2   force =    -0.00026340    0.00032568   -0.00005741
     atom   11 type  2   force =    -0.00041374    0.00006539    0.00005711
     atom   12 type  2   force =    -0.00031213    0.00019600    0.00047747
     atom   13 type  3   force =    -0.00057982    0.00033473   -0.00000006
     atom   14 type  3   force =     0.00171116   -0.00054940    0.00058665
     atom   15 type  3   force =     0.00133160   -0.00120654   -0.00058598
     atom   16 type  3   force =    -0.00058879    0.00033998   -0.00000025
     atom   17 type  3   force =    -0.00081495    0.00083878    0.00027260
     atom   18 type  3   force =    -0.00113354    0.00028597   -0.00027190

     Total force =     0.004584     Total SCF correction =     0.000022


     Computing stress (Cartesian axis) and pressure

          total   stress  (Ry/bohr**3)                   (kbar)     P=        4.72
   0.00003837  -0.00000514   0.00000209            5.64       -0.76        0.31
  -0.00000514   0.00003244   0.00000362           -0.76        4.77        0.53
   0.00000209   0.00000362   0.00002551            0.31        0.53        3.75

     Energy error            =      4.1E-05 Ry
     Gradient error          =      1.7E-03 Ry/Bohr

     number of scf cycles    =   3
     number of bfgs steps    =   2

     energy             old  =   -2728.5363398900 Ry
     energy             new  =   -2728.5363813584 Ry

     CASE: energy            _new < energy            _old

     new trust radius        =       0.0052035291 bohr
     new conv_thr            =            4.1E-11 Ry


ATOMIC_POSITIONS (angstrom)
Co              -1.5465512366        3.4473631388       10.6056053919
Mg              -0.0160241528        1.3652925012        6.4143637379
Mg               3.4768622782        0.5471084318       10.6055629806
Mg               2.5163215992        2.8717108491        6.3516926658
Mg               1.2143061464        3.4962915539        1.9797922126
Mg               1.1758870747        0.5500115991        2.0424625576
Mg               1.2390796970        2.2025898086        9.2306740155
Mg               2.4961465334       -0.0388021772        7.8599550328
Mg               0.9242756196        1.6574264799       11.9804332012
Mg               2.5274034251       -0.1225152035        4.9135570056
Mg               3.7744966974        2.0375189853        3.4805752379
Mg               3.6863693060        2.0227403573        0.5341614824
Ni               1.2590246548        2.0498102963        4.1970778679
Ni               2.4131635189       -0.1877354402       -0.1489474270
Ni               3.7738717685        2.1690659581        8.5431055629
Ni              -0.0026152799       -0.1466189640        4.2723342984
Ni              -0.1034424353       -0.2132778112       -0.1480077643
Ni               0.0047158023       -0.0259660520        8.6926973516



     Writing config-only to output data dir ./outdir/mg2ni_co.save/ :
     XML data file
     NEW-OLD atomic charge density approx. for the potential

     Check: negative core charge=   -0.000003
     Generating pointlists ...

     total cpu time spent up to now is     3495.2 secs

     Self-consistent Calculation

     iteration #  1     ecut=    60.00 Ry     beta= 0.30
     Davidson diagonalization with overlap
     ethr =  1.00E-06,  avg # of iterations =  3.0

     total cpu time spent up to now is     3555.9 secs

     total energy              =   -2728.53517724 Ry
     estimated scf accuracy    <       0.00274959 Ry

     total magnetization       =     2.09 Bohr mag/cell
     absolute magnetization    =     2.86 Bohr mag/cell

     iteration #  2     ecut=    60.00 Ry     beta= 0.30
     Davidson diagonalization with overlap
     ethr =  1.87E-06,  avg # of iterations =  3.9

     total cpu time spent up to now is     3619.6 secs

     total energy              =   -2728.52837095 Ry
     estimated scf accuracy    <       0.37408439 Ry

     total magnetization       =     1.63 Bohr mag/cell
     absolute magnetization    =     2.39 Bohr mag/cell

     iteration #  3     ecut=    60.00 Ry     beta= 0.30
     Davidson diagonalization with overlap
     ethr =  1.87E-06,  avg # of iterations =  3.9

     total cpu time spent up to now is     3682.4 secs

     total energy              =   -2728.53636040 Ry
     estimated scf accuracy    <       0.00113888 Ry

     total magnetization       =     2.05 Bohr mag/cell
     absolute magnetization    =     2.81 Bohr mag/cell

     iteration #  4     ecut=    60.00 Ry     beta= 0.30
     Davidson diagonalization with overlap
     ethr =  7.75E-07,  avg # of iterations =  1.0

     total cpu time spent up to now is     3712.7 secs

     total energy              =   -2728.53641855 Ry
     estimated scf accuracy    <       0.00005439 Ry

     total magnetization       =     2.06 Bohr mag/cell
     absolute magnetization    =     2.83 Bohr mag/cell

     iteration #  5     ecut=    60.00 Ry     beta= 0.30
     Davidson diagonalization with overlap
     ethr =  3.70E-08,  avg # of iterations =  2.0

     total cpu time spent up to now is     3751.7 secs

     total energy              =   -2728.53642276 Ry
     estimated scf accuracy    <       0.00004090 Ry

     total magnetization       =     2.06 Bohr mag/cell
     absolute magnetization    =     2.83 Bohr mag/cell

     iteration #  6     ecut=    60.00 Ry     beta= 0.30
     Davidson diagonalization with overlap
     ethr =  2.78E-08,  avg # of iterations =  1.3

     total cpu time spent up to now is     3787.2 secs

     total energy              =   -2728.53642537 Ry
     estimated scf accuracy    <       0.00001176 Ry

     total magnetization       =     2.06 Bohr mag/cell
     absolute magnetization    =     2.83 Bohr mag/cell

     iteration #  7     ecut=    60.00 Ry     beta= 0.30
     Davidson diagonalization with overlap
     ethr =  8.00E-09,  avg # of iterations =  1.7

     total cpu time spent up to now is     3825.7 secs

     total energy              =   -2728.53642606 Ry
     estimated scf accuracy    <       0.00000467 Ry

     total magnetization       =     2.06 Bohr mag/cell
     absolute magnetization    =     2.83 Bohr mag/cell

     iteration #  8     ecut=    60.00 Ry     beta= 0.30
     Davidson diagonalization with overlap
     ethr =  3.18E-09,  avg # of iterations =  1.0

     total cpu time spent up to now is     3856.2 secs

     total energy              =   -2728.53642610 Ry
     estimated scf accuracy    <       0.00000498 Ry

     total magnetization       =     2.06 Bohr mag/cell
     absolute magnetization    =     2.83 Bohr mag/cell

     iteration #  9     ecut=    60.00 Ry     beta= 0.30
     Davidson diagonalization with overlap
     ethr =  3.18E-09,  avg # of iterations =  1.0

     total cpu time spent up to now is     3886.6 secs

     total energy              =   -2728.53642630 Ry
     estimated scf accuracy    <       0.00000266 Ry

     total magnetization       =     2.06 Bohr mag/cell
     absolute magnetization    =     2.83 Bohr mag/cell

     iteration # 10     ecut=    60.00 Ry     beta= 0.30
     Davidson diagonalization with overlap
     ethr =  1.81E-09,  avg # of iterations =  1.0

     total cpu time spent up to now is     3917.0 secs

     total energy              =   -2728.53642640 Ry
     estimated scf accuracy    <       0.00000022 Ry

     total magnetization       =     2.06 Bohr mag/cell
     absolute magnetization    =     2.83 Bohr mag/cell

     iteration # 11     ecut=    60.00 Ry     beta= 0.30
     Davidson diagonalization with overlap
     ethr =  1.52E-10,  avg # of iterations =  3.7

     total cpu time spent up to now is     3972.8 secs

     total energy              =   -2728.53642642 Ry
     estimated scf accuracy    <       0.00000058 Ry

     total magnetization       =     2.06 Bohr mag/cell
     absolute magnetization    =     2.83 Bohr mag/cell

     iteration # 12     ecut=    60.00 Ry     beta= 0.30
     Davidson diagonalization with overlap
     ethr =  1.52E-10,  avg # of iterations =  2.3

     total cpu time spent up to now is     4013.1 secs

     total energy              =   -2728.53642646 Ry
     estimated scf accuracy    <       0.00000002 Ry

     total magnetization       =     2.06 Bohr mag/cell
     absolute magnetization    =     2.83 Bohr mag/cell

     iteration # 13     ecut=    60.00 Ry     beta= 0.30
     Davidson diagonalization with overlap
     ethr =  1.59E-11,  avg # of iterations =  3.8

     total cpu time spent up to now is     4080.0 secs

     total energy              =   -2728.53642647 Ry
     estimated scf accuracy    <       0.00000003 Ry

     total magnetization       =     2.06 Bohr mag/cell
     absolute magnetization    =     2.83 Bohr mag/cell

     iteration # 14     ecut=    60.00 Ry     beta= 0.30
     Davidson diagonalization with overlap
     ethr =  1.59E-11,  avg # of iterations =  1.0

     total cpu time spent up to now is     4110.5 secs

     total energy              =   -2728.53642647 Ry
     estimated scf accuracy    <       0.00000003 Ry

     total magnetization       =     2.06 Bohr mag/cell
     absolute magnetization    =     2.83 Bohr mag/cell

     iteration # 15     ecut=    60.00 Ry     beta= 0.30
     Davidson diagonalization with overlap
     ethr =  1.59E-11,  avg # of iterations =  1.0

     total cpu time spent up to now is     4140.9 secs

     total energy              =   -2728.53642648 Ry
     estimated scf accuracy    <          8.6E-09 Ry

     total magnetization       =     2.06 Bohr mag/cell
     absolute magnetization    =     2.83 Bohr mag/cell

     iteration # 16     ecut=    60.00 Ry     beta= 0.30
     Davidson diagonalization with overlap
     ethr =  5.87E-12,  avg # of iterations =  1.1

     total cpu time spent up to now is     4172.6 secs

     total energy              =   -2728.53642648 Ry
     estimated scf accuracy    <          2.7E-09 Ry

     total magnetization       =     2.06 Bohr mag/cell
     absolute magnetization    =     2.83 Bohr mag/cell

     iteration # 17     ecut=    60.00 Ry     beta= 0.30
     Davidson diagonalization with overlap
     ethr =  1.83E-12,  avg # of iterations =  1.2

     total cpu time spent up to now is     4205.3 secs

     total energy              =   -2728.53642648 Ry
     estimated scf accuracy    <          3.8E-09 Ry

     total magnetization       =     2.06 Bohr mag/cell
     absolute magnetization    =     2.83 Bohr mag/cell

     iteration # 18     ecut=    60.00 Ry     beta= 0.30
     Davidson diagonalization with overlap
     ethr =  1.83E-12,  avg # of iterations =  2.0

     total cpu time spent up to now is     4242.6 secs

     total energy              =   -2728.53642648 Ry
     estimated scf accuracy    <          1.9E-10 Ry

     total magnetization       =     2.06 Bohr mag/cell
     absolute magnetization    =     2.83 Bohr mag/cell

     iteration # 19     ecut=    60.00 Ry     beta= 0.30
     Davidson diagonalization with overlap
     ethr =  1.32E-13,  avg # of iterations =  2.4

     total cpu time spent up to now is     4285.1 secs

     total energy              =   -2728.53642648 Ry
     estimated scf accuracy    <          1.6E-10 Ry

     total magnetization       =     2.06 Bohr mag/cell
     absolute magnetization    =     2.83 Bohr mag/cell

     iteration # 20     ecut=    60.00 Ry     beta= 0.30
     Davidson diagonalization with overlap
     ethr =  1.06E-13,  avg # of iterations =  1.5
 
     Magnetic moment per site  (integrated on atomic sphere of radius R)
     atom   1 (R=0.194)  charge= 15.2549  magn=  1.5784
     atom   2 (R=0.212)  charge=  0.6222  magn= -0.0030
     atom   3 (R=0.212)  charge=  0.6225  magn= -0.0144
     atom   4 (R=0.212)  charge=  0.6267  magn= -0.0020
     atom   5 (R=0.212)  charge=  0.6222  magn= -0.0030
     atom   6 (R=0.212)  charge=  0.6267  magn= -0.0020
     atom   7 (R=0.212)  charge=  0.6349  magn= -0.0076
     atom   8 (R=0.212)  charge=  0.6238  magn= -0.0033
     atom   9 (R=0.212)  charge=  0.6348  magn= -0.0076
     atom  10 (R=0.212)  charge=  0.6345  magn=  0.0027
     atom  11 (R=0.212)  charge=  0.6345  magn=  0.0027
     atom  12 (R=0.212)  charge=  0.6238  magn= -0.0033
     atom  13 (R=0.194)  charge= 16.4789  magn=  0.0304
     atom  14 (R=0.194)  charge= 16.4837  magn=  0.1726
     atom  15 (R=0.194)  charge= 16.4837  magn=  0.1726
     atom  16 (R=0.194)  charge= 16.4974  magn= -0.0361
     atom  17 (R=0.194)  charge= 16.4863  magn=  0.1747
     atom  18 (R=0.194)  charge= 16.4863  magn=  0.1747

     total cpu time spent up to now is     4320.3 secs

     End of self-consistent calculation

     Number of k-points >= 100: set verbosity='high' to print the bands.

     the Fermi energy is     8.0260 ev

!    total energy              =   -2728.53642648 Ry
     estimated scf accuracy    <          3.4E-11 Ry
     smearing contrib. (-TS)   =       0.00059655 Ry
     internal energy E=F+TS    =   -2728.53702302 Ry

     The total energy is F=E-TS. E is the sum of the following terms:
     one-electron contribution =   -2547.18872029 Ry
     hartree contribution      =    1322.52052622 Ry
     xc contribution           =    -264.42561132 Ry
     ewald contribution        =    -894.54044690 Ry
     DFT-D3 Dispersion         =      -0.45149564 Ry
     one-center paw contrib.   =    -344.45127509 Ry

     total magnetization       =     2.06 Bohr mag/cell
     absolute magnetization    =     2.83 Bohr mag/cell

     convergence has been achieved in  20 iterations

     Forces acting on atoms (cartesian axes, Ry/au):

     atom    1 type  1   force =     0.00071815   -0.00041509   -0.00000017
     atom    2 type  2   force =     0.00023471   -0.00003125   -0.00035689
     atom    3 type  2   force =    -0.00026678    0.00015363   -0.00000023
     atom    4 type  2   force =    -0.00009597   -0.00027759   -0.00026283
     atom    5 type  2   force =     0.00014451   -0.00018764    0.00035739
     atom    6 type  2   force =     0.00019228    0.00022207    0.00026327
     atom    7 type  2   force =     0.00025005   -0.00028992   -0.00112864
     atom    8 type  2   force =    -0.00046714   -0.00004527   -0.00040554
     atom    9 type  2   force =     0.00037582   -0.00007164    0.00112839
     atom   10 type  2   force =    -0.00034542    0.00029204   -0.00008789
     atom   11 type  2   force =    -0.00042562    0.00015324    0.00008784
     atom   12 type  2   force =    -0.00019447    0.00042757    0.00040556
     atom   13 type  3   force =    -0.00051281    0.00029606    0.00000013
     atom   14 type  3   force =     0.00085204   -0.00022274    0.00046700
     atom   15 type  3   force =     0.00061965   -0.00062684   -0.00046704
     atom   16 type  3   force =    -0.00046466    0.00026829   -0.00000024
     atom   17 type  3   force =    -0.00005987    0.00060642    0.00018461
     atom   18 type  3   force =    -0.00055445   -0.00025133   -0.00018471

     Total force =     0.002989     Total SCF correction =     0.000013


     Computing stress (Cartesian axis) and pressure

          total   stress  (Ry/bohr**3)                   (kbar)     P=        4.67
   0.00003830  -0.00000495   0.00000232            5.63       -0.73        0.34
  -0.00000495   0.00003259   0.00000403           -0.73        4.79        0.59
   0.00000232   0.00000403   0.00002429            0.34        0.59        3.57

     Energy error            =      4.5E-05 Ry
     Gradient error          =      1.1E-03 Ry/Bohr

     number of scf cycles    =   4
     number of bfgs steps    =   3

     energy             old  =   -2728.5363813584 Ry
     energy             new  =   -2728.5364264769 Ry

     CASE: energy            _new < energy            _old

     new trust radius        =       0.0078052936 bohr
     new conv_thr            =            4.5E-11 Ry


ATOMIC_POSITIONS (angstrom)
Co              -1.5442823717        3.4460520037       10.6056039249
Mg              -0.0152707595        1.3653261106        6.4136445154
Mg               3.4760027134        0.5476034201       10.6055627446
Mg               2.5158383274        2.8707886750        6.3507879003
Mg               1.2146537130        3.4956222928        1.9805121681
Mg               1.1764438982        0.5508916942        2.0433680756
Mg               1.2391707051        2.2015589332        9.2267506590
Mg               2.4952331391       -0.0385351976        7.8588018384
Mg               0.9252130790        1.6578631839       11.9843558678
Mg               2.5266720864       -0.1217144019        4.9133874596
Mg               3.7734375339        2.0377521817        3.4807442066
Mg               3.6856811523        2.0233986719        0.5353149752
Ni               1.2576051551        2.0506298518        4.1970803863
Ni               2.4168808254       -0.1888770667       -0.1475567567
Ni               3.7767198645        2.1664182220        8.5417134742
Ni              -0.0040178774       -0.1458090186        4.2723360942
Ni              -0.1049664039       -0.2113392379       -0.1473845626
Ni               0.0022762370       -0.0256160070        8.6920724404



     Writing config-only to output data dir ./outdir/mg2ni_co.save/ :
     XML data file
     NEW-OLD atomic charge density approx. for the potential

     Check: negative core charge=   -0.000003
     Generating pointlists ...

     total cpu time spent up to now is     4347.2 secs

     Self-consistent Calculation

     iteration #  1     ecut=    60.00 Ry     beta= 0.30
     Davidson diagonalization with overlap
     ethr =  1.00E-06,  avg # of iterations =  3.2

     total cpu time spent up to now is     4415.6 secs

     total energy              =   -2728.53318573 Ry
     estimated scf accuracy    <       0.00715820 Ry

     total magnetization       =     2.12 Bohr mag/cell
     absolute magnetization    =     2.89 Bohr mag/cell

     iteration #  2     ecut=    60.00 Ry     beta= 0.30
     Davidson diagonalization with overlap
     ethr =  4.87E-06,  avg # of iterations =  3.9

     total cpu time spent up to now is     4478.7 secs

     total energy              =   -2728.51604128 Ry
     estimated scf accuracy    <       0.94584440 Ry

     total magnetization       =     1.37 Bohr mag/cell
     absolute magnetization    =     2.12 Bohr mag/cell

     iteration #  3     ecut=    60.00 Ry     beta= 0.30
     Davidson diagonalization with overlap
     ethr =  4.87E-06,  avg # of iterations =  3.9

     total cpu time spent up to now is     4541.7 secs

     total energy              =   -2728.53628504 Ry
     estimated scf accuracy    <       0.00319870 Ry

     total magnetization       =     2.04 Bohr mag/cell
     absolute magnetization    =     2.81 Bohr mag/cell

     iteration #  4     ecut=    60.00 Ry     beta= 0.30
     Davidson diagonalization with overlap
     ethr =  2.18E-06,  avg # of iterations =  1.0

     total cpu time spent up to now is     4572.2 secs

     total energy              =   -2728.53643748 Ry
     estimated scf accuracy    <       0.00013241 Ry

     total magnetization       =     2.06 Bohr mag/cell
     absolute magnetization    =     2.83 Bohr mag/cell

     iteration #  5     ecut=    60.00 Ry     beta= 0.30
     Davidson diagonalization with overlap
     ethr =  9.01E-08,  avg # of iterations =  2.0

     total cpu time spent up to now is     4611.3 secs

     total energy              =   -2728.53644944 Ry
     estimated scf accuracy    <       0.00008027 Ry

     total magnetization       =     2.06 Bohr mag/cell
     absolute magnetization    =     2.83 Bohr mag/cell

     iteration #  6     ecut=    60.00 Ry     beta= 0.30
     Davidson diagonalization with overlap
     ethr =  5.46E-08,  avg # of iterations =  1.5

     total cpu time spent up to now is     4648.5 secs

     total energy              =   -2728.53645431 Ry
     estimated scf accuracy    <       0.00003713 Ry

     total magnetization       =     2.06 Bohr mag/cell
     absolute magnetization    =     2.83 Bohr mag/cell

     iteration #  7     ecut=    60.00 Ry     beta= 0.30
     Davidson diagonalization with overlap
     ethr =  2.53E-08,  avg # of iterations =  1.1

     total cpu time spent up to now is     4680.7 secs

     total energy              =   -2728.53645631 Ry
     estimated scf accuracy    <       0.00001411 Ry

     total magnetization       =     2.06 Bohr mag/cell
     absolute magnetization    =     2.83 Bohr mag/cell

     iteration #  8     ecut=    60.00 Ry     beta= 0.30
     Davidson diagonalization with overlap
     ethr =  9.60E-09,  avg # of iterations =  1.0

     total cpu time spent up to now is     4711.1 secs

     total energy              =   -2728.53645635 Ry
     estimated scf accuracy    <       0.00001876 Ry

     total magnetization       =     2.06 Bohr mag/cell
     absolute magnetization    =     2.83 Bohr mag/cell

     iteration #  9     ecut=    60.00 Ry     beta= 0.30
     Davidson diagonalization with overlap
     ethr =  9.60E-09,  avg # of iterations =  1.0

     total cpu time spent up to now is     4741.5 secs

     total energy              =   -2728.53645710 Ry
     estimated scf accuracy    <       0.00000668 Ry

     total magnetization       =     2.06 Bohr mag/cell
     absolute magnetization    =     2.83 Bohr mag/cell

     iteration # 10     ecut=    60.00 Ry     beta= 0.30
     Davidson diagonalization with overlap
     ethr =  4.54E-09,  avg # of iterations =  1.0

     total cpu time spent up to now is     4771.9 secs

     total energy              =   -2728.53645736 Ry
     estimated scf accuracy    <       0.00000069 Ry

     total magnetization       =     2.06 Bohr mag/cell
     absolute magnetization    =     2.83 Bohr mag/cell

     iteration # 11     ecut=    60.00 Ry     beta= 0.30
     Davidson diagonalization with overlap
     ethr =  4.67E-10,  avg # of iterations =  3.0

     total cpu time spent up to now is     4820.7 secs

     total energy              =   -2728.53645743 Ry
     estimated scf accuracy    <       0.00000114 Ry

     total magnetization       =     2.06 Bohr mag/cell
     absolute magnetization    =     2.83 Bohr mag/cell

     iteration # 12     ecut=    60.00 Ry     beta= 0.30
     Davidson diagonalization with overlap
     ethr =  4.67E-10,  avg # of iterations =  2.0

     total cpu time spent up to now is     4860.4 secs

     total energy              =   -2728.53645752 Ry
     estimated scf accuracy    <       0.00000007 Ry

     total magnetization       =     2.06 Bohr mag/cell
     absolute magnetization    =     2.83 Bohr mag/cell

     iteration # 13     ecut=    60.00 Ry     beta= 0.30
     Davidson diagonalization with overlap
     ethr =  4.77E-11,  avg # of iterations =  4.0

     total cpu time spent up to now is     4931.2 secs

     total energy              =   -2728.53645757 Ry
     estimated scf accuracy    <       0.00000008 Ry

     total magnetization       =     2.06 Bohr mag/cell
     absolute magnetization    =     2.83 Bohr mag/cell

     iteration # 14     ecut=    60.00 Ry     beta= 0.30
     Davidson diagonalization with overlap
     ethr =  4.77E-11,  avg # of iterations =  1.0

     total cpu time spent up to now is     4961.6 secs

     total energy              =   -2728.53645758 Ry
     estimated scf accuracy    <       0.00000004 Ry

     total magnetization       =     2.06 Bohr mag/cell
     absolute magnetization    =     2.83 Bohr mag/cell

     iteration # 15     ecut=    60.00 Ry     beta= 0.30
     Davidson diagonalization with overlap
     ethr =  3.04E-11,  avg # of iterations =  1.0

     total cpu time spent up to now is     4992.1 secs

     total energy              =   -2728.53645758 Ry
     estimated scf accuracy    <       0.00000002 Ry

     total magnetization       =     2.06 Bohr mag/cell
     absolute magnetization    =     2.83 Bohr mag/cell

     iteration # 16     ecut=    60.00 Ry     beta= 0.30
     Davidson diagonalization with overlap
     ethr =  1.36E-11,  avg # of iterations =  1.0

     total cpu time spent up to now is     5023.2 secs

     total energy              =   -2728.53645758 Ry
     estimated scf accuracy    <       0.00000001 Ry

     total magnetization       =     2.06 Bohr mag/cell
     absolute magnetization    =     2.83 Bohr mag/cell

     iteration # 17     ecut=    60.00 Ry     beta= 0.30
     Davidson diagonalization with overlap
     ethr =  7.36E-12,  avg # of iterations =  1.0

     total cpu time spent up to now is     5053.9 secs

     total energy              =   -2728.53645758 Ry
     estimated scf accuracy    <          6.8E-09 Ry

     total magnetization       =     2.06 Bohr mag/cell
     absolute magnetization    =     2.83 Bohr mag/cell

     iteration # 18     ecut=    60.00 Ry     beta= 0.30
     Davidson diagonalization with overlap
     ethr =  4.66E-12,  avg # of iterations =  2.0

     total cpu time spent up to now is     5090.6 secs

     total energy              =   -2728.53645758 Ry
     estimated scf accuracy    <          8.0E-10 Ry

     total magnetization       =     2.06 Bohr mag/cell
     absolute magnetization    =     2.83 Bohr mag/cell

     iteration # 19     ecut=    60.00 Ry     beta= 0.30
     Davidson diagonalization with overlap
     ethr =  5.43E-13,  avg # of iterations =  1.3

     total cpu time spent up to now is     5124.7 secs

     total energy              =   -2728.53645758 Ry
     estimated scf accuracy    <          6.3E-10 Ry

     total magnetization       =     2.06 Bohr mag/cell
     absolute magnetization    =     2.83 Bohr mag/cell

     iteration # 20     ecut=    60.00 Ry     beta= 0.30
     Davidson diagonalization with overlap
     ethr =  4.28E-13,  avg # of iterations =  1.5

     total cpu time spent up to now is     5158.3 secs

     total energy              =   -2728.53645758 Ry
     estimated scf accuracy    <          7.7E-11 Ry

     total magnetization       =     2.06 Bohr mag/cell
     absolute magnetization    =     2.83 Bohr mag/cell

     iteration # 21     ecut=    60.00 Ry     beta= 0.30
     Davidson diagonalization with overlap
     ethr =  1.00E-13,  avg # of iterations =  1.8

     total cpu time spent up to now is     5195.2 secs

     total energy              =   -2728.53645758 Ry
     estimated scf accuracy    <          1.7E-10 Ry

     total magnetization       =     2.06 Bohr mag/cell
     absolute magnetization    =     2.83 Bohr mag/cell

     iteration # 22     ecut=    60.00 Ry     beta= 0.30
     Davidson diagonalization with overlap
     ethr =  1.00E-13,  avg # of iterations =  1.0

     total cpu time spent up to now is     5226.0 secs

     total energy              =   -2728.53645758 Ry
     estimated scf accuracy    <          6.7E-11 Ry

     total magnetization       =     2.06 Bohr mag/cell
     absolute magnetization    =     2.83 Bohr mag/cell

     iteration # 23     ecut=    60.00 Ry     beta= 0.30
     Davidson diagonalization with overlap
     ethr =  1.00E-13,  avg # of iterations =  1.0
 
     Magnetic moment per site  (integrated on atomic sphere of radius R)
     atom   1 (R=0.194)  charge= 15.2531  magn=  1.5827
     atom   2 (R=0.212)  charge=  0.6228  magn= -0.0030
     atom   3 (R=0.212)  charge=  0.6224  magn= -0.0145
     atom   4 (R=0.212)  charge=  0.6266  magn= -0.0020
     atom   5 (R=0.212)  charge=  0.6228  magn= -0.0030
     atom   6 (R=0.212)  charge=  0.6266  magn= -0.0020
     atom   7 (R=0.212)  charge=  0.6348  magn= -0.0076
     atom   8 (R=0.212)  charge=  0.6239  magn= -0.0032
     atom   9 (R=0.212)  charge=  0.6348  magn= -0.0076
     atom  10 (R=0.212)  charge=  0.6347  magn=  0.0027
     atom  11 (R=0.212)  charge=  0.6347  magn=  0.0027
     atom  12 (R=0.212)  charge=  0.6239  magn= -0.0032
     atom  13 (R=0.194)  charge= 16.4793  magn=  0.0301
     atom  14 (R=0.194)  charge= 16.4836  magn=  0.1729
     atom  15 (R=0.194)  charge= 16.4836  magn=  0.1729
     atom  16 (R=0.194)  charge= 16.4975  magn= -0.0360
     atom  17 (R=0.194)  charge= 16.4860  magn=  0.1745
     atom  18 (R=0.194)  charge= 16.4860  magn=  0.1745

     total cpu time spent up to now is     5256.3 secs

     End of self-consistent calculation

     Number of k-points >= 100: set verbosity='high' to print the bands.

     the Fermi energy is     8.0255 ev

!    total energy              =   -2728.53645758 Ry
     estimated scf accuracy    <          2.4E-11 Ry
     smearing contrib. (-TS)   =       0.00060038 Ry
     internal energy E=F+TS    =   -2728.53705797 Ry

     The total energy is F=E-TS. E is the sum of the following terms:
     one-electron contribution =   -2545.98221282 Ry
     hartree contribution      =    1321.91723966 Ry
     xc contribution           =    -264.42536899 Ry
     ewald contribution        =    -895.14372288 Ry
     DFT-D3 Dispersion         =      -0.45149001 Ry
     one-center paw contrib.   =    -344.45150294 Ry

     total magnetization       =     2.06 Bohr mag/cell
     absolute magnetization    =     2.83 Bohr mag/cell

     convergence has been achieved in  23 iterations

     Forces acting on atoms (cartesian axes, Ry/au):

     atom    1 type  1   force =     0.00033087   -0.00019143   -0.00000369
     atom    2 type  2   force =     0.00005606   -0.00013210   -0.00043469
     atom    3 type  2   force =    -0.00005336    0.00003058    0.00000008
     atom    4 type  2   force =     0.00008613   -0.00008699   -0.00009364
     atom    5 type  2   force =     0.00014261    0.00001754    0.00043575
     atom    6 type  2   force =     0.00011819   -0.00003097    0.00009457
     atom    7 type  2   force =     0.00056807   -0.00008149   -0.00016660
     atom    8 type  2   force =    -0.00058220   -0.00036460   -0.00027503
     atom    9 type  2   force =     0.00035440   -0.00045119    0.00016720
     atom   10 type  2   force =    -0.00044854    0.00023359   -0.00012843
     atom   11 type  2   force =    -0.00042657    0.00027177    0.00012914
     atom   12 type  2   force =     0.00002449    0.00068697    0.00027546
     atom   13 type  3   force =    -0.00039522    0.00022827    0.00000286
     atom   14 type  3   force =    -0.00030849    0.00025695    0.00026465
     atom   15 type  3   force =    -0.00037630    0.00013808   -0.00026757
     atom   16 type  3   force =    -0.00027958    0.00016152    0.00000264
     atom   17 type  3   force =     0.00091760    0.00021584    0.00005720
     atom   18 type  3   force =     0.00027183   -0.00090235   -0.00005989

     Total force =     0.002352     Total SCF correction =     0.000024


     Computing stress (Cartesian axis) and pressure

          total   stress  (Ry/bohr**3)                   (kbar)     P=        4.62
   0.00003851  -0.00000468   0.00000266            5.67       -0.69        0.39
  -0.00000468   0.00003311   0.00000460           -0.69        4.87        0.68
   0.00000266   0.00000460   0.00002264            0.39        0.68        3.33

     Energy error            =      3.1E-05 Ry
     Gradient error          =      9.2E-04 Ry/Bohr

     number of scf cycles    =   5
     number of bfgs steps    =   4

     energy             old  =   -2728.5364264769 Ry
     energy             new  =   -2728.5364575832 Ry

     CASE: energy            _new < energy            _old

     new trust radius        =       0.0016637375 bohr
     new conv_thr            =            3.1E-11 Ry


ATOMIC_POSITIONS (angstrom)
Co              -1.5436971856        3.4457137393       10.6056015583
Mg              -0.0151089666        1.3652614778        6.4132914793
Mg               3.4758246212        0.5477058811       10.6055627980
Mg               2.5157945095        2.8705760730        6.3505708846
Mg               1.2147906565        3.4955145230        1.9808659050
Mg               1.1766059755        0.5510360948        2.0435857359
Mg               1.2394743269        2.2013246217        9.2259583022
Mg               2.4947703274       -0.0386798749        7.8584494022
Mg               0.9255675491        1.6577174432       11.9851484810
Mg               2.5263036301       -0.1214461903        4.9132890357
Mg               3.7730210299        2.0379372712        3.4808429351
Mg               3.6855749077        2.0238722017        0.5356677393
Ni               1.2571402421        2.0508983191        4.1970824786
Ni               2.4174062044       -0.1889479731       -0.1471669377
Ni               3.7770443294        2.1659985396        8.5413216950
Ni              -0.0044205163       -0.1455764640        4.2723379555
Ni              -0.1047744628       -0.2108790744       -0.1472406511
Ni               0.0019738385       -0.0260122972        8.6919266146



     Writing config-only to output data dir ./outdir/mg2ni_co.save/ :
     XML data file
     NEW-OLD atomic charge density approx. for the potential

     Check: negative core charge=   -0.000003
     Generating pointlists ...

     total cpu time spent up to now is     5283.2 secs

     Self-consistent Calculation

     iteration #  1     ecut=    60.00 Ry     beta= 0.30
     Davidson diagonalization with overlap
     ethr =  1.00E-06,  avg # of iterations =  3.0

     total cpu time spent up to now is     5335.4 secs

     total energy              =   -2728.53631813 Ry
     estimated scf accuracy    <       0.00031064 Ry

     total magnetization       =     2.07 Bohr mag/cell
     absolute magnetization    =     2.84 Bohr mag/cell

     iteration #  2     ecut=    60.00 Ry     beta= 0.30
     Davidson diagonalization with overlap
     ethr =  2.11E-07,  avg # of iterations =  2.9

     total cpu time spent up to now is     5385.3 secs

     total energy              =   -2728.53549432 Ry
     estimated scf accuracy    <       0.04596650 Ry

     total magnetization       =     1.92 Bohr mag/cell
     absolute magnetization    =     2.68 Bohr mag/cell

     iteration #  3     ecut=    60.00 Ry     beta= 0.30
     Davidson diagonalization with overlap
     ethr =  2.11E-07,  avg # of iterations =  2.8

     total cpu time spent up to now is     5435.1 secs

     total energy              =   -2728.53646099 Ry
     estimated scf accuracy    <       0.00001909 Ry

     total magnetization       =     2.06 Bohr mag/cell
     absolute magnetization    =     2.83 Bohr mag/cell

     iteration #  4     ecut=    60.00 Ry     beta= 0.30
     Davidson diagonalization with overlap
     ethr =  1.30E-08,  avg # of iterations =  2.0

     total cpu time spent up to now is     5472.0 secs

     total energy              =   -2728.53646237 Ry
     estimated scf accuracy    <       0.00001368 Ry

     total magnetization       =     2.06 Bohr mag/cell
     absolute magnetization    =     2.83 Bohr mag/cell

     iteration #  5     ecut=    60.00 Ry     beta= 0.30
     Davidson diagonalization with overlap
     ethr =  9.30E-09,  avg # of iterations =  1.0

     total cpu time spent up to now is     5502.4 secs

     total energy              =   -2728.53646311 Ry
     estimated scf accuracy    <       0.00000286 Ry

     total magnetization       =     2.06 Bohr mag/cell
     absolute magnetization    =     2.83 Bohr mag/cell

     iteration #  6     ecut=    60.00 Ry     beta= 0.30
     Davidson diagonalization with overlap
     ethr =  1.95E-09,  avg # of iterations =  1.1

     total cpu time spent up to now is     5533.6 secs

     total energy              =   -2728.53646313 Ry
     estimated scf accuracy    <       0.00000496 Ry

     total magnetization       =     2.06 Bohr mag/cell
     absolute magnetization    =     2.83 Bohr mag/cell

     iteration #  7     ecut=    60.00 Ry     beta= 0.30
     Davidson diagonalization with overlap
     ethr =  1.95E-09,  avg # of iterations =  1.0

     total cpu time spent up to now is     5564.0 secs

     total energy              =   -2728.53646331 Ry
     estimated scf accuracy    <       0.00000110 Ry

     total magnetization       =     2.06 Bohr mag/cell
     absolute magnetization    =     2.83 Bohr mag/cell

     iteration #  8     ecut=    60.00 Ry     beta= 0.30
     Davidson diagonalization with overlap
     ethr =  7.51E-10,  avg # of iterations =  1.0

     total cpu time spent up to now is     5594.3 secs

     total energy              =   -2728.53646336 Ry
     estimated scf accuracy    <       0.00000026 Ry

     total magnetization       =     2.06 Bohr mag/cell
     absolute magnetization    =     2.83 Bohr mag/cell

     iteration #  9     ecut=    60.00 Ry     beta= 0.30
     Davidson diagonalization with overlap
     ethr =  1.74E-10,  avg # of iterations =  1.1

     total cpu time spent up to now is     5626.5 secs

     total energy              =   -2728.53646337 Ry
     estimated scf accuracy    <       0.00000008 Ry

     total magnetization       =     2.06 Bohr mag/cell
     absolute magnetization    =     2.83 Bohr mag/cell

     iteration # 10     ecut=    60.00 Ry     beta= 0.30
     Davidson diagonalization with overlap
     ethr =  5.54E-11,  avg # of iterations =  1.2

     total cpu time spent up to now is     5660.9 secs

     total energy              =   -2728.53646338 Ry
     estimated scf accuracy    <       0.00000002 Ry

     total magnetization       =     2.06 Bohr mag/cell
     absolute magnetization    =     2.83 Bohr mag/cell

     iteration # 11     ecut=    60.00 Ry     beta= 0.30
     Davidson diagonalization with overlap
     ethr =  1.39E-11,  avg # of iterations =  4.8

     total cpu time spent up to now is     5725.4 secs

     total energy              =   -2728.53646338 Ry
     estimated scf accuracy    <       0.00000003 Ry

     total magnetization       =     2.06 Bohr mag/cell
     absolute magnetization    =     2.83 Bohr mag/cell

     iteration # 12     ecut=    60.00 Ry     beta= 0.30
     Davidson diagonalization with overlap
     ethr =  1.39E-11,  avg # of iterations =  2.3

     total cpu time spent up to now is     5767.5 secs

     total energy              =   -2728.53646339 Ry
     estimated scf accuracy    <          1.9E-09 Ry

     total magnetization       =     2.06 Bohr mag/cell
     absolute magnetization    =     2.83 Bohr mag/cell

     iteration # 13     ecut=    60.00 Ry     beta= 0.30
     Davidson diagonalization with overlap
     ethr =  1.29E-12,  avg # of iterations =  3.8

     total cpu time spent up to now is     5834.1 secs

     total energy              =   -2728.53646339 Ry
     estimated scf accuracy    <          4.3E-09 Ry

     total magnetization       =     2.06 Bohr mag/cell
     absolute magnetization    =     2.83 Bohr mag/cell

     iteration # 14     ecut=    60.00 Ry     beta= 0.30
     Davidson diagonalization with overlap
     ethr =  1.29E-12,  avg # of iterations =  1.3

     total cpu time spent up to now is     5869.4 secs

     total energy              =   -2728.53646339 Ry
     estimated scf accuracy    <          8.9E-10 Ry

     total magnetization       =     2.06 Bohr mag/cell
     absolute magnetization    =     2.83 Bohr mag/cell

     iteration # 15     ecut=    60.00 Ry     beta= 0.30
     Davidson diagonalization with overlap
     ethr =  6.04E-13,  avg # of iterations =  1.1

     total cpu time spent up to now is     5901.0 secs

     total energy              =   -2728.53646339 Ry
     estimated scf accuracy    <          5.4E-10 Ry

     total magnetization       =     2.06 Bohr mag/cell
     absolute magnetization    =     2.83 Bohr mag/cell

     iteration # 16     ecut=    60.00 Ry     beta= 0.30
     Davidson diagonalization with overlap
     ethr =  3.66E-13,  avg # of iterations =  2.1

     total cpu time spent up to now is     5940.6 secs

     total energy              =   -2728.53646339 Ry
     estimated scf accuracy    <       0.00000001 Ry

     total magnetization       =     2.06 Bohr mag/cell
     absolute magnetization    =     2.83 Bohr mag/cell

     iteration # 17     ecut=    60.00 Ry     beta= 0.30
     Davidson diagonalization with overlap
     ethr =  3.66E-13,  avg # of iterations =  2.0

     total cpu time spent up to now is     5977.4 secs

     total energy              =   -2728.53646339 Ry
     estimated scf accuracy    <          3.5E-10 Ry

     total magnetization       =     2.06 Bohr mag/cell
     absolute magnetization    =     2.83 Bohr mag/cell

     iteration # 18     ecut=    60.00 Ry     beta= 0.30
     Davidson diagonalization with overlap
     ethr =  2.41E-13,  avg # of iterations =  1.0

     total cpu time spent up to now is     6007.9 secs

     total energy              =   -2728.53646339 Ry
     estimated scf accuracy    <          1.2E-10 Ry

     total magnetization       =     2.06 Bohr mag/cell
     absolute magnetization    =     2.83 Bohr mag/cell

     iteration # 19     ecut=    60.00 Ry     beta= 0.30
     Davidson diagonalization with overlap
     ethr =  1.00E-13,  avg # of iterations =  2.1

     total cpu time spent up to now is     6046.4 secs

     total energy              =   -2728.53646339 Ry
     estimated scf accuracy    <          1.4E-10 Ry

     total magnetization       =     2.06 Bohr mag/cell
     absolute magnetization    =     2.83 Bohr mag/cell

     iteration # 20     ecut=    60.00 Ry     beta= 0.30
     Davidson diagonalization with overlap
     ethr =  1.00E-13,  avg # of iterations =  1.0
 
     Magnetic moment per site  (integrated on atomic sphere of radius R)
     atom   1 (R=0.194)  charge= 15.2528  magn=  1.5833
     atom   2 (R=0.212)  charge=  0.6229  magn= -0.0030
     atom   3 (R=0.212)  charge=  0.6223  magn= -0.0145
     atom   4 (R=0.212)  charge=  0.6266  magn= -0.0020
     atom   5 (R=0.212)  charge=  0.6229  magn= -0.0030
     atom   6 (R=0.212)  charge=  0.6266  magn= -0.0020
     atom   7 (R=0.212)  charge=  0.6348  magn= -0.0076
     atom   8 (R=0.212)  charge=  0.6239  magn= -0.0032
     atom   9 (R=0.212)  charge=  0.6348  magn= -0.0076
     atom  10 (R=0.212)  charge=  0.6347  magn=  0.0027
     atom  11 (R=0.212)  charge=  0.6347  magn=  0.0027
     atom  12 (R=0.212)  charge=  0.6240  magn= -0.0032
     atom  13 (R=0.194)  charge= 16.4794  magn=  0.0301
     atom  14 (R=0.194)  charge= 16.4836  magn=  0.1729
     atom  15 (R=0.194)  charge= 16.4836  magn=  0.1729
     atom  16 (R=0.194)  charge= 16.4976  magn= -0.0359
     atom  17 (R=0.194)  charge= 16.4859  magn=  0.1744
     atom  18 (R=0.194)  charge= 16.4859  magn=  0.1744

     total cpu time spent up to now is     6076.8 secs

     End of self-consistent calculation

     Number of k-points >= 100: set verbosity='high' to print the bands.

     the Fermi energy is     8.0254 ev

!    total energy              =   -2728.53646339 Ry
     estimated scf accuracy    <          2.0E-11 Ry
     smearing contrib. (-TS)   =       0.00060105 Ry
     internal energy E=F+TS    =   -2728.53706443 Ry

     The total energy is F=E-TS. E is the sum of the following terms:
     one-electron contribution =   -2545.73608610 Ry
     hartree contribution      =    1321.79409741 Ry
     xc contribution           =    -264.42535673 Ry
     ewald contribution        =    -895.26668867 Ry
     DFT-D3 Dispersion         =      -0.45148866 Ry
     one-center paw contrib.   =    -344.45154169 Ry

     total magnetization       =     2.06 Bohr mag/cell
     absolute magnetization    =     2.83 Bohr mag/cell

     convergence has been achieved in  20 iterations

     Forces acting on atoms (cartesian axes, Ry/au):

     atom    1 type  1   force =     0.00026341   -0.00015193    0.00000235
     atom    2 type  2   force =    -0.00000096   -0.00014666   -0.00037962
     atom    3 type  2   force =     0.00002182   -0.00001264   -0.00000073
     atom    4 type  2   force =     0.00009334   -0.00005689   -0.00008785
     atom    5 type  2   force =     0.00012675    0.00007423    0.00037999
     atom    6 type  2   force =     0.00009573   -0.00005222    0.00008812
     atom    7 type  2   force =     0.00050298   -0.00008279    0.00001524
     atom    8 type  2   force =    -0.00050658   -0.00040144   -0.00023240
     atom    9 type  2   force =     0.00032301   -0.00039418   -0.00001580
     atom   10 type  2   force =    -0.00044224    0.00021657   -0.00012902
     atom   11 type  2   force =    -0.00040865    0.00027486    0.00012907
     atom   12 type  2   force =     0.00009423    0.00063986    0.00023192
     atom   13 type  3   force =    -0.00036751    0.00021216   -0.00000168
     atom   14 type  3   force =    -0.00035972    0.00030971    0.00021782
     atom   15 type  3   force =    -0.00044749    0.00015591   -0.00021673
     atom   16 type  3   force =    -0.00025690    0.00014829   -0.00000205
     atom   17 type  3   force =     0.00092343    0.00013334    0.00004308
     atom   18 type  3   force =     0.00034535   -0.00086616   -0.00004172

     Total force =     0.002237     Total SCF correction =     0.000014


     Computing stress (Cartesian axis) and pressure

          total   stress  (Ry/bohr**3)                   (kbar)     P=        4.61
   0.00003855  -0.00000465   0.00000268            5.67       -0.68        0.39
  -0.00000465   0.00003319   0.00000464           -0.68        4.88        0.68
   0.00000268   0.00000464   0.00002231            0.39        0.68        3.28

     Energy error            =      5.8E-06 Ry
     Gradient error          =      9.2E-04 Ry/Bohr

     number of scf cycles    =   6
     number of bfgs steps    =   5

     energy             old  =   -2728.5364575832 Ry
     energy             new  =   -2728.5364633871 Ry

     CASE: energy            _new < energy            _old

     new trust radius        =       0.0018301112 bohr
     new conv_thr            =            1.0E-11 Ry


ATOMIC_POSITIONS (angstrom)
Co              -1.5429862541        3.4453031050       10.6056019864
Mg              -0.0149582601        1.3651248812        6.4127752562
Mg               3.4756721531        0.5477935619       10.6055623073
Mg               2.5157897387        2.8703362858        6.3503033952
Mg               1.2149844823        3.4954523818        1.9813828119
Mg               1.1768110224        0.5511603698        2.0438538165
Mg               1.2399851484        2.2010383442        9.2251869345
Mg               2.4940914562       -0.0390175906        7.8579907064
Mg               0.9260705408        1.6574182572       11.9859195340
Mg               2.5257258623       -0.1210746474        4.9131292252
Mg               3.7724103976        2.0382520477        3.4810028958
Mg               3.6855277440        2.0246295511        0.5361263053
Ni               1.2564993473        2.0512683409        4.1970824998
Ni               2.4177985913       -0.1888729105       -0.1466762968
Ni               3.7771762058        2.1656206721        8.5408307213
Ni              -0.0049504078       -0.1452704965        4.2723375302
Ni              -0.1041804102       -0.2103632829       -0.1470737931
Ni               0.0018236591       -0.0267845595        8.6917595751



     Writing config-only to output data dir ./outdir/mg2ni_co.save/ :
     XML data file
     NEW-OLD atomic charge density approx. for the potential

     Check: negative core charge=   -0.000003
     Generating pointlists ...

     total cpu time spent up to now is     6103.7 secs

     Self-consistent Calculation

     iteration #  1     ecut=    60.00 Ry     beta= 0.30
     Davidson diagonalization with overlap
     ethr =  1.00E-06,  avg # of iterations =  3.0

     total cpu time spent up to now is     6158.4 secs

     total energy              =   -2728.53629712 Ry
     estimated scf accuracy    <       0.00037534 Ry

     total magnetization       =     2.07 Bohr mag/cell
     absolute magnetization    =     2.84 Bohr mag/cell

     iteration #  2     ecut=    60.00 Ry     beta= 0.30
     Davidson diagonalization with overlap
     ethr =  2.55E-07,  avg # of iterations =  3.0

     total cpu time spent up to now is     6209.7 secs

     total energy              =   -2728.53530713 Ry
     estimated scf accuracy    <       0.05517757 Ry

     total magnetization       =     1.91 Bohr mag/cell
     absolute magnetization    =     2.67 Bohr mag/cell

     iteration #  3     ecut=    60.00 Ry     beta= 0.30
     Davidson diagonalization with overlap
     ethr =  2.55E-07,  avg # of iterations =  2.9

     total cpu time spent up to now is     6261.0 secs

     total energy              =   -2728.53646870 Ry
     estimated scf accuracy    <       0.00002096 Ry

     total magnetization       =     2.06 Bohr mag/cell
     absolute magnetization    =     2.83 Bohr mag/cell

     iteration #  4     ecut=    60.00 Ry     beta= 0.30
     Davidson diagonalization with overlap
     ethr =  1.43E-08,  avg # of iterations =  2.0

     total cpu time spent up to now is     6298.0 secs

     total energy              =   -2728.53647056 Ry
     estimated scf accuracy    <       0.00000873 Ry

     total magnetization       =     2.06 Bohr mag/cell
     absolute magnetization    =     2.83 Bohr mag/cell

     iteration #  5     ecut=    60.00 Ry     beta= 0.30
     Davidson diagonalization with overlap
     ethr =  5.94E-09,  avg # of iterations =  1.4

     total cpu time spent up to now is     6333.9 secs

     total energy              =   -2728.53647117 Ry
     estimated scf accuracy    <       0.00000335 Ry

     total magnetization       =     2.06 Bohr mag/cell
     absolute magnetization    =     2.83 Bohr mag/cell

     iteration #  6     ecut=    60.00 Ry     beta= 0.30
     Davidson diagonalization with overlap
     ethr =  2.28E-09,  avg # of iterations =  1.1

     total cpu time spent up to now is     6366.4 secs

     total energy              =   -2728.53647125 Ry
     estimated scf accuracy    <       0.00000281 Ry

     total magnetization       =     2.06 Bohr mag/cell
     absolute magnetization    =     2.83 Bohr mag/cell

     iteration #  7     ecut=    60.00 Ry     beta= 0.30
     Davidson diagonalization with overlap
     ethr =  1.91E-09,  avg # of iterations =  1.0

     total cpu time spent up to now is     6396.8 secs

     total energy              =   -2728.53647136 Ry
     estimated scf accuracy    <       0.00000172 Ry

     total magnetization       =     2.06 Bohr mag/cell
     absolute magnetization    =     2.83 Bohr mag/cell

     iteration #  8     ecut=    60.00 Ry     beta= 0.30
     Davidson diagonalization with overlap
     ethr =  1.17E-09,  avg # of iterations =  1.0

     total cpu time spent up to now is     6427.1 secs

     total energy              =   -2728.53647141 Ry
     estimated scf accuracy    <       0.00000068 Ry

     total magnetization       =     2.06 Bohr mag/cell
     absolute magnetization    =     2.83 Bohr mag/cell

     iteration #  9     ecut=    60.00 Ry     beta= 0.30
     Davidson diagonalization with overlap
     ethr =  4.59E-10,  avg # of iterations =  1.0

     total cpu time spent up to now is     6457.5 secs

     total energy              =   -2728.53647145 Ry
     estimated scf accuracy    <       0.00000022 Ry

     total magnetization       =     2.06 Bohr mag/cell
     absolute magnetization    =     2.83 Bohr mag/cell

     iteration # 10     ecut=    60.00 Ry     beta= 0.30
     Davidson diagonalization with overlap
     ethr =  1.51E-10,  avg # of iterations =  1.0

     total cpu time spent up to now is     6488.0 secs

     total energy              =   -2728.53647146 Ry
     estimated scf accuracy    <       0.00000003 Ry

     total magnetization       =     2.06 Bohr mag/cell
     absolute magnetization    =     2.83 Bohr mag/cell

     iteration # 11     ecut=    60.00 Ry     beta= 0.30
     Davidson diagonalization with overlap
     ethr =  1.77E-11,  avg # of iterations =  4.6

     total cpu time spent up to now is     6552.1 secs

     total energy              =   -2728.53647147 Ry
     estimated scf accuracy    <       0.00000005 Ry

     total magnetization       =     2.06 Bohr mag/cell
     absolute magnetization    =     2.83 Bohr mag/cell

     iteration # 12     ecut=    60.00 Ry     beta= 0.30
     Davidson diagonalization with overlap
     ethr =  1.77E-11,  avg # of iterations =  2.2

     total cpu time spent up to now is     6591.3 secs

     total energy              =   -2728.53647147 Ry
     estimated scf accuracy    <          1.7E-09 Ry

     total magnetization       =     2.06 Bohr mag/cell
     absolute magnetization    =     2.83 Bohr mag/cell

     iteration # 13     ecut=    60.00 Ry     beta= 0.30
     Davidson diagonalization with overlap
     ethr =  1.18E-12,  avg # of iterations =  2.5

     total cpu time spent up to now is     6636.9 secs

     total energy              =   -2728.53647147 Ry
     estimated scf accuracy    <          4.7E-09 Ry

     total magnetization       =     2.06 Bohr mag/cell
     absolute magnetization    =     2.83 Bohr mag/cell

     iteration # 14     ecut=    60.00 Ry     beta= 0.30
     Davidson diagonalization with overlap
     ethr =  1.18E-12,  avg # of iterations =  1.9

     total cpu time spent up to now is     6676.4 secs

     total energy              =   -2728.53647147 Ry
     estimated scf accuracy    <          8.8E-10 Ry

     total magnetization       =     2.06 Bohr mag/cell
     absolute magnetization    =     2.83 Bohr mag/cell

     iteration # 15     ecut=    60.00 Ry     beta= 0.30
     Davidson diagonalization with overlap
     ethr =  5.96E-13,  avg # of iterations =  1.3

     total cpu time spent up to now is     6711.0 secs

     total energy              =   -2728.53647147 Ry
     estimated scf accuracy    <          6.0E-10 Ry

     total magnetization       =     2.06 Bohr mag/cell
     absolute magnetization    =     2.83 Bohr mag/cell

     iteration # 16     ecut=    60.00 Ry     beta= 0.30
     Davidson diagonalization with overlap
     ethr =  4.07E-13,  avg # of iterations =  2.5

     total cpu time spent up to now is     6757.8 secs

     total energy              =   -2728.53647147 Ry
     estimated scf accuracy    <       0.00000004 Ry

     total magnetization       =     2.06 Bohr mag/cell
     absolute magnetization    =     2.83 Bohr mag/cell

     iteration # 17     ecut=    60.00 Ry     beta= 0.30
     Davidson diagonalization with overlap
     ethr =  4.07E-13,  avg # of iterations =  2.2

     total cpu time spent up to now is     6798.8 secs

     total energy              =   -2728.53647147 Ry
     estimated scf accuracy    <          2.5E-10 Ry

     total magnetization       =     2.06 Bohr mag/cell
     absolute magnetization    =     2.83 Bohr mag/cell

     iteration # 18     ecut=    60.00 Ry     beta= 0.30
     Davidson diagonalization with overlap
     ethr =  1.73E-13,  avg # of iterations =  1.0

     total cpu time spent up to now is     6829.4 secs

     total energy              =   -2728.53647147 Ry
     estimated scf accuracy    <          1.1E-10 Ry

     total magnetization       =     2.06 Bohr mag/cell
     absolute magnetization    =     2.83 Bohr mag/cell

     iteration # 19     ecut=    60.00 Ry     beta= 0.30
     Davidson diagonalization with overlap
     ethr =  1.00E-13,  avg # of iterations =  1.6

     total cpu time spent up to now is     6864.2 secs

     total energy              =   -2728.53647147 Ry
     estimated scf accuracy    <          1.8E-10 Ry

     total magnetization       =     2.06 Bohr mag/cell
     absolute magnetization    =     2.83 Bohr mag/cell

     iteration # 20     ecut=    60.00 Ry     beta= 0.30
     Davidson diagonalization with overlap
     ethr =  1.00E-13,  avg # of iterations =  1.0

     total cpu time spent up to now is     6894.9 secs

     total energy              =   -2728.53647147 Ry
     estimated scf accuracy    <          4.8E-11 Ry

     total magnetization       =     2.06 Bohr mag/cell
     absolute magnetization    =     2.83 Bohr mag/cell

     iteration # 21     ecut=    60.00 Ry     beta= 0.30
     Davidson diagonalization with overlap
     ethr =  1.00E-13,  avg # of iterations =  1.0

     total cpu time spent up to now is     6925.3 secs

     total energy              =   -2728.53647147 Ry
     estimated scf accuracy    <          5.0E-11 Ry

     total magnetization       =     2.06 Bohr mag/cell
     absolute magnetization    =     2.83 Bohr mag/cell

     iteration # 22     ecut=    60.00 Ry     beta= 0.30
     Davidson diagonalization with overlap
     ethr =  1.00E-13,  avg # of iterations =  1.0

     total cpu time spent up to now is     6955.7 secs

     total energy              =   -2728.53647147 Ry
     estimated scf accuracy    <          1.1E-11 Ry

     total magnetization       =     2.06 Bohr mag/cell
     absolute magnetization    =     2.83 Bohr mag/cell

     iteration # 23     ecut=    60.00 Ry     beta= 0.30
     Davidson diagonalization with overlap
     ethr =  1.00E-13,  avg # of iterations =  1.0

     total cpu time spent up to now is     6986.1 secs

     total energy              =   -2728.53647147 Ry
     estimated scf accuracy    <          2.1E-11 Ry

     total magnetization       =     2.06 Bohr mag/cell
     absolute magnetization    =     2.83 Bohr mag/cell

     iteration # 24     ecut=    60.00 Ry     beta= 0.30
     Davidson diagonalization with overlap
     ethr =  1.00E-13,  avg # of iterations =  1.0
 
     Magnetic moment per site  (integrated on atomic sphere of radius R)
     atom   1 (R=0.194)  charge= 15.2526  magn=  1.5838
     atom   2 (R=0.212)  charge=  0.6230  magn= -0.0030
     atom   3 (R=0.212)  charge=  0.6222  magn= -0.0145
     atom   4 (R=0.212)  charge=  0.6267  magn= -0.0020
     atom   5 (R=0.212)  charge=  0.6230  magn= -0.0030
     atom   6 (R=0.212)  charge=  0.6267  magn= -0.0020
     atom   7 (R=0.212)  charge=  0.6347  magn= -0.0076
     atom   8 (R=0.212)  charge=  0.6239  magn= -0.0032
     atom   9 (R=0.212)  charge=  0.6347  magn= -0.0076
     atom  10 (R=0.212)  charge=  0.6348  magn=  0.0027
     atom  11 (R=0.212)  charge=  0.6348  magn=  0.0027
     atom  12 (R=0.212)  charge=  0.6239  magn= -0.0032
     atom  13 (R=0.194)  charge= 16.4795  magn=  0.0300
     atom  14 (R=0.194)  charge= 16.4836  magn=  0.1728
     atom  15 (R=0.194)  charge= 16.4836  magn=  0.1728
     atom  16 (R=0.194)  charge= 16.4977  magn= -0.0359
     atom  17 (R=0.194)  charge= 16.4858  magn=  0.1744
     atom  18 (R=0.194)  charge= 16.4858  magn=  0.1744

     total cpu time spent up to now is     7016.5 secs

     End of self-consistent calculation

     Number of k-points >= 100: set verbosity='high' to print the bands.

     the Fermi energy is     8.0253 ev

!    total energy              =   -2728.53647147 Ry
     estimated scf accuracy    <          1.3E-12 Ry
     smearing contrib. (-TS)   =       0.00060167 Ry
     internal energy E=F+TS    =   -2728.53707314 Ry

     The total energy is F=E-TS. E is the sum of the following terms:
     one-electron contribution =   -2545.47641989 Ry
     hartree contribution      =    1321.66420393 Ry
     xc contribution           =    -264.42537180 Ry
     ewald contribution        =    -895.39642347 Ry
     DFT-D3 Dispersion         =      -0.45148713 Ry
     one-center paw contrib.   =    -344.45157478 Ry

     total magnetization       =     2.06 Bohr mag/cell
     absolute magnetization    =     2.83 Bohr mag/cell

     convergence has been achieved in  24 iterations

     Forces acting on atoms (cartesian axes, Ry/au):

     atom    1 type  1   force =     0.00019871   -0.00011468    0.00000162
     atom    2 type  2   force =    -0.00007134   -0.00015489   -0.00026889
     atom    3 type  2   force =     0.00012013   -0.00006940   -0.00000047
     atom    4 type  2   force =     0.00007605   -0.00003486   -0.00009889
     atom    5 type  2   force =     0.00009859    0.00013934    0.00026915
     atom    6 type  2   force =     0.00006806   -0.00004830    0.00009910
     atom    7 type  2   force =     0.00034389   -0.00011547    0.00018197
     atom    8 type  2   force =    -0.00035487   -0.00041530   -0.00017345
     atom    9 type  2   force =     0.00027175   -0.00024002   -0.00018231
     atom   10 type  2   force =    -0.00041323    0.00019451   -0.00012176
     atom   11 type  2   force =    -0.00037505    0.00026074    0.00012196
     atom   12 type  2   force =     0.00018209    0.00051519    0.00017310
     atom   13 type  3   force =    -0.00032816    0.00018944   -0.00000147
     atom   14 type  3   force =    -0.00028281    0.00033190    0.00015857
     atom   15 type  3   force =    -0.00042846    0.00007847   -0.00015763
     atom   16 type  3   force =    -0.00024103    0.00013914   -0.00000165
     atom   17 type  3   force =     0.00078119    0.00004114    0.00003535
     atom   18 type  3   force =     0.00035451   -0.00069697   -0.00003428

     Total force =     0.001902     Total SCF correction =     0.000004


     Computing stress (Cartesian axis) and pressure

          total   stress  (Ry/bohr**3)                   (kbar)     P=        4.61
   0.00003861  -0.00000462   0.00000268            5.68       -0.68        0.39
  -0.00000462   0.00003328   0.00000463           -0.68        4.90        0.68
   0.00000268   0.00000463   0.00002202            0.39        0.68        3.24

     Energy error            =      8.1E-06 Ry
     Gradient error          =      7.8E-04 Ry/Bohr

     number of scf cycles    =   7
     number of bfgs steps    =   6

     energy             old  =   -2728.5364633870 Ry
     energy             new  =   -2728.5364714709 Ry

     CASE: energy            _new < energy            _old

     new trust radius        =       0.0027451668 bohr
     new conv_thr            =            1.0E-11 Ry


ATOMIC_POSITIONS (angstrom)
Co              -1.5419383989        3.4446977272       10.6056014691
Mg              -0.0148220062        1.3648482814        6.4119646604
Mg               3.4755720389        0.5478508206       10.6055617435
Mg               2.5158210732        2.8700011765        6.3498822314
Mg               1.2152923950        3.4954728646        1.9821946287
Mg               1.1771165328        0.5513011706        2.0442760688
Mg               1.2408149426        2.2005743197        9.2243142024
Mg               2.4930269835       -0.0397178284        7.8572943465
Mg               0.9268867022        1.6569317995       11.9867920908
Mg               2.5247192665       -0.1204698434        4.9128463550
Mg               3.7713833490        2.0388216846        3.4812863616
Mg               3.6856015766        2.0259023349        0.5368226160
Ni               1.2554621316        2.0518671965        4.1970830066
Ni               2.4181895797       -0.1885704372       -0.1459464415
Ni               3.7771107854        2.1651299993        8.5400997515
Ni              -0.0057968446       -0.1447817199        4.2723374650
Ni              -0.1029806140       -0.2096802913       -0.1468316864
Ni               0.0018315236       -0.0281649439        8.6915165420



     Writing config-only to output data dir ./outdir/mg2ni_co.save/ :
     XML data file
     NEW-OLD atomic charge density approx. for the potential

     Check: negative core charge=   -0.000003
     Generating pointlists ...

     total cpu time spent up to now is     7043.3 secs

     Self-consistent Calculation

     iteration #  1     ecut=    60.00 Ry     beta= 0.30
     Davidson diagonalization with overlap
     ethr =  1.00E-06,  avg # of iterations =  3.0

     total cpu time spent up to now is     7103.3 secs

     total energy              =   -2728.53614287 Ry
     estimated scf accuracy    <       0.00073412 Ry

     total magnetization       =     2.08 Bohr mag/cell
     absolute magnetization    =     2.85 Bohr mag/cell

     iteration #  2     ecut=    60.00 Ry     beta= 0.30
     Davidson diagonalization with overlap
     ethr =  4.99E-07,  avg # of iterations =  3.3

     total cpu time spent up to now is     7159.1 secs

     total energy              =   -2728.53423983 Ry
     estimated scf accuracy    <       0.10568187 Ry

     total magnetization       =     1.85 Bohr mag/cell
     absolute magnetization    =     2.62 Bohr mag/cell

     iteration #  3     ecut=    60.00 Ry     beta= 0.30
     Davidson diagonalization with overlap
     ethr =  4.99E-07,  avg # of iterations =  3.3

     total cpu time spent up to now is     7215.3 secs

     total energy              =   -2728.53647395 Ry
     estimated scf accuracy    <       0.00006062 Ry

     total magnetization       =     2.06 Bohr mag/cell
     absolute magnetization    =     2.83 Bohr mag/cell

     iteration #  4     ecut=    60.00 Ry     beta= 0.30
     Davidson diagonalization with overlap
     ethr =  4.12E-08,  avg # of iterations =  1.9

     total cpu time spent up to now is     7253.2 secs

     total energy              =   -2728.53647822 Ry
     estimated scf accuracy    <       0.00004218 Ry

     total magnetization       =     2.06 Bohr mag/cell
     absolute magnetization    =     2.83 Bohr mag/cell

     iteration #  5     ecut=    60.00 Ry     beta= 0.30
     Davidson diagonalization with overlap
     ethr =  2.87E-08,  avg # of iterations =  1.0

     total cpu time spent up to now is     7283.9 secs

     total energy              =   -2728.53648069 Ry
     estimated scf accuracy    <       0.00000952 Ry

     total magnetization       =     2.06 Bohr mag/cell
     absolute magnetization    =     2.83 Bohr mag/cell

     iteration #  6     ecut=    60.00 Ry     beta= 0.30
     Davidson diagonalization with overlap
     ethr =  6.48E-09,  avg # of iterations =  1.5

     total cpu time spent up to now is     7320.6 secs

     total energy              =   -2728.53648104 Ry
     estimated scf accuracy    <       0.00000611 Ry

     total magnetization       =     2.06 Bohr mag/cell
     absolute magnetization    =     2.83 Bohr mag/cell

     iteration #  7     ecut=    60.00 Ry     beta= 0.30
     Davidson diagonalization with overlap
     ethr =  4.16E-09,  avg # of iterations =  1.0

     total cpu time spent up to now is     7351.2 secs

     total energy              =   -2728.53648139 Ry
     estimated scf accuracy    <       0.00000166 Ry

     total magnetization       =     2.06 Bohr mag/cell
     absolute magnetization    =     2.83 Bohr mag/cell

     iteration #  8     ecut=    60.00 Ry     beta= 0.30
     Davidson diagonalization with overlap
     ethr =  1.13E-09,  avg # of iterations =  1.1

     total cpu time spent up to now is     7382.4 secs

     total energy              =   -2728.53648151 Ry
     estimated scf accuracy    <       0.00000023 Ry

     total magnetization       =     2.06 Bohr mag/cell
     absolute magnetization    =     2.83 Bohr mag/cell

     iteration #  9     ecut=    60.00 Ry     beta= 0.30
     Davidson diagonalization with overlap
     ethr =  1.57E-10,  avg # of iterations =  2.6

     total cpu time spent up to now is     7426.7 secs

     total energy              =   -2728.53648148 Ry
     estimated scf accuracy    <       0.00000115 Ry

     total magnetization       =     2.06 Bohr mag/cell
     absolute magnetization    =     2.83 Bohr mag/cell

     iteration # 10     ecut=    60.00 Ry     beta= 0.30
     Davidson diagonalization with overlap
     ethr =  1.57E-10,  avg # of iterations =  1.4

     total cpu time spent up to now is     7461.8 secs

     total energy              =   -2728.53648153 Ry
     estimated scf accuracy    <       0.00000013 Ry

     total magnetization       =     2.06 Bohr mag/cell
     absolute magnetization    =     2.83 Bohr mag/cell

     iteration # 11     ecut=    60.00 Ry     beta= 0.30
     Davidson diagonalization with overlap
     ethr =  8.81E-11,  avg # of iterations =  2.2

     total cpu time spent up to now is     7501.1 secs

     total energy              =   -2728.53648154 Ry
     estimated scf accuracy    <       0.00000018 Ry

     total magnetization       =     2.06 Bohr mag/cell
     absolute magnetization    =     2.83 Bohr mag/cell

     iteration # 12     ecut=    60.00 Ry     beta= 0.30
     Davidson diagonalization with overlap
     ethr =  8.81E-11,  avg # of iterations =  1.9

     total cpu time spent up to now is     7540.9 secs

     total energy              =   -2728.53648155 Ry
     estimated scf accuracy    <          2.5E-09 Ry

     total magnetization       =     2.06 Bohr mag/cell
     absolute magnetization    =     2.83 Bohr mag/cell

     iteration # 13     ecut=    60.00 Ry     beta= 0.30
     Davidson diagonalization with overlap
     ethr =  1.71E-12,  avg # of iterations =  4.9

     total cpu time spent up to now is     7627.1 secs

     total energy              =   -2728.53648156 Ry
     estimated scf accuracy    <          3.2E-09 Ry

     total magnetization       =     2.06 Bohr mag/cell
     absolute magnetization    =     2.83 Bohr mag/cell

     iteration # 14     ecut=    60.00 Ry     beta= 0.30
     Davidson diagonalization with overlap
     ethr =  1.71E-12,  avg # of iterations =  1.2

     total cpu time spent up to now is     7659.9 secs

     total energy              =   -2728.53648156 Ry
     estimated scf accuracy    <          2.2E-09 Ry

     total magnetization       =     2.06 Bohr mag/cell
     absolute magnetization    =     2.83 Bohr mag/cell

     iteration # 15     ecut=    60.00 Ry     beta= 0.30
     Davidson diagonalization with overlap
     ethr =  1.46E-12,  avg # of iterations =  1.3

     total cpu time spent up to now is     7694.8 secs

     total energy              =   -2728.53648156 Ry
     estimated scf accuracy    <          1.7E-09 Ry

     total magnetization       =     2.06 Bohr mag/cell
     absolute magnetization    =     2.83 Bohr mag/cell

     iteration # 16     ecut=    60.00 Ry     beta= 0.30
     Davidson diagonalization with overlap
     ethr =  1.13E-12,  avg # of iterations =  1.7

     total cpu time spent up to now is     7733.0 secs

     total energy              =   -2728.53648156 Ry
     estimated scf accuracy    <       0.00000002 Ry

     total magnetization       =     2.06 Bohr mag/cell
     absolute magnetization    =     2.83 Bohr mag/cell

     iteration # 17     ecut=    60.00 Ry     beta= 0.30
     Davidson diagonalization with overlap
     ethr =  1.13E-12,  avg # of iterations =  1.3

     total cpu time spent up to now is     7767.5 secs

     total energy              =   -2728.53648156 Ry
     estimated scf accuracy    <          3.4E-10 Ry

     total magnetization       =     2.06 Bohr mag/cell
     absolute magnetization    =     2.83 Bohr mag/cell

     iteration # 18     ecut=    60.00 Ry     beta= 0.30
     Davidson diagonalization with overlap
     ethr =  2.31E-13,  avg # of iterations =  1.4

     total cpu time spent up to now is     7802.5 secs

     total energy              =   -2728.53648156 Ry
     estimated scf accuracy    <          1.2E-10 Ry

     total magnetization       =     2.06 Bohr mag/cell
     absolute magnetization    =     2.83 Bohr mag/cell

     iteration # 19     ecut=    60.00 Ry     beta= 0.30
     Davidson diagonalization with overlap
     ethr =  1.00E-13,  avg # of iterations =  1.6

     total cpu time spent up to now is     7837.6 secs

     total energy              =   -2728.53648156 Ry
     estimated scf accuracy    <          2.3E-10 Ry

     total magnetization       =     2.06 Bohr mag/cell
     absolute magnetization    =     2.83 Bohr mag/cell

     iteration # 20     ecut=    60.00 Ry     beta= 0.30
     Davidson diagonalization with overlap
     ethr =  1.00E-13,  avg # of iterations =  1.4

     total cpu time spent up to now is     7872.9 secs

     total energy              =   -2728.53648156 Ry
     estimated scf accuracy    <          2.9E-11 Ry

     total magnetization       =     2.06 Bohr mag/cell
     absolute magnetization    =     2.83 Bohr mag/cell

     iteration # 21     ecut=    60.00 Ry     beta= 0.30
     Davidson diagonalization with overlap
     ethr =  1.00E-13,  avg # of iterations =  1.0
 
     Magnetic moment per site  (integrated on atomic sphere of radius R)
     atom   1 (R=0.194)  charge= 15.2524  magn=  1.5843
     atom   2 (R=0.212)  charge=  0.6232  magn= -0.0030
     atom   3 (R=0.212)  charge=  0.6219  magn= -0.0145
     atom   4 (R=0.212)  charge=  0.6268  magn= -0.0020
     atom   5 (R=0.212)  charge=  0.6232  magn= -0.0030
     atom   6 (R=0.212)  charge=  0.6268  magn= -0.0020
     atom   7 (R=0.212)  charge=  0.6346  magn= -0.0076
     atom   8 (R=0.212)  charge=  0.6239  magn= -0.0032
     atom   9 (R=0.212)  charge=  0.6346  magn= -0.0076
     atom  10 (R=0.212)  charge=  0.6349  magn=  0.0027
     atom  11 (R=0.212)  charge=  0.6349  magn=  0.0027
     atom  12 (R=0.212)  charge=  0.6239  magn= -0.0032
     atom  13 (R=0.194)  charge= 16.4797  magn=  0.0298
     atom  14 (R=0.194)  charge= 16.4835  magn=  0.1727
     atom  15 (R=0.194)  charge= 16.4835  magn=  0.1727
     atom  16 (R=0.194)  charge= 16.4979  magn= -0.0358
     atom  17 (R=0.194)  charge= 16.4857  magn=  0.1743
     atom  18 (R=0.194)  charge= 16.4857  magn=  0.1743

     total cpu time spent up to now is     7903.3 secs

     End of self-consistent calculation

     Number of k-points >= 100: set verbosity='high' to print the bands.

     the Fermi energy is     8.0251 ev

!    total energy              =   -2728.53648156 Ry
     estimated scf accuracy    <          6.9E-12 Ry
     smearing contrib. (-TS)   =       0.00060234 Ry
     internal energy E=F+TS    =   -2728.53708390 Ry

     The total energy is F=E-TS. E is the sum of the following terms:
     one-electron contribution =   -2545.12895736 Ry
     hartree contribution      =    1321.49044764 Ry
     xc contribution           =    -264.42541780 Ry
     ewald contribution        =    -895.57006148 Ry
     DFT-D3 Dispersion         =      -0.45148509 Ry
     one-center paw contrib.   =    -344.45160981 Ry

     total magnetization       =     2.06 Bohr mag/cell
     absolute magnetization    =     2.83 Bohr mag/cell

     convergence has been achieved in  21 iterations

     Forces acting on atoms (cartesian axes, Ry/au):

     atom    1 type  1   force =     0.00013087   -0.00007546    0.00000098
     atom    2 type  2   force =    -0.00016781   -0.00015393   -0.00007204
     atom    3 type  2   force =     0.00026168   -0.00015105   -0.00000028
     atom    4 type  2   force =     0.00002419   -0.00001891   -0.00012370
     atom    5 type  2   force =     0.00004941    0.00022252    0.00007199
     atom    6 type  2   force =     0.00002844   -0.00001134    0.00012368
     atom    7 type  2   force =     0.00005454   -0.00018518    0.00035337
     atom    8 type  2   force =    -0.00008642   -0.00040231   -0.00008013
     atom    9 type  2   force =     0.00018748    0.00004553   -0.00035361
     atom   10 type  2   force =    -0.00034893    0.00016023   -0.00010197
     atom   11 type  2   force =    -0.00031318    0.00022224    0.00010220
     atom   12 type  2   force =     0.00030509    0.00027599    0.00007981
     atom   13 type  3   force =    -0.00028046    0.00016194   -0.00000120
     atom   14 type  3   force =    -0.00005279    0.00031943    0.00007361
     atom   15 type  3   force =    -0.00030269   -0.00011420   -0.00007242
     atom   16 type  3   force =    -0.00023697    0.00013687   -0.00000124
     atom   17 type  3   force =     0.00046504   -0.00005782    0.00003053
     atom   18 type  3   force =     0.00028250   -0.00037454   -0.00002956

     Total force =     0.001447     Total SCF correction =     0.000007


     Computing stress (Cartesian axis) and pressure

          total   stress  (Ry/bohr**3)                   (kbar)     P=        4.60
   0.00003870  -0.00000459   0.00000264            5.69       -0.67        0.39
  -0.00000459   0.00003341   0.00000456           -0.67        4.91        0.67
   0.00000264   0.00000456   0.00002173            0.39        0.67        3.20

     Energy error            =      1.0E-05 Ry
     Gradient error          =      4.7E-04 Ry/Bohr

     number of scf cycles    =   8
     number of bfgs steps    =   7

     energy             old  =   -2728.5364714709 Ry
     energy             new  =   -2728.5364815575 Ry

     CASE: energy            _new < energy            _old

     new trust radius        =       0.0038279009 bohr
     new conv_thr            =            1.0E-11 Ry


ATOMIC_POSITIONS (angstrom)
Co              -1.5405422342        3.4438911414       10.6055997444
Mg              -0.0148055841        1.3643788812        6.4109295357
Mg               3.4756855977        0.5477846011       10.6055610764
Mg               2.5158715497        2.8695721787        6.3492573636
Mg               1.2157074008        3.4956937904        1.9832313534
Mg               1.1775128417        0.5514725525        2.0449024036
Mg               1.2418502496        2.1998373630        9.2235494058
Mg               2.4916753067       -0.0409172969        7.8563808322
Mg               0.9280417155        1.6564040404       11.9875568380
Mg               2.5231925956       -0.1195931950        4.9124150009
Mg               3.7698608946        2.0397060134        3.4817188413
Mg               3.6859639877        2.0276736242        0.5377360717
Ni               1.2539508456        2.0527398305        4.1970840328
Ni               2.4186559731       -0.1879307351       -0.1449960425
Ni               3.7767915696        2.1644051079        8.5391478409
Ni              -0.0070418489       -0.1440627021        4.2723378123
Ni              -0.1011471063       -0.2088944999       -0.1465086014
Ni               0.0020672625       -0.0301463844        8.6911919024



     Writing config-only to output data dir ./outdir/mg2ni_co.save/ :
     XML data file
     NEW-OLD atomic charge density approx. for the potential

     Check: negative core charge=   -0.000003
     Generating pointlists ...

     total cpu time spent up to now is     7930.2 secs

     Self-consistent Calculation

     iteration #  1     ecut=    60.00 Ry     beta= 0.30
     Davidson diagonalization with overlap
     ethr =  1.00E-06,  avg # of iterations =  3.0

     total cpu time spent up to now is     7991.3 secs

     total energy              =   -2728.53593890 Ry
     estimated scf accuracy    <       0.00119667 Ry

     total magnetization       =     2.08 Bohr mag/cell
     absolute magnetization    =     2.85 Bohr mag/cell

     iteration #  2     ecut=    60.00 Ry     beta= 0.30
     Davidson diagonalization with overlap
     ethr =  8.14E-07,  avg # of iterations =  3.6

     total cpu time spent up to now is     8052.0 secs

     total energy              =   -2728.53287520 Ry
     estimated scf accuracy    <       0.16962225 Ry

     total magnetization       =     1.79 Bohr mag/cell
     absolute magnetization    =     2.56 Bohr mag/cell

     iteration #  3     ecut=    60.00 Ry     beta= 0.30
     Davidson diagonalization with overlap
     ethr =  8.14E-07,  avg # of iterations =  3.5

     total cpu time spent up to now is     8110.8 secs

     total energy              =   -2728.53647388 Ry
     estimated scf accuracy    <       0.00012018 Ry

     total magnetization       =     2.06 Bohr mag/cell
     absolute magnetization    =     2.83 Bohr mag/cell

     iteration #  4     ecut=    60.00 Ry     beta= 0.30
     Davidson diagonalization with overlap
     ethr =  8.18E-08,  avg # of iterations =  1.8

     total cpu time spent up to now is     8147.8 secs

     total energy              =   -2728.53648174 Ry
     estimated scf accuracy    <       0.00009356 Ry

     total magnetization       =     2.06 Bohr mag/cell
     absolute magnetization    =     2.83 Bohr mag/cell

     iteration #  5     ecut=    60.00 Ry     beta= 0.30
     Davidson diagonalization with overlap
     ethr =  6.36E-08,  avg # of iterations =  1.0

     total cpu time spent up to now is     8178.4 secs

     total energy              =   -2728.53648691 Ry
     estimated scf accuracy    <       0.00001864 Ry

     total magnetization       =     2.06 Bohr mag/cell
     absolute magnetization    =     2.83 Bohr mag/cell

     iteration #  6     ecut=    60.00 Ry     beta= 0.30
     Davidson diagonalization with overlap
     ethr =  1.27E-08,  avg # of iterations =  1.8

     total cpu time spent up to now is     8216.6 secs

     total energy              =   -2728.53648757 Ry
     estimated scf accuracy    <       0.00001319 Ry

     total magnetization       =     2.06 Bohr mag/cell
     absolute magnetization    =     2.83 Bohr mag/cell

     iteration #  7     ecut=    60.00 Ry     beta= 0.30
     Davidson diagonalization with overlap
     ethr =  8.97E-09,  avg # of iterations =  1.0

     total cpu time spent up to now is     8247.1 secs

     total energy              =   -2728.53648830 Ry
     estimated scf accuracy    <       0.00000355 Ry

     total magnetization       =     2.06 Bohr mag/cell
     absolute magnetization    =     2.83 Bohr mag/cell

     iteration #  8     ecut=    60.00 Ry     beta= 0.30
     Davidson diagonalization with overlap
     ethr =  2.42E-09,  avg # of iterations =  1.0

     total cpu time spent up to now is     8277.7 secs

     total energy              =   -2728.53648840 Ry
     estimated scf accuracy    <       0.00000266 Ry

     total magnetization       =     2.06 Bohr mag/cell
     absolute magnetization    =     2.83 Bohr mag/cell

     iteration #  9     ecut=    60.00 Ry     beta= 0.30
     Davidson diagonalization with overlap
     ethr =  1.81E-09,  avg # of iterations =  1.0

     total cpu time spent up to now is     8308.1 secs

     total energy              =   -2728.53648851 Ry
     estimated scf accuracy    <       0.00000257 Ry

     total magnetization       =     2.06 Bohr mag/cell
     absolute magnetization    =     2.83 Bohr mag/cell

     iteration # 10     ecut=    60.00 Ry     beta= 0.30
     Davidson diagonalization with overlap
     ethr =  1.75E-09,  avg # of iterations =  1.0

     total cpu time spent up to now is     8338.6 secs

     total energy              =   -2728.53648860 Ry
     estimated scf accuracy    <       0.00000011 Ry

     total magnetization       =     2.06 Bohr mag/cell
     absolute magnetization    =     2.83 Bohr mag/cell

     iteration # 11     ecut=    60.00 Ry     beta= 0.30
     Davidson diagonalization with overlap
     ethr =  7.49E-11,  avg # of iterations =  4.1

     total cpu time spent up to now is     8402.7 secs

     total energy              =   -2728.53648863 Ry
     estimated scf accuracy    <       0.00000034 Ry

     total magnetization       =     2.06 Bohr mag/cell
     absolute magnetization    =     2.83 Bohr mag/cell

     iteration # 12     ecut=    60.00 Ry     beta= 0.30
     Davidson diagonalization with overlap
     ethr =  7.49E-11,  avg # of iterations =  2.5

     total cpu time spent up to now is     8445.5 secs

     total energy              =   -2728.53648865 Ry
     estimated scf accuracy    <          5.8E-09 Ry

     total magnetization       =     2.06 Bohr mag/cell
     absolute magnetization    =     2.83 Bohr mag/cell

     iteration # 13     ecut=    60.00 Ry     beta= 0.30
     Davidson diagonalization with overlap
     ethr =  3.97E-12,  avg # of iterations =  2.0

     total cpu time spent up to now is     8486.2 secs

     total energy              =   -2728.53648865 Ry
     estimated scf accuracy    <          9.1E-09 Ry

     total magnetization       =     2.06 Bohr mag/cell
     absolute magnetization    =     2.83 Bohr mag/cell

     iteration # 14     ecut=    60.00 Ry     beta= 0.30
     Davidson diagonalization with overlap
     ethr =  3.97E-12,  avg # of iterations =  1.7

     total cpu time spent up to now is     8525.9 secs

     total energy              =   -2728.53648866 Ry
     estimated scf accuracy    <          2.9E-09 Ry

     total magnetization       =     2.06 Bohr mag/cell
     absolute magnetization    =     2.83 Bohr mag/cell

     iteration # 15     ecut=    60.00 Ry     beta= 0.30
     Davidson diagonalization with overlap
     ethr =  1.99E-12,  avg # of iterations =  1.9

     total cpu time spent up to now is     8563.6 secs

     total energy              =   -2728.53648866 Ry
     estimated scf accuracy    <          1.5E-09 Ry

     total magnetization       =     2.06 Bohr mag/cell
     absolute magnetization    =     2.83 Bohr mag/cell

     iteration # 16     ecut=    60.00 Ry     beta= 0.30
     Davidson diagonalization with overlap
     ethr =  9.95E-13,  avg # of iterations =  1.9

     total cpu time spent up to now is     8600.7 secs

     total energy              =   -2728.53648866 Ry
     estimated scf accuracy    <       0.00000002 Ry

     total magnetization       =     2.06 Bohr mag/cell
     absolute magnetization    =     2.83 Bohr mag/cell

     iteration # 17     ecut=    60.00 Ry     beta= 0.30
     Davidson diagonalization with overlap
     ethr =  9.95E-13,  avg # of iterations =  1.4

     total cpu time spent up to now is     8637.4 secs

     total energy              =   -2728.53648866 Ry
     estimated scf accuracy    <          4.7E-10 Ry

     total magnetization       =     2.06 Bohr mag/cell
     absolute magnetization    =     2.83 Bohr mag/cell

     iteration # 18     ecut=    60.00 Ry     beta= 0.30
     Davidson diagonalization with overlap
     ethr =  3.20E-13,  avg # of iterations =  1.7

     total cpu time spent up to now is     8673.3 secs

     total energy              =   -2728.53648866 Ry
     estimated scf accuracy    <          2.1E-10 Ry

     total magnetization       =     2.06 Bohr mag/cell
     absolute magnetization    =     2.83 Bohr mag/cell

     iteration # 19     ecut=    60.00 Ry     beta= 0.30
     Davidson diagonalization with overlap
     ethr =  1.42E-13,  avg # of iterations =  1.5

     total cpu time spent up to now is     8708.6 secs

     total energy              =   -2728.53648866 Ry
     estimated scf accuracy    <          1.7E-10 Ry

     total magnetization       =     2.06 Bohr mag/cell
     absolute magnetization    =     2.83 Bohr mag/cell

     iteration # 20     ecut=    60.00 Ry     beta= 0.30
     Davidson diagonalization with overlap
     ethr =  1.19E-13,  avg # of iterations =  2.1

     total cpu time spent up to now is     8748.5 secs

     total energy              =   -2728.53648866 Ry
     estimated scf accuracy    <          5.2E-11 Ry

     total magnetization       =     2.06 Bohr mag/cell
     absolute magnetization    =     2.83 Bohr mag/cell

     iteration # 21     ecut=    60.00 Ry     beta= 0.30
     Davidson diagonalization with overlap
     ethr =  1.00E-13,  avg # of iterations =  1.0

     total cpu time spent up to now is     8779.4 secs

     total energy              =   -2728.53648866 Ry
     estimated scf accuracy    <          2.4E-11 Ry

     total magnetization       =     2.06 Bohr mag/cell
     absolute magnetization    =     2.83 Bohr mag/cell

     iteration # 22     ecut=    60.00 Ry     beta= 0.30
     Davidson diagonalization with overlap
     ethr =  1.00E-13,  avg # of iterations =  1.0
 
     Magnetic moment per site  (integrated on atomic sphere of radius R)
     atom   1 (R=0.194)  charge= 15.2522  magn=  1.5847
     atom   2 (R=0.212)  charge=  0.6233  magn= -0.0030
     atom   3 (R=0.212)  charge=  0.6215  magn= -0.0145
     atom   4 (R=0.212)  charge=  0.6270  magn= -0.0020
     atom   5 (R=0.212)  charge=  0.6233  magn= -0.0030
     atom   6 (R=0.212)  charge=  0.6270  magn= -0.0020
     atom   7 (R=0.212)  charge=  0.6345  magn= -0.0076
     atom   8 (R=0.212)  charge=  0.6239  magn= -0.0032
     atom   9 (R=0.212)  charge=  0.6344  magn= -0.0076
     atom  10 (R=0.212)  charge=  0.6351  magn=  0.0027
     atom  11 (R=0.212)  charge=  0.6351  magn=  0.0027
     atom  12 (R=0.212)  charge=  0.6239  magn= -0.0032
     atom  13 (R=0.194)  charge= 16.4799  magn=  0.0296
     atom  14 (R=0.194)  charge= 16.4834  magn=  0.1724
     atom  15 (R=0.194)  charge= 16.4834  magn=  0.1724
     atom  16 (R=0.194)  charge= 16.4982  magn= -0.0357
     atom  17 (R=0.194)  charge= 16.4856  magn=  0.1743
     atom  18 (R=0.194)  charge= 16.4856  magn=  0.1743

     total cpu time spent up to now is     8809.8 secs

     End of self-consistent calculation

     Number of k-points >= 100: set verbosity='high' to print the bands.

     the Fermi energy is     8.0249 ev

!    total energy              =   -2728.53648866 Ry
     estimated scf accuracy    <          6.4E-12 Ry
     smearing contrib. (-TS)   =       0.00060293 Ry
     internal energy E=F+TS    =   -2728.53709159 Ry

     The total energy is F=E-TS. E is the sum of the following terms:
     one-electron contribution =   -2544.69704763 Ry
     hartree contribution      =    1321.27457393 Ry
     xc contribution           =    -264.42548349 Ry
     ewald contribution        =    -895.78600882 Ry
     DFT-D3 Dispersion         =      -0.45148253 Ry
     one-center paw contrib.   =    -344.45164306 Ry

     total magnetization       =     2.06 Bohr mag/cell
     absolute magnetization    =     2.83 Bohr mag/cell

     convergence has been achieved in  22 iterations

     Forces acting on atoms (cartesian axes, Ry/au):

     atom    1 type  1   force =     0.00006480   -0.00003714    0.00000154
     atom    2 type  2   force =    -0.00027072   -0.00013496    0.00019907
     atom    3 type  2   force =     0.00042408   -0.00024477   -0.00000017
     atom    4 type  2   force =    -0.00006830   -0.00001786   -0.00014631
     atom    5 type  2   force =    -0.00001865    0.00030219   -0.00019950
     atom    6 type  2   force =    -0.00001868    0.00006813    0.00014595
     atom    7 type  2   force =    -0.00032795   -0.00028238    0.00047382
     atom    8 type  2   force =     0.00027770   -0.00034962    0.00004881
     atom    9 type  2   force =     0.00008033    0.00042528   -0.00047405
     atom   10 type  2   force =    -0.00024643    0.00011390   -0.00006413
     atom   11 type  2   force =    -0.00022182    0.00015657    0.00006428
     atom   12 type  2   force =     0.00044150   -0.00006604   -0.00004911
     atom   13 type  3   force =    -0.00022036    0.00012724   -0.00000088
     atom   14 type  3   force =     0.00030113    0.00026097   -0.00003720
     atom   15 type  3   force =    -0.00007545   -0.00039139    0.00003805
     atom   16 type  3   force =    -0.00024189    0.00013973   -0.00000071
     atom   17 type  3   force =     0.00000056   -0.00013820    0.00002799
     atom   18 type  3   force =     0.00012015    0.00006835   -0.00002743

     Total force =     0.001564     Total SCF correction =     0.000008


     Computing stress (Cartesian axis) and pressure

          total   stress  (Ry/bohr**3)                   (kbar)     P=        4.59
   0.00003872  -0.00000453   0.00000257            5.70       -0.67        0.38
  -0.00000453   0.00003349   0.00000444           -0.67        4.93        0.65
   0.00000257   0.00000444   0.00002147            0.38        0.65        3.16

     Energy error            =      7.1E-06 Ry
     Gradient error          =      4.7E-04 Ry/Bohr

     number of scf cycles    =   9
     number of bfgs steps    =   8

     energy             old  =   -2728.5364815575 Ry
     energy             new  =   -2728.5364886560 Ry

     CASE: energy            _new < energy            _old

     new trust radius        =       0.0014475403 bohr
     new conv_thr            =            1.0E-11 Ry


ATOMIC_POSITIONS (angstrom)
Co              -1.5400628749        3.4436143337       10.6055993862
Mg              -0.0149621275        1.3641411248        6.4106918763
Mg               3.4759750456        0.5476173079       10.6055608294
Mg               2.5158592367        2.8694291405        6.3489798476
Mg               1.2158350318        3.4959485251        1.9834693943
Mg               1.1776304029        0.5515549474        2.0451802860
Mg               1.2420345860        2.1994456646        9.2236145945
Mg               2.4913731263       -0.0415339177        7.8561133211
Mg               0.9284726783        1.6564403983       11.9874916425
Mg               2.5225378757       -0.1192399719        4.9122333107
Mg               3.7692276751        2.0400966316        3.4819010902
Mg               3.6863466482        2.0282437612        0.5380034859
Ni               1.2533281092        2.0530994184        4.1970844542
Ni               2.4189049738       -0.1875408404       -0.1447136421
Ni               3.7765789162        2.1639940118        8.5388648521
Ni              -0.0075837184       -0.1437497208        4.2723381173
Ni              -0.1004683769       -0.2087296072       -0.1463936017
Ni               0.0022638090       -0.0308168960        8.6910761667



     Writing config-only to output data dir ./outdir/mg2ni_co.save/ :
     XML data file
     NEW-OLD atomic charge density approx. for the potential

     Check: negative core charge=   -0.000003
     Generating pointlists ...

     total cpu time spent up to now is     8836.7 secs

     Self-consistent Calculation

     iteration #  1     ecut=    60.00 Ry     beta= 0.30
     Davidson diagonalization with overlap
     ethr =  1.00E-06,  avg # of iterations =  3.0

     Threshold (ethr) on eigenvalues was too large:
     Diagonalizing with lowered threshold

     Davidson diagonalization with overlap
     ethr =  8.00E-08,  avg # of iterations =  1.1

     total cpu time spent up to now is     8919.1 secs

     total energy              =   -2728.53643742 Ry
     estimated scf accuracy    <       0.00011879 Ry

     total magnetization       =     2.07 Bohr mag/cell
     absolute magnetization    =     2.84 Bohr mag/cell

     iteration #  2     ecut=    60.00 Ry     beta= 0.30
     Davidson diagonalization with overlap
     ethr =  8.08E-08,  avg # of iterations =  2.7

     total cpu time spent up to now is     8967.1 secs

     total energy              =   -2728.53612798 Ry
     estimated scf accuracy    <       0.01724358 Ry

     total magnetization       =     1.97 Bohr mag/cell
     absolute magnetization    =     2.74 Bohr mag/cell

     iteration #  3     ecut=    60.00 Ry     beta= 0.30
     Davidson diagonalization with overlap
     ethr =  8.08E-08,  avg # of iterations =  2.7

     total cpu time spent up to now is     9013.6 secs

     total energy              =   -2728.53648984 Ry
     estimated scf accuracy    <       0.00001628 Ry

     total magnetization       =     2.06 Bohr mag/cell
     absolute magnetization    =     2.83 Bohr mag/cell

     iteration #  4     ecut=    60.00 Ry     beta= 0.30
     Davidson diagonalization with overlap
     ethr =  1.11E-08,  avg # of iterations =  1.7

     total cpu time spent up to now is     9050.3 secs

     total energy              =   -2728.53649083 Ry
     estimated scf accuracy    <       0.00001366 Ry

     total magnetization       =     2.06 Bohr mag/cell
     absolute magnetization    =     2.83 Bohr mag/cell

     iteration #  5     ecut=    60.00 Ry     beta= 0.30
     Davidson diagonalization with overlap
     ethr =  9.29E-09,  avg # of iterations =  1.0

     total cpu time spent up to now is     9080.8 secs

     total energy              =   -2728.53649152 Ry
     estimated scf accuracy    <       0.00000172 Ry

     total magnetization       =     2.06 Bohr mag/cell
     absolute magnetization    =     2.83 Bohr mag/cell

     iteration #  6     ecut=    60.00 Ry     beta= 0.30
     Davidson diagonalization with overlap
     ethr =  1.17E-09,  avg # of iterations =  2.0

     total cpu time spent up to now is     9117.5 secs

     total energy              =   -2728.53649157 Ry
     estimated scf accuracy    <       0.00000188 Ry

     total magnetization       =     2.06 Bohr mag/cell
     absolute magnetization    =     2.83 Bohr mag/cell

     iteration #  7     ecut=    60.00 Ry     beta= 0.30
     Davidson diagonalization with overlap
     ethr =  1.17E-09,  avg # of iterations =  1.0

     total cpu time spent up to now is     9148.4 secs

     total energy              =   -2728.53649168 Ry
     estimated scf accuracy    <       0.00000027 Ry

     total magnetization       =     2.06 Bohr mag/cell
     absolute magnetization    =     2.83 Bohr mag/cell

     iteration #  8     ecut=    60.00 Ry     beta= 0.30
     Davidson diagonalization with overlap
     ethr =  1.83E-10,  avg # of iterations =  1.9

     total cpu time spent up to now is     9187.1 secs

     total energy              =   -2728.53649169 Ry
     estimated scf accuracy    <       0.00000015 Ry

     total magnetization       =     2.06 Bohr mag/cell
     absolute magnetization    =     2.83 Bohr mag/cell

     iteration #  9     ecut=    60.00 Ry     beta= 0.30
     Davidson diagonalization with overlap
     ethr =  1.03E-10,  avg # of iterations =  1.2

     total cpu time spent up to now is     9219.9 secs

     total energy              =   -2728.53649169 Ry
     estimated scf accuracy    <       0.00000048 Ry

     total magnetization       =     2.06 Bohr mag/cell
     absolute magnetization    =     2.83 Bohr mag/cell

     iteration # 10     ecut=    60.00 Ry     beta= 0.30
     Davidson diagonalization with overlap
     ethr =  1.03E-10,  avg # of iterations =  1.0

     total cpu time spent up to now is     9251.1 secs

     total energy              =   -2728.53649171 Ry
     estimated scf accuracy    <          9.5E-09 Ry

     total magnetization       =     2.06 Bohr mag/cell
     absolute magnetization    =     2.83 Bohr mag/cell

     iteration # 11     ecut=    60.00 Ry     beta= 0.30
     Davidson diagonalization with overlap
     ethr =  6.46E-12,  avg # of iterations =  4.0

     total cpu time spent up to now is     9319.1 secs

     total energy              =   -2728.53649171 Ry
     estimated scf accuracy    <       0.00000004 Ry

     total magnetization       =     2.06 Bohr mag/cell
     absolute magnetization    =     2.83 Bohr mag/cell

     iteration # 12     ecut=    60.00 Ry     beta= 0.30
     Davidson diagonalization with overlap
     ethr =  6.46E-12,  avg # of iterations =  2.8

     total cpu time spent up to now is     9364.7 secs

     total energy              =   -2728.53649171 Ry
     estimated scf accuracy    <          9.7E-10 Ry

     total magnetization       =     2.06 Bohr mag/cell
     absolute magnetization    =     2.83 Bohr mag/cell

     iteration # 13     ecut=    60.00 Ry     beta= 0.30
     Davidson diagonalization with overlap
     ethr =  6.60E-13,  avg # of iterations =  2.0

     total cpu time spent up to now is     9403.6 secs

     total energy              =   -2728.53649171 Ry
     estimated scf accuracy    <          7.2E-10 Ry

     total magnetization       =     2.06 Bohr mag/cell
     absolute magnetization    =     2.83 Bohr mag/cell

     iteration # 14     ecut=    60.00 Ry     beta= 0.30
     Davidson diagonalization with overlap
     ethr =  4.90E-13,  avg # of iterations =  1.3

     total cpu time spent up to now is     9438.6 secs

     total energy              =   -2728.53649171 Ry
     estimated scf accuracy    <          5.1E-10 Ry

     total magnetization       =     2.06 Bohr mag/cell
     absolute magnetization    =     2.83 Bohr mag/cell

     iteration # 15     ecut=    60.00 Ry     beta= 0.30
     Davidson diagonalization with overlap
     ethr =  3.49E-13,  avg # of iterations =  1.9

     total cpu time spent up to now is     9477.8 secs

     total energy              =   -2728.53649171 Ry
     estimated scf accuracy    <          3.8E-10 Ry

     total magnetization       =     2.06 Bohr mag/cell
     absolute magnetization    =     2.83 Bohr mag/cell

     iteration # 16     ecut=    60.00 Ry     beta= 0.30
     Davidson diagonalization with overlap
     ethr =  2.57E-13,  avg # of iterations =  1.0

     total cpu time spent up to now is     9508.3 secs

     total energy              =   -2728.53649171 Ry
     estimated scf accuracy    <          4.9E-10 Ry

     total magnetization       =     2.06 Bohr mag/cell
     absolute magnetization    =     2.83 Bohr mag/cell

     iteration # 17     ecut=    60.00 Ry     beta= 0.30
     Davidson diagonalization with overlap
     ethr =  2.57E-13,  avg # of iterations =  1.0

     total cpu time spent up to now is     9538.8 secs

     total energy              =   -2728.53649171 Ry
     estimated scf accuracy    <          1.2E-10 Ry

     total magnetization       =     2.06 Bohr mag/cell
     absolute magnetization    =     2.83 Bohr mag/cell

     iteration # 18     ecut=    60.00 Ry     beta= 0.30
     Davidson diagonalization with overlap
     ethr =  1.00E-13,  avg # of iterations =  1.0

     total cpu time spent up to now is     9569.2 secs

     total energy              =   -2728.53649171 Ry
     estimated scf accuracy    <          4.2E-11 Ry

     total magnetization       =     2.06 Bohr mag/cell
     absolute magnetization    =     2.83 Bohr mag/cell

     iteration # 19     ecut=    60.00 Ry     beta= 0.30
     Davidson diagonalization with overlap
     ethr =  1.00E-13,  avg # of iterations =  1.0

     total cpu time spent up to now is     9599.5 secs

     total energy              =   -2728.53649171 Ry
     estimated scf accuracy    <          2.2E-11 Ry

     total magnetization       =     2.06 Bohr mag/cell
     absolute magnetization    =     2.83 Bohr mag/cell

     iteration # 20     ecut=    60.00 Ry     beta= 0.30
     Davidson diagonalization with overlap
     ethr =  1.00E-13,  avg # of iterations =  1.0

     total cpu time spent up to now is     9630.0 secs

     total energy              =   -2728.53649171 Ry
     estimated scf accuracy    <          1.8E-11 Ry

     total magnetization       =     2.06 Bohr mag/cell
     absolute magnetization    =     2.83 Bohr mag/cell

     iteration # 21     ecut=    60.00 Ry     beta= 0.30
     Davidson diagonalization with overlap
     ethr =  1.00E-13,  avg # of iterations =  1.0
 
     Magnetic moment per site  (integrated on atomic sphere of radius R)
     atom   1 (R=0.194)  charge= 15.2521  magn=  1.5847
     atom   2 (R=0.212)  charge=  0.6234  magn= -0.0030
     atom   3 (R=0.212)  charge=  0.6214  magn= -0.0145
     atom   4 (R=0.212)  charge=  0.6270  magn= -0.0020
     atom   5 (R=0.212)  charge=  0.6234  magn= -0.0030
     atom   6 (R=0.212)  charge=  0.6270  magn= -0.0020
     atom   7 (R=0.212)  charge=  0.6344  magn= -0.0076
     atom   8 (R=0.212)  charge=  0.6238  magn= -0.0032
     atom   9 (R=0.212)  charge=  0.6344  magn= -0.0076
     atom  10 (R=0.212)  charge=  0.6352  magn=  0.0027
     atom  11 (R=0.212)  charge=  0.6352  magn=  0.0027
     atom  12 (R=0.212)  charge=  0.6238  magn= -0.0032
     atom  13 (R=0.194)  charge= 16.4800  magn=  0.0296
     atom  14 (R=0.194)  charge= 16.4834  magn=  0.1723
     atom  15 (R=0.194)  charge= 16.4834  magn=  0.1723
     atom  16 (R=0.194)  charge= 16.4983  magn= -0.0356
     atom  17 (R=0.194)  charge= 16.4856  magn=  0.1743
     atom  18 (R=0.194)  charge= 16.4856  magn=  0.1743

     total cpu time spent up to now is     9660.4 secs

     End of self-consistent calculation

     Number of k-points >= 100: set verbosity='high' to print the bands.

     the Fermi energy is     8.0248 ev

!    total energy              =   -2728.53649171 Ry
     estimated scf accuracy    <          2.4E-12 Ry
     smearing contrib. (-TS)   =       0.00060294 Ry
     internal energy E=F+TS    =   -2728.53709465 Ry

     The total energy is F=E-TS. E is the sum of the following terms:
     one-electron contribution =   -2544.56308738 Ry
     hartree contribution      =    1321.20775642 Ry
     xc contribution           =    -264.42549189 Ry
     ewald contribution        =    -895.85314439 Ry
     DFT-D3 Dispersion         =      -0.45148206 Ry
     one-center paw contrib.   =    -344.45164534 Ry

     total magnetization       =     2.06 Bohr mag/cell
     absolute magnetization    =     2.83 Bohr mag/cell

     convergence has been achieved in  21 iterations

     Forces acting on atoms (cartesian axes, Ry/au):

     atom    1 type  1   force =     0.00006055   -0.00003491    0.00000125
     atom    2 type  2   force =    -0.00027613   -0.00011568    0.00027262
     atom    3 type  2   force =     0.00044441   -0.00025650   -0.00000013
     atom    4 type  2   force =    -0.00010900   -0.00003037   -0.00013217
     atom    5 type  2   force =    -0.00003808    0.00029723   -0.00027313
     atom    6 type  2   force =    -0.00002819    0.00010961    0.00013173
     atom    7 type  2   force =    -0.00040578   -0.00030258    0.00042858
     atom    8 type  2   force =     0.00036943   -0.00031032    0.00009334
     atom    9 type  2   force =     0.00005892    0.00050277   -0.00042883
     atom   10 type  2   force =    -0.00020679    0.00009874   -0.00004278
     atom   11 type  2   force =    -0.00018887    0.00012982    0.00004288
     atom   12 type  2   force =     0.00045331   -0.00016518   -0.00009363
     atom   13 type  3   force =    -0.00020713    0.00011963   -0.00000115
     atom   14 type  3   force =     0.00039234    0.00022202   -0.00007125
     atom   15 type  3   force =     0.00000376   -0.00045083    0.00007250
     atom   16 type  3   force =    -0.00024647    0.00014234   -0.00000088
     atom   17 type  3   force =    -0.00011886   -0.00011742    0.00002706
     atom   18 type  3   force =     0.00004259    0.00016165   -0.00002599

     Total force =     0.001656     Total SCF correction =     0.000007


     Computing stress (Cartesian axis) and pressure

          total   stress  (Ry/bohr**3)                   (kbar)     P=        4.59
   0.00003866  -0.00000450   0.00000255            5.69       -0.66        0.37
  -0.00000450   0.00003346   0.00000441           -0.66        4.92        0.65
   0.00000255   0.00000441   0.00002149            0.37        0.65        3.16

     Energy error            =      3.1E-06 Ry
     Gradient error          =      5.0E-04 Ry/Bohr

     number of scf cycles    =  10
     number of bfgs steps    =   9

     energy             old  =   -2728.5364886560 Ry
     energy             new  =   -2728.5364917117 Ry

     CASE: energy            _new < energy            _old

     new trust radius        =       0.0015922943 bohr
     new conv_thr            =            1.0E-11 Ry


ATOMIC_POSITIONS (angstrom)
Co              -1.5395657212        3.4433271996       10.6055991845
Mg              -0.0152138690        1.3638656200        6.4105536942
Mg               3.4764201212        0.5473601916       10.6055605538
Mg               2.5158054261        2.8692747585        6.3486639470
Mg               1.2159476864        3.4963046626        1.9836078015
Mg               1.1777370403        0.5516789587        2.0454964169
Mg               1.2420817382        2.1989510926        9.2238254325
Mg               2.4912035258       -0.0422564550        7.8558855932
Mg               0.9289240616        1.6566470171       11.9872807438
Mg               2.5218142695       -0.1188546100        4.9120397080
Mg               3.7685321886        2.0405308729        3.4820953005
Mg               3.6868872685        2.0287519005        0.5382310379
Ni               1.2526346266        2.0534998787        4.1970845815
Ni               2.4192784507       -0.1870732919       -0.1444625114
Ni               3.7763611770        2.1634362668        8.5386135067
Ni              -0.0082103829       -0.1433877742        4.2723382408
Ni              -0.0998223904       -0.2086012723       -0.1462713881
Ni               0.0024758001       -0.0314407047        8.6909535683



     Writing config-only to output data dir ./outdir/mg2ni_co.save/ :
     XML data file
     NEW-OLD atomic charge density approx. for the potential

     Check: negative core charge=   -0.000003
     Generating pointlists ...

     total cpu time spent up to now is     9687.2 secs

     Self-consistent Calculation

     iteration #  1     ecut=    60.00 Ry     beta= 0.30
     Davidson diagonalization with overlap
     ethr =  1.00E-06,  avg # of iterations =  3.0

     Threshold (ethr) on eigenvalues was too large:
     Diagonalizing with lowered threshold

     Davidson diagonalization with overlap
     ethr =  8.04E-08,  avg # of iterations =  1.0

     total cpu time spent up to now is     9769.3 secs

     total energy              =   -2728.53644135 Ry
     estimated scf accuracy    <       0.00011929 Ry

     total magnetization       =     2.07 Bohr mag/cell
     absolute magnetization    =     2.84 Bohr mag/cell

     iteration #  2     ecut=    60.00 Ry     beta= 0.30
     Davidson diagonalization with overlap
     ethr =  8.12E-08,  avg # of iterations =  2.7

     total cpu time spent up to now is     9817.1 secs

     total energy              =   -2728.53612833 Ry
     estimated scf accuracy    <       0.01747681 Ry

     total magnetization       =     1.97 Bohr mag/cell
     absolute magnetization    =     2.74 Bohr mag/cell

     iteration #  3     ecut=    60.00 Ry     beta= 0.30
     Davidson diagonalization with overlap
     ethr =  8.12E-08,  avg # of iterations =  2.7

     total cpu time spent up to now is     9864.1 secs

     total energy              =   -2728.53649450 Ry
     estimated scf accuracy    <       0.00000997 Ry

     total magnetization       =     2.06 Bohr mag/cell
     absolute magnetization    =     2.83 Bohr mag/cell

     iteration #  4     ecut=    60.00 Ry     beta= 0.30
     Davidson diagonalization with overlap
     ethr =  6.78E-09,  avg # of iterations =  2.0

     total cpu time spent up to now is     9900.8 secs

     total energy              =   -2728.53649510 Ry
     estimated scf accuracy    <       0.00000973 Ry

     total magnetization       =     2.06 Bohr mag/cell
     absolute magnetization    =     2.83 Bohr mag/cell

     iteration #  5     ecut=    60.00 Ry     beta= 0.30
     Davidson diagonalization with overlap
     ethr =  6.62E-09,  avg # of iterations =  1.0

     total cpu time spent up to now is     9931.2 secs

     total energy              =   -2728.53649559 Ry
     estimated scf accuracy    <       0.00000238 Ry

     total magnetization       =     2.06 Bohr mag/cell
     absolute magnetization    =     2.83 Bohr mag/cell

     iteration #  6     ecut=    60.00 Ry     beta= 0.30
     Davidson diagonalization with overlap
     ethr =  1.62E-09,  avg # of iterations =  1.8

     total cpu time spent up to now is     9970.4 secs

     total energy              =   -2728.53649567 Ry
     estimated scf accuracy    <       0.00000196 Ry

     total magnetization       =     2.06 Bohr mag/cell
     absolute magnetization    =     2.83 Bohr mag/cell

     iteration #  7     ecut=    60.00 Ry     beta= 0.30
     Davidson diagonalization with overlap
     ethr =  1.34E-09,  avg # of iterations =  1.0

     total cpu time spent up to now is    10000.8 secs

     total energy              =   -2728.53649578 Ry
     estimated scf accuracy    <       0.00000031 Ry

     total magnetization       =     2.06 Bohr mag/cell
     absolute magnetization    =     2.83 Bohr mag/cell

     iteration #  8     ecut=    60.00 Ry     beta= 0.30
     Davidson diagonalization with overlap
     ethr =  2.08E-10,  avg # of iterations =  1.4

     total cpu time spent up to now is    10036.4 secs

     total energy              =   -2728.53649579 Ry
     estimated scf accuracy    <       0.00000014 Ry

     total magnetization       =     2.06 Bohr mag/cell
     absolute magnetization    =     2.83 Bohr mag/cell

     iteration #  9     ecut=    60.00 Ry     beta= 0.30
     Davidson diagonalization with overlap
     ethr =  9.49E-11,  avg # of iterations =  1.3

     total cpu time spent up to now is    10070.7 secs

     total energy              =   -2728.53649579 Ry
     estimated scf accuracy    <       0.00000057 Ry

     total magnetization       =     2.06 Bohr mag/cell
     absolute magnetization    =     2.83 Bohr mag/cell

     iteration # 10     ecut=    60.00 Ry     beta= 0.30
     Davidson diagonalization with overlap
     ethr =  9.49E-11,  avg # of iterations =  1.1

     total cpu time spent up to now is    10102.2 secs

     total energy              =   -2728.53649581 Ry
     estimated scf accuracy    <       0.00000001 Ry

     total magnetization       =     2.06 Bohr mag/cell
     absolute magnetization    =     2.83 Bohr mag/cell

     iteration # 11     ecut=    60.00 Ry     beta= 0.30
     Davidson diagonalization with overlap
     ethr =  8.10E-12,  avg # of iterations =  4.0

     total cpu time spent up to now is    10166.5 secs

     total energy              =   -2728.53649581 Ry
     estimated scf accuracy    <       0.00000004 Ry

     total magnetization       =     2.06 Bohr mag/cell
     absolute magnetization    =     2.83 Bohr mag/cell

     iteration # 12     ecut=    60.00 Ry     beta= 0.30
     Davidson diagonalization with overlap
     ethr =  8.10E-12,  avg # of iterations =  2.7

     total cpu time spent up to now is    10210.7 secs

     total energy              =   -2728.53649581 Ry
     estimated scf accuracy    <          8.4E-10 Ry

     total magnetization       =     2.06 Bohr mag/cell
     absolute magnetization    =     2.83 Bohr mag/cell

     iteration # 13     ecut=    60.00 Ry     beta= 0.30
     Davidson diagonalization with overlap
     ethr =  5.73E-13,  avg # of iterations =  2.0

     total cpu time spent up to now is    10250.3 secs

     total energy              =   -2728.53649581 Ry
     estimated scf accuracy    <          1.1E-09 Ry

     total magnetization       =     2.06 Bohr mag/cell
     absolute magnetization    =     2.83 Bohr mag/cell

     iteration # 14     ecut=    60.00 Ry     beta= 0.30
     Davidson diagonalization with overlap
     ethr =  5.73E-13,  avg # of iterations =  1.8

     total cpu time spent up to now is    10290.4 secs

     total energy              =   -2728.53649581 Ry
     estimated scf accuracy    <          6.3E-10 Ry

     total magnetization       =     2.06 Bohr mag/cell
     absolute magnetization    =     2.83 Bohr mag/cell

     iteration # 15     ecut=    60.00 Ry     beta= 0.30
     Davidson diagonalization with overlap
     ethr =  4.27E-13,  avg # of iterations =  1.5

     total cpu time spent up to now is    10328.7 secs

     total energy              =   -2728.53649581 Ry
     estimated scf accuracy    <          2.5E-10 Ry

     total magnetization       =     2.06 Bohr mag/cell
     absolute magnetization    =     2.83 Bohr mag/cell

     iteration # 16     ecut=    60.00 Ry     beta= 0.30
     Davidson diagonalization with overlap
     ethr =  1.73E-13,  avg # of iterations =  1.0

     total cpu time spent up to now is    10359.1 secs

     total energy              =   -2728.53649581 Ry
     estimated scf accuracy    <          1.7E-10 Ry

     total magnetization       =     2.06 Bohr mag/cell
     absolute magnetization    =     2.83 Bohr mag/cell

     iteration # 17     ecut=    60.00 Ry     beta= 0.30
     Davidson diagonalization with overlap
     ethr =  1.15E-13,  avg # of iterations =  1.0

     total cpu time spent up to now is    10389.5 secs

     total energy              =   -2728.53649581 Ry
     estimated scf accuracy    <          2.5E-10 Ry

     total magnetization       =     2.06 Bohr mag/cell
     absolute magnetization    =     2.83 Bohr mag/cell

     iteration # 18     ecut=    60.00 Ry     beta= 0.30
     Davidson diagonalization with overlap
     ethr =  1.15E-13,  avg # of iterations =  1.0

     total cpu time spent up to now is    10419.8 secs

     total energy              =   -2728.53649581 Ry
     estimated scf accuracy    <          2.5E-11 Ry

     total magnetization       =     2.06 Bohr mag/cell
     absolute magnetization    =     2.83 Bohr mag/cell

     iteration # 19     ecut=    60.00 Ry     beta= 0.30
     Davidson diagonalization with overlap
     ethr =  1.00E-13,  avg # of iterations =  1.0

     total cpu time spent up to now is    10450.2 secs

     total energy              =   -2728.53649581 Ry
     estimated scf accuracy    <          5.4E-11 Ry

     total magnetization       =     2.06 Bohr mag/cell
     absolute magnetization    =     2.83 Bohr mag/cell

     iteration # 20     ecut=    60.00 Ry     beta= 0.30
     Davidson diagonalization with overlap
     ethr =  1.00E-13,  avg # of iterations =  1.0

     total cpu time spent up to now is    10480.6 secs

     total energy              =   -2728.53649581 Ry
     estimated scf accuracy    <          1.2E-11 Ry

     total magnetization       =     2.06 Bohr mag/cell
     absolute magnetization    =     2.83 Bohr mag/cell

     iteration # 21     ecut=    60.00 Ry     beta= 0.30
     Davidson diagonalization with overlap
     ethr =  1.00E-13,  avg # of iterations =  1.0
 
     Magnetic moment per site  (integrated on atomic sphere of radius R)
     atom   1 (R=0.194)  charge= 15.2520  magn=  1.5848
     atom   2 (R=0.212)  charge=  0.6235  magn= -0.0030
     atom   3 (R=0.212)  charge=  0.6214  magn= -0.0146
     atom   4 (R=0.212)  charge=  0.6271  magn= -0.0020
     atom   5 (R=0.212)  charge=  0.6234  magn= -0.0030
     atom   6 (R=0.212)  charge=  0.6270  magn= -0.0020
     atom   7 (R=0.212)  charge=  0.6343  magn= -0.0075
     atom   8 (R=0.212)  charge=  0.6238  magn= -0.0032
     atom   9 (R=0.212)  charge=  0.6343  magn= -0.0075
     atom  10 (R=0.212)  charge=  0.6352  magn=  0.0027
     atom  11 (R=0.212)  charge=  0.6352  magn=  0.0027
     atom  12 (R=0.212)  charge=  0.6238  magn= -0.0032
     atom  13 (R=0.194)  charge= 16.4800  magn=  0.0296
     atom  14 (R=0.194)  charge= 16.4833  magn=  0.1721
     atom  15 (R=0.194)  charge= 16.4833  magn=  0.1721
     atom  16 (R=0.194)  charge= 16.4984  magn= -0.0356
     atom  17 (R=0.194)  charge= 16.4856  magn=  0.1743
     atom  18 (R=0.194)  charge= 16.4856  magn=  0.1743

     total cpu time spent up to now is    10511.0 secs

     End of self-consistent calculation

     Number of k-points >= 100: set verbosity='high' to print the bands.

     the Fermi energy is     8.0248 ev

!    total energy              =   -2728.53649581 Ry
     estimated scf accuracy    <          6.2E-12 Ry
     smearing contrib. (-TS)   =       0.00060289 Ry
     internal energy E=F+TS    =   -2728.53709870 Ry

     The total energy is F=E-TS. E is the sum of the following terms:
     one-electron contribution =   -2544.42753732 Ry
     hartree contribution      =    1321.14021547 Ry
     xc contribution           =    -264.42548541 Ry
     ewald contribution        =    -895.92116405 Ry
     DFT-D3 Dispersion         =      -0.45148178 Ry
     one-center paw contrib.   =    -344.45164561 Ry

     total magnetization       =     2.06 Bohr mag/cell
     absolute magnetization    =     2.83 Bohr mag/cell

     convergence has been achieved in  21 iterations

     Forces acting on atoms (cartesian axes, Ry/au):

     atom    1 type  1   force =     0.00006076   -0.00003499    0.00000128
     atom    2 type  2   force =    -0.00026285   -0.00009194    0.00032331
     atom    3 type  2   force =     0.00044141   -0.00025479   -0.00000008
     atom    4 type  2   force =    -0.00014762   -0.00004682   -0.00010135
     atom    5 type  2   force =    -0.00005203    0.00027381   -0.00032387
     atom    6 type  2   force =    -0.00003326    0.00015126    0.00010086
     atom    7 type  2   force =    -0.00043274   -0.00030944    0.00034552
     atom    8 type  2   force =     0.00042546   -0.00026528    0.00013617
     atom    9 type  2   force =     0.00005139    0.00052954   -0.00034579
     atom   10 type  2   force =    -0.00016962    0.00008431   -0.00001781
     atom   11 type  2   force =    -0.00015780    0.00010481    0.00001782
     atom   12 type  2   force =     0.00044229   -0.00023625   -0.00013642
     atom   13 type  3   force =    -0.00019742    0.00011402   -0.00000122
     atom   14 type  3   force =     0.00042898    0.00018122   -0.00010202
     atom   15 type  3   force =     0.00005739   -0.00046210    0.00010330
     atom   16 type  3   force =    -0.00024820    0.00014331   -0.00000091
     atom   17 type  3   force =    -0.00018001   -0.00007347    0.00002342
     atom   18 type  3   force =    -0.00002612    0.00019280   -0.00002221

     Total force =     0.001668     Total SCF correction =     0.000008


     Computing stress (Cartesian axis) and pressure

          total   stress  (Ry/bohr**3)                   (kbar)     P=        4.58
   0.00003854  -0.00000446   0.00000254            5.67       -0.66        0.37
  -0.00000446   0.00003340   0.00000441           -0.66        4.91        0.65
   0.00000254   0.00000441   0.00002155            0.37        0.65        3.17

     Energy error            =      4.1E-06 Ry
     Gradient error          =      5.3E-04 Ry/Bohr

     number of scf cycles    =  11
     number of bfgs steps    =  10

     energy             old  =   -2728.5364917117 Ry
     energy             new  =   -2728.5364958121 Ry

     CASE: energy            _new < energy            _old

     new trust radius        =       0.0023884414 bohr
     new conv_thr            =            1.0E-11 Ry


ATOMIC_POSITIONS (angstrom)
Co              -1.5388261689        3.4429001765       10.6055993749
Mg              -0.0156513920        1.3634469502        6.4104651062
Mg               3.4771948276        0.5469126993       10.6055601423
Mg               2.5156701870        2.8690308001        6.3481880750
Mg               1.2160913238        3.4968934874        1.9836965307
Mg               1.1778804616        0.5519183676        2.0459724555
Mg               1.2420171085        2.1981400123        9.2242030664
Mg               2.4911002377       -0.0433683860        7.8556108999
Mg               0.9295933691        1.6571087776       11.9869029246
Mg               2.5207260859       -0.1182752367        4.9117625280
Mg               3.7674864195        2.0411839700        3.4823733230
Mg               3.6877980624        2.0293971640        0.5385054090
Ni               1.2515722540        2.0541133584        4.1970844534
Ni               2.4199537425       -0.1863546656       -0.1441391985
Ni               3.7760770666        2.1624913859        8.5382901836
Ni              -0.0091941564       -0.1428195855        4.2723381998
Ni              -0.0989521682       -0.2084195522       -0.1460888948
Ni               0.0027537563       -0.0322854119        8.6907708325



     Writing config-only to output data dir ./outdir/mg2ni_co.save/ :
     XML data file
     NEW-OLD atomic charge density approx. for the potential

     Check: negative core charge=   -0.000003
     Generating pointlists ...

     total cpu time spent up to now is    10537.8 secs

     Self-consistent Calculation

     iteration #  1     ecut=    60.00 Ry     beta= 0.30
     Davidson diagonalization with overlap
     ethr =  1.00E-06,  avg # of iterations =  3.0

     total cpu time spent up to now is    10597.1 secs

     total energy              =   -2728.53638945 Ry
     estimated scf accuracy    <       0.00024694 Ry

     total magnetization       =     2.07 Bohr mag/cell
     absolute magnetization    =     2.84 Bohr mag/cell

     iteration #  2     ecut=    60.00 Ry     beta= 0.30
     Davidson diagonalization with overlap
     ethr =  1.68E-07,  avg # of iterations =  2.8

     total cpu time spent up to now is    10646.2 secs

     total energy              =   -2728.53574529 Ry
     estimated scf accuracy    <       0.03594490 Ry

     total magnetization       =     1.93 Bohr mag/cell
     absolute magnetization    =     2.70 Bohr mag/cell

     iteration #  3     ecut=    60.00 Ry     beta= 0.30
     Davidson diagonalization with overlap
     ethr =  1.68E-07,  avg # of iterations =  2.7

     total cpu time spent up to now is    10694.3 secs

     total energy              =   -2728.53649991 Ry
     estimated scf accuracy    <       0.00001474 Ry

     total magnetization       =     2.06 Bohr mag/cell
     absolute magnetization    =     2.83 Bohr mag/cell

     iteration #  4     ecut=    60.00 Ry     beta= 0.30
     Davidson diagonalization with overlap
     ethr =  1.00E-08,  avg # of iterations =  2.0

     total cpu time spent up to now is    10732.5 secs

     total energy              =   -2728.53650097 Ry
     estimated scf accuracy    <       0.00001242 Ry

     total magnetization       =     2.06 Bohr mag/cell
     absolute magnetization    =     2.83 Bohr mag/cell

     iteration #  5     ecut=    60.00 Ry     beta= 0.30
     Davidson diagonalization with overlap
     ethr =  8.45E-09,  avg # of iterations =  1.5

     total cpu time spent up to now is    10770.3 secs

     total energy              =   -2728.53650171 Ry
     estimated scf accuracy    <       0.00000422 Ry

     total magnetization       =     2.06 Bohr mag/cell
     absolute magnetization    =     2.83 Bohr mag/cell

     iteration #  6     ecut=    60.00 Ry     beta= 0.30
     Davidson diagonalization with overlap
     ethr =  2.87E-09,  avg # of iterations =  1.8

     total cpu time spent up to now is    10809.0 secs

     total energy              =   -2728.53650189 Ry
     estimated scf accuracy    <       0.00000196 Ry

     total magnetization       =     2.06 Bohr mag/cell
     absolute magnetization    =     2.83 Bohr mag/cell

     iteration #  7     ecut=    60.00 Ry     beta= 0.30
     Davidson diagonalization with overlap
     ethr =  1.33E-09,  avg # of iterations =  1.0

     total cpu time spent up to now is    10839.5 secs

     total energy              =   -2728.53650199 Ry
     estimated scf accuracy    <       0.00000109 Ry

     total magnetization       =     2.06 Bohr mag/cell
     absolute magnetization    =     2.83 Bohr mag/cell

     iteration #  8     ecut=    60.00 Ry     beta= 0.30
     Davidson diagonalization with overlap
     ethr =  7.40E-10,  avg # of iterations =  1.0

     total cpu time spent up to now is    10869.9 secs

     total energy              =   -2728.53650204 Ry
     estimated scf accuracy    <       0.00000024 Ry

     total magnetization       =     2.06 Bohr mag/cell
     absolute magnetization    =     2.83 Bohr mag/cell

     iteration #  9     ecut=    60.00 Ry     beta= 0.30
     Davidson diagonalization with overlap
     ethr =  1.63E-10,  avg # of iterations =  1.6

     total cpu time spent up to now is    10906.7 secs

     total energy              =   -2728.53650201 Ry
     estimated scf accuracy    <       0.00000134 Ry

     total magnetization       =     2.06 Bohr mag/cell
     absolute magnetization    =     2.83 Bohr mag/cell

     iteration # 10     ecut=    60.00 Ry     beta= 0.30
     Davidson diagonalization with overlap
     ethr =  1.63E-10,  avg # of iterations =  1.3

     total cpu time spent up to now is    10940.7 secs

     total energy              =   -2728.53650206 Ry
     estimated scf accuracy    <       0.00000005 Ry

     total magnetization       =     2.06 Bohr mag/cell
     absolute magnetization    =     2.83 Bohr mag/cell

     iteration # 11     ecut=    60.00 Ry     beta= 0.30
     Davidson diagonalization with overlap
     ethr =  3.30E-11,  avg # of iterations =  4.4

     total cpu time spent up to now is    11004.7 secs

     total energy              =   -2728.53650207 Ry
     estimated scf accuracy    <       0.00000008 Ry

     total magnetization       =     2.06 Bohr mag/cell
     absolute magnetization    =     2.83 Bohr mag/cell

     iteration # 12     ecut=    60.00 Ry     beta= 0.30
     Davidson diagonalization with overlap
     ethr =  3.30E-11,  avg # of iterations =  2.4

     total cpu time spent up to now is    11047.5 secs

     total energy              =   -2728.53650207 Ry
     estimated scf accuracy    <          1.4E-09 Ry

     total magnetization       =     2.06 Bohr mag/cell
     absolute magnetization    =     2.83 Bohr mag/cell

     iteration # 13     ecut=    60.00 Ry     beta= 0.30
     Davidson diagonalization with overlap
     ethr =  9.51E-13,  avg # of iterations =  4.7

     total cpu time spent up to now is    11130.0 secs

     total energy              =   -2728.53650208 Ry
     estimated scf accuracy    <          1.7E-09 Ry

     total magnetization       =     2.06 Bohr mag/cell
     absolute magnetization    =     2.83 Bohr mag/cell

     iteration # 14     ecut=    60.00 Ry     beta= 0.30
     Davidson diagonalization with overlap
     ethr =  9.51E-13,  avg # of iterations =  1.3

     total cpu time spent up to now is    11164.3 secs

     total energy              =   -2728.53650208 Ry
     estimated scf accuracy    <          5.9E-10 Ry

     total magnetization       =     2.06 Bohr mag/cell
     absolute magnetization    =     2.83 Bohr mag/cell

     iteration # 15     ecut=    60.00 Ry     beta= 0.30
     Davidson diagonalization with overlap
     ethr =  4.01E-13,  avg # of iterations =  1.8

     total cpu time spent up to now is    11201.2 secs

     total energy              =   -2728.53650208 Ry
     estimated scf accuracy    <          2.3E-10 Ry

     total magnetization       =     2.06 Bohr mag/cell
     absolute magnetization    =     2.83 Bohr mag/cell

     iteration # 16     ecut=    60.00 Ry     beta= 0.30
     Davidson diagonalization with overlap
     ethr =  1.55E-13,  avg # of iterations =  1.1

     total cpu time spent up to now is    11232.5 secs

     total energy              =   -2728.53650208 Ry
     estimated scf accuracy    <          3.3E-10 Ry

     total magnetization       =     2.06 Bohr mag/cell
     absolute magnetization    =     2.83 Bohr mag/cell

     iteration # 17     ecut=    60.00 Ry     beta= 0.30
     Davidson diagonalization with overlap
     ethr =  1.55E-13,  avg # of iterations =  1.0

     total cpu time spent up to now is    11262.9 secs

     total energy              =   -2728.53650208 Ry
     estimated scf accuracy    <          5.0E-10 Ry

     total magnetization       =     2.06 Bohr mag/cell
     absolute magnetization    =     2.83 Bohr mag/cell

     iteration # 18     ecut=    60.00 Ry     beta= 0.30
     Davidson diagonalization with overlap
     ethr =  1.55E-13,  avg # of iterations =  1.0

     total cpu time spent up to now is    11293.3 secs

     total energy              =   -2728.53650208 Ry
     estimated scf accuracy    <          5.0E-11 Ry

     total magnetization       =     2.06 Bohr mag/cell
     absolute magnetization    =     2.83 Bohr mag/cell

     iteration # 19     ecut=    60.00 Ry     beta= 0.30
     Davidson diagonalization with overlap
     ethr =  1.00E-13,  avg # of iterations =  1.0

     total cpu time spent up to now is    11323.7 secs

     total energy              =   -2728.53650208 Ry
     estimated scf accuracy    <          5.0E-11 Ry

     total magnetization       =     2.06 Bohr mag/cell
     absolute magnetization    =     2.83 Bohr mag/cell

     iteration # 20     ecut=    60.00 Ry     beta= 0.30
     Davidson diagonalization with overlap
     ethr =  1.00E-13,  avg # of iterations =  1.0
 
     Magnetic moment per site  (integrated on atomic sphere of radius R)
     atom   1 (R=0.194)  charge= 15.2518  magn=  1.5849
     atom   2 (R=0.212)  charge=  0.6235  magn= -0.0030
     atom   3 (R=0.212)  charge=  0.6214  magn= -0.0146
     atom   4 (R=0.212)  charge=  0.6271  magn= -0.0020
     atom   5 (R=0.212)  charge=  0.6235  magn= -0.0030
     atom   6 (R=0.212)  charge=  0.6271  magn= -0.0020
     atom   7 (R=0.212)  charge=  0.6342  magn= -0.0075
     atom   8 (R=0.212)  charge=  0.6237  magn= -0.0032
     atom   9 (R=0.212)  charge=  0.6342  magn= -0.0075
     atom  10 (R=0.212)  charge=  0.6353  magn=  0.0027
     atom  11 (R=0.212)  charge=  0.6353  magn=  0.0027
     atom  12 (R=0.212)  charge=  0.6237  magn= -0.0032
     atom  13 (R=0.194)  charge= 16.4801  magn=  0.0295
     atom  14 (R=0.194)  charge= 16.4833  magn=  0.1720
     atom  15 (R=0.194)  charge= 16.4833  magn=  0.1720
     atom  16 (R=0.194)  charge= 16.4985  magn= -0.0356
     atom  17 (R=0.194)  charge= 16.4855  magn=  0.1743
     atom  18 (R=0.194)  charge= 16.4855  magn=  0.1743

     total cpu time spent up to now is    11354.1 secs

     End of self-consistent calculation

     Number of k-points >= 100: set verbosity='high' to print the bands.

     the Fermi energy is     8.0247 ev

!    total energy              =   -2728.53650208 Ry
     estimated scf accuracy    <          9.1E-12 Ry
     smearing contrib. (-TS)   =       0.00060283 Ry
     internal energy E=F+TS    =   -2728.53710491 Ry

     The total energy is F=E-TS. E is the sum of the following terms:
     one-electron contribution =   -2544.22973995 Ry
     hartree contribution      =    1321.04166315 Ry
     xc contribution           =    -264.42545782 Ry
     ewald contribution        =    -896.02044186 Ry
     DFT-D3 Dispersion         =      -0.45148141 Ry
     one-center paw contrib.   =    -344.45164701 Ry

     total magnetization       =     2.06 Bohr mag/cell
     absolute magnetization    =     2.83 Bohr mag/cell

     convergence has been achieved in  20 iterations

     Forces acting on atoms (cartesian axes, Ry/au):

     atom    1 type  1   force =     0.00006162   -0.00003542    0.00000102
     atom    2 type  2   force =    -0.00022924   -0.00005708    0.00036897
     atom    3 type  2   force =     0.00041599   -0.00024014    0.00000005
     atom    4 type  2   force =    -0.00019549   -0.00007006   -0.00004347
     atom    5 type  2   force =    -0.00006544    0.00022724   -0.00036952
     atom    6 type  2   force =    -0.00003707    0.00020434    0.00004298
     atom    7 type  2   force =    -0.00042021   -0.00030638    0.00020797
     atom    8 type  2   force =     0.00046428   -0.00020050    0.00019323
     atom    9 type  2   force =     0.00005504    0.00051718   -0.00020817
     atom   10 type  2   force =    -0.00012315    0.00006521    0.00001985
     atom   11 type  2   force =    -0.00011802    0.00007411   -0.00001993
     atom   12 type  2   force =     0.00040558   -0.00030226   -0.00019337
     atom   13 type  3   force =    -0.00018669    0.00010784   -0.00000071
     atom   14 type  3   force =     0.00042128    0.00012866   -0.00014212
     atom   15 type  3   force =     0.00009903   -0.00042900    0.00014285
     atom   16 type  3   force =    -0.00024532    0.00014166   -0.00000058
     atom   17 type  3   force =    -0.00020091    0.00000120    0.00001543
     atom   18 type  3   force =    -0.00010128    0.00017340   -0.00001447

     Total force =     0.001612     Total SCF correction =     0.000013


     Computing stress (Cartesian axis) and pressure

          total   stress  (Ry/bohr**3)                   (kbar)     P=        4.57
   0.00003830  -0.00000438   0.00000256            5.63       -0.64        0.38
  -0.00000438   0.00003324   0.00000444           -0.64        4.89        0.65
   0.00000256   0.00000444   0.00002161            0.38        0.65        3.18

     Energy error            =      6.3E-06 Ry
     Gradient error          =      5.2E-04 Ry/Bohr

     number of scf cycles    =  12
     number of bfgs steps    =  11

     energy             old  =   -2728.5364958121 Ry
     energy             new  =   -2728.5365020761 Ry

     CASE: energy            _new < energy            _old

     new trust radius        =       0.0035826622 bohr
     new conv_thr            =            1.0E-11 Ry


ATOMIC_POSITIONS (angstrom)
Co              -1.5377042606        3.4422525265       10.6056000400
Mg              -0.0163569402        1.3628218310        6.4104659952
Mg               3.4784619207        0.5461808339       10.6055595911
Mg               2.5153880550        2.8686355794        6.3474895234
Mg               1.2162795659        3.4978179748        1.9836956704
Mg               1.1780813258        0.5523607846        2.0466710865
Mg               1.2417942558        2.1968384161        9.2247639540
Mg               2.4911053366       -0.0450535290        7.8552843956
Mg               0.9306079405        1.6579529804       11.9863417011
Mg               2.5190900734       -0.1174010704        4.9113727786
Mg               3.7659114871        2.0421643134        3.4827642344
Mg               3.6892591493        2.0302349672        0.5388314303
Ni               1.2499384760        2.0550568141        4.1970843578
Ni               2.4210936618       -0.1852727744       -0.1437167102
Ni               3.7757108913        2.1609622661        8.5378675708
Ni              -0.0107324597       -0.1419311111        4.2723381319
Ni              -0.0977361871       -0.2081154280       -0.1458150632
Ni               0.0030987255       -0.0334910632        8.6904967236



     Writing config-only to output data dir ./outdir/mg2ni_co.save/ :
     XML data file
     NEW-OLD atomic charge density approx. for the potential

     Check: negative core charge=   -0.000003
     Generating pointlists ...

     total cpu time spent up to now is    11381.0 secs

     Self-consistent Calculation

     iteration #  1     ecut=    60.00 Ry     beta= 0.30
     Davidson diagonalization with overlap
     ethr =  1.00E-06,  avg # of iterations =  3.0

     total cpu time spent up to now is    11441.6 secs

     total energy              =   -2728.53627405 Ry
     estimated scf accuracy    <       0.00052084 Ry

     total magnetization       =     2.08 Bohr mag/cell
     absolute magnetization    =     2.84 Bohr mag/cell

     iteration #  2     ecut=    60.00 Ry     beta= 0.30
     Davidson diagonalization with overlap
     ethr =  3.54E-07,  avg # of iterations =  3.1

     total cpu time spent up to now is    11495.3 secs

     total energy              =   -2728.53492986 Ry
     estimated scf accuracy    <       0.07484847 Ry

     total magnetization       =     1.88 Bohr mag/cell
     absolute magnetization    =     2.64 Bohr mag/cell

     iteration #  3     ecut=    60.00 Ry     beta= 0.30
     Davidson diagonalization with overlap
     ethr =  3.54E-07,  avg # of iterations =  3.1

     total cpu time spent up to now is    11549.2 secs

     total energy              =   -2728.53650566 Ry
     estimated scf accuracy    <       0.00003256 Ry

     total magnetization       =     2.06 Bohr mag/cell
     absolute magnetization    =     2.83 Bohr mag/cell

     iteration #  4     ecut=    60.00 Ry     beta= 0.30
     Davidson diagonalization with overlap
     ethr =  2.21E-08,  avg # of iterations =  2.0

     total cpu time spent up to now is    11587.6 secs

     total energy              =   -2728.53650763 Ry
     estimated scf accuracy    <       0.00003476 Ry

     total magnetization       =     2.06 Bohr mag/cell
     absolute magnetization    =     2.83 Bohr mag/cell

     iteration #  5     ecut=    60.00 Ry     beta= 0.30
     Davidson diagonalization with overlap
     ethr =  2.21E-08,  avg # of iterations =  1.0

     total cpu time spent up to now is    11618.1 secs

     total energy              =   -2728.53650935 Ry
     estimated scf accuracy    <       0.00001272 Ry

     total magnetization       =     2.06 Bohr mag/cell
     absolute magnetization    =     2.83 Bohr mag/cell

     iteration #  6     ecut=    60.00 Ry     beta= 0.30
     Davidson diagonalization with overlap
     ethr =  8.65E-09,  avg # of iterations =  1.0

     total cpu time spent up to now is    11648.8 secs

     total energy              =   -2728.53650985 Ry
     estimated scf accuracy    <       0.00000878 Ry

     total magnetization       =     2.06 Bohr mag/cell
     absolute magnetization    =     2.83 Bohr mag/cell

     iteration #  7     ecut=    60.00 Ry     beta= 0.30
     Davidson diagonalization with overlap
     ethr =  5.98E-09,  avg # of iterations =  1.0

     total cpu time spent up to now is    11679.2 secs

     total energy              =   -2728.53651030 Ry
     estimated scf accuracy    <       0.00000112 Ry

     total magnetization       =     2.06 Bohr mag/cell
     absolute magnetization    =     2.83 Bohr mag/cell

     iteration #  8     ecut=    60.00 Ry     beta= 0.30
     Davidson diagonalization with overlap
     ethr =  7.64E-10,  avg # of iterations =  1.7

     total cpu time spent up to now is    11717.8 secs

     total energy              =   -2728.53651038 Ry
     estimated scf accuracy    <       0.00000035 Ry

     total magnetization       =     2.06 Bohr mag/cell
     absolute magnetization    =     2.83 Bohr mag/cell

     iteration #  9     ecut=    60.00 Ry     beta= 0.30
     Davidson diagonalization with overlap
     ethr =  2.41E-10,  avg # of iterations =  2.0

     total cpu time spent up to now is    11754.8 secs

     total energy              =   -2728.53651038 Ry
     estimated scf accuracy    <       0.00000053 Ry

     total magnetization       =     2.06 Bohr mag/cell
     absolute magnetization    =     2.83 Bohr mag/cell

     iteration # 10     ecut=    60.00 Ry     beta= 0.30
     Davidson diagonalization with overlap
     ethr =  2.41E-10,  avg # of iterations =  1.1

     total cpu time spent up to now is    11787.1 secs

     total energy              =   -2728.53651040 Ry
     estimated scf accuracy    <       0.00000040 Ry

     total magnetization       =     2.06 Bohr mag/cell
     absolute magnetization    =     2.83 Bohr mag/cell

     iteration # 11     ecut=    60.00 Ry     beta= 0.30
     Davidson diagonalization with overlap
     ethr =  2.41E-10,  avg # of iterations =  1.3

     total cpu time spent up to now is    11821.2 secs

     total energy              =   -2728.53651042 Ry
     estimated scf accuracy    <       0.00000024 Ry

     total magnetization       =     2.06 Bohr mag/cell
     absolute magnetization    =     2.83 Bohr mag/cell

     iteration # 12     ecut=    60.00 Ry     beta= 0.30
     Davidson diagonalization with overlap
     ethr =  1.64E-10,  avg # of iterations =  1.1

     total cpu time spent up to now is    11853.0 secs

     total energy              =   -2728.53651043 Ry
     estimated scf accuracy    <          2.9E-09 Ry

     total magnetization       =     2.06 Bohr mag/cell
     absolute magnetization    =     2.83 Bohr mag/cell

     iteration # 13     ecut=    60.00 Ry     beta= 0.30
     Davidson diagonalization with overlap
     ethr =  1.95E-12,  avg # of iterations =  5.0

     total cpu time spent up to now is    11938.2 secs

     total energy              =   -2728.53651044 Ry
     estimated scf accuracy    <          3.0E-09 Ry

     total magnetization       =     2.06 Bohr mag/cell
     absolute magnetization    =     2.83 Bohr mag/cell

     iteration # 14     ecut=    60.00 Ry     beta= 0.30
     Davidson diagonalization with overlap
     ethr =  1.95E-12,  avg # of iterations =  1.3

     total cpu time spent up to now is    11973.4 secs

     total energy              =   -2728.53651044 Ry
     estimated scf accuracy    <          2.8E-09 Ry

     total magnetization       =     2.06 Bohr mag/cell
     absolute magnetization    =     2.83 Bohr mag/cell

     iteration # 15     ecut=    60.00 Ry     beta= 0.30
     Davidson diagonalization with overlap
     ethr =  1.93E-12,  avg # of iterations =  1.1

     total cpu time spent up to now is    12005.8 secs

     total energy              =   -2728.53651044 Ry
     estimated scf accuracy    <          4.8E-10 Ry

     total magnetization       =     2.06 Bohr mag/cell
     absolute magnetization    =     2.83 Bohr mag/cell

     iteration # 16     ecut=    60.00 Ry     beta= 0.30
     Davidson diagonalization with overlap
     ethr =  3.28E-13,  avg # of iterations =  1.4

     total cpu time spent up to now is    12041.7 secs

     total energy              =   -2728.53651044 Ry
     estimated scf accuracy    <          1.1E-09 Ry

     total magnetization       =     2.06 Bohr mag/cell
     absolute magnetization    =     2.83 Bohr mag/cell

     iteration # 17     ecut=    60.00 Ry     beta= 0.30
     Davidson diagonalization with overlap
     ethr =  3.28E-13,  avg # of iterations =  1.0

     total cpu time spent up to now is    12072.2 secs

     total energy              =   -2728.53651044 Ry
     estimated scf accuracy    <          9.9E-10 Ry

     total magnetization       =     2.06 Bohr mag/cell
     absolute magnetization    =     2.83 Bohr mag/cell

     iteration # 18     ecut=    60.00 Ry     beta= 0.30
     Davidson diagonalization with overlap
     ethr =  3.28E-13,  avg # of iterations =  1.0

     total cpu time spent up to now is    12102.6 secs

     total energy              =   -2728.53651044 Ry
     estimated scf accuracy    <          8.8E-11 Ry

     total magnetization       =     2.06 Bohr mag/cell
     absolute magnetization    =     2.83 Bohr mag/cell

     iteration # 19     ecut=    60.00 Ry     beta= 0.30
     Davidson diagonalization with overlap
     ethr =  1.00E-13,  avg # of iterations =  2.0

     total cpu time spent up to now is    12140.7 secs

     total energy              =   -2728.53651044 Ry
     estimated scf accuracy    <          3.6E-10 Ry

     total magnetization       =     2.06 Bohr mag/cell
     absolute magnetization    =     2.83 Bohr mag/cell

     iteration # 20     ecut=    60.00 Ry     beta= 0.30
     Davidson diagonalization with overlap
     ethr =  1.00E-13,  avg # of iterations =  1.5

     total cpu time spent up to now is    12175.3 secs

     total energy              =   -2728.53651044 Ry
     estimated scf accuracy    <          9.6E-11 Ry

     total magnetization       =     2.06 Bohr mag/cell
     absolute magnetization    =     2.83 Bohr mag/cell

     iteration # 21     ecut=    60.00 Ry     beta= 0.30
     Davidson diagonalization with overlap
     ethr =  1.00E-13,  avg # of iterations =  1.0

     total cpu time spent up to now is    12205.7 secs

     total energy              =   -2728.53651044 Ry
     estimated scf accuracy    <          2.3E-11 Ry

     total magnetization       =     2.06 Bohr mag/cell
     absolute magnetization    =     2.83 Bohr mag/cell

     iteration # 22     ecut=    60.00 Ry     beta= 0.30
     Davidson diagonalization with overlap
     ethr =  1.00E-13,  avg # of iterations =  1.0
 
     Magnetic moment per site  (integrated on atomic sphere of radius R)
     atom   1 (R=0.194)  charge= 15.2515  magn=  1.5852
     atom   2 (R=0.212)  charge=  0.6237  magn= -0.0030
     atom   3 (R=0.212)  charge=  0.6214  magn= -0.0146
     atom   4 (R=0.212)  charge=  0.6270  magn= -0.0020
     atom   5 (R=0.212)  charge=  0.6237  magn= -0.0030
     atom   6 (R=0.212)  charge=  0.6270  magn= -0.0020
     atom   7 (R=0.212)  charge=  0.6341  magn= -0.0075
     atom   8 (R=0.212)  charge=  0.6236  magn= -0.0032
     atom   9 (R=0.212)  charge=  0.6341  magn= -0.0075
     atom  10 (R=0.212)  charge=  0.6354  magn=  0.0027
     atom  11 (R=0.212)  charge=  0.6354  magn=  0.0027
     atom  12 (R=0.212)  charge=  0.6236  magn= -0.0032
     atom  13 (R=0.194)  charge= 16.4802  magn=  0.0295
     atom  14 (R=0.194)  charge= 16.4832  magn=  0.1717
     atom  15 (R=0.194)  charge= 16.4832  magn=  0.1717
     atom  16 (R=0.194)  charge= 16.4986  magn= -0.0356
     atom  17 (R=0.194)  charge= 16.4855  magn=  0.1743
     atom  18 (R=0.194)  charge= 16.4855  magn=  0.1743

     total cpu time spent up to now is    12236.1 secs

     End of self-consistent calculation

     Number of k-points >= 100: set verbosity='high' to print the bands.

     the Fermi energy is     8.0246 ev

!    total energy              =   -2728.53651044 Ry
     estimated scf accuracy    <          6.0E-12 Ry
     smearing contrib. (-TS)   =       0.00060283 Ry
     internal energy E=F+TS    =   -2728.53711328 Ry

     The total energy is F=E-TS. E is the sum of the following terms:
     one-electron contribution =   -2543.93966379 Ry
     hartree contribution      =    1320.89713774 Ry
     xc contribution           =    -264.42541331 Ry
     ewald contribution        =    -896.16604028 Ry
     DFT-D3 Dispersion         =      -0.45148100 Ry
     one-center paw contrib.   =    -344.45165263 Ry

     total magnetization       =     2.06 Bohr mag/cell
     absolute magnetization    =     2.83 Bohr mag/cell

     convergence has been achieved in  22 iterations

     Forces acting on atoms (cartesian axes, Ry/au):

     atom    1 type  1   force =     0.00005722   -0.00003312    0.00000096
     atom    2 type  2   force =    -0.00016910   -0.00000957    0.00040334
     atom    3 type  2   force =     0.00035951   -0.00020758    0.00000012
     atom    4 type  2   force =    -0.00025178   -0.00009953    0.00004972
     atom    5 type  2   force =    -0.00007656    0.00015129   -0.00040392
     atom    6 type  2   force =    -0.00003972    0.00026778   -0.00005031
     atom    7 type  2   force =    -0.00035184   -0.00029103    0.00000691
     atom    8 type  2   force =     0.00047299   -0.00011062    0.00026815
     atom    9 type  2   force =     0.00007596    0.00045027   -0.00000719
     atom   10 type  2   force =    -0.00006637    0.00003999    0.00007485
     atom   11 type  2   force =    -0.00006781    0.00003750   -0.00007519
     atom   12 type  2   force =     0.00033205   -0.00035472   -0.00026825
     atom   13 type  3   force =    -0.00016580    0.00009577   -0.00000072
     atom   14 type  3   force =     0.00034218    0.00005848   -0.00019550
     atom   15 type  3   force =     0.00012021   -0.00032477    0.00019655
     atom   16 type  3   force =    -0.00022862    0.00013198   -0.00000046
     atom   17 type  3   force =    -0.00016505    0.00011006   -0.00000134
     atom   18 type  3   force =    -0.00017750    0.00008783    0.00000229

     Total force =     0.001507     Total SCF correction =     0.000008


     Computing stress (Cartesian axis) and pressure

          total   stress  (Ry/bohr**3)                   (kbar)     P=        4.54
   0.00003791  -0.00000426   0.00000262            5.58       -0.63        0.39
  -0.00000426   0.00003299   0.00000454           -0.63        4.85        0.67
   0.00000262   0.00000454   0.00002169            0.39        0.67        3.19

     Energy error            =      8.4E-06 Ry
     Gradient error          =      4.7E-04 Ry/Bohr

     number of scf cycles    =  13
     number of bfgs steps    =  12

     energy             old  =   -2728.5365020761 Ry
     energy             new  =   -2728.5365104422 Ry

     CASE: energy            _new < energy            _old

     new trust radius        =       0.0053739932 bohr
     new conv_thr            =            1.0E-11 Ry


ATOMIC_POSITIONS (angstrom)
Co              -1.5360380429        3.4412905390       10.6056018285
Mg              -0.0174533649        1.3619148844        6.4106693531
Mg               3.4804716077        0.5450200701       10.6055588026
Mg               2.5148393281        2.8680019239        6.3465174497
Mg               1.2165161165        3.4992222854        1.9834920052
Mg               1.1783552084        0.5531534888        2.0476428938
Mg               1.2413190636        2.1947952622        9.2255324819
Mg               2.4913386291       -0.0475462976        7.8549569852
Mg               0.9321379114        1.6593866904       11.9855724342
Mg               2.5166790885       -0.1161094695        4.9108553706
Mg               3.7635876097        2.0436073491        3.4832830347
Mg               3.6915332431        2.0312786080        0.5391580329
Ni               1.2474758003        2.0564789239        4.1970837127
Ni               2.4229011059       -0.1836832409       -0.1432074728
Ni               3.7752391033        2.1586015169        8.5373590135
Ni              -0.0130863315       -0.1405716279        4.2723377371
Ni              -0.0960244468       -0.2075889099       -0.1454204972
Ni               0.0034993874       -0.0352376851        8.6901022456



     Writing config-only to output data dir ./outdir/mg2ni_co.save/ :
     XML data file
     NEW-OLD atomic charge density approx. for the potential

     Check: negative core charge=   -0.000003
     Generating pointlists ...

     total cpu time spent up to now is    12262.9 secs

     Self-consistent Calculation

     iteration #  1     ecut=    60.00 Ry     beta= 0.30
     Davidson diagonalization with overlap
     ethr =  1.00E-06,  avg # of iterations =  3.4

     total cpu time spent up to now is    12330.1 secs

     total energy              =   -2728.53608140 Ry
     estimated scf accuracy    <       0.00097355 Ry

     total magnetization       =     2.08 Bohr mag/cell
     absolute magnetization    =     2.85 Bohr mag/cell

     iteration #  2     ecut=    60.00 Ry     beta= 0.30
     Davidson diagonalization with overlap
     ethr =  6.62E-07,  avg # of iterations =  3.4

     total cpu time spent up to now is    12387.0 secs

     total energy              =   -2728.53361052 Ry
     estimated scf accuracy    <       0.13721261 Ry

     total magnetization       =     1.81 Bohr mag/cell
     absolute magnetization    =     2.58 Bohr mag/cell

     iteration #  3     ecut=    60.00 Ry     beta= 0.30
     Davidson diagonalization with overlap
     ethr =  6.62E-07,  avg # of iterations =  3.4

     total cpu time spent up to now is    12444.2 secs

     total energy              =   -2728.53650768 Ry
     estimated scf accuracy    <       0.00008736 Ry

     total magnetization       =     2.06 Bohr mag/cell
     absolute magnetization    =     2.83 Bohr mag/cell

     iteration #  4     ecut=    60.00 Ry     beta= 0.30
     Davidson diagonalization with overlap
     ethr =  5.94E-08,  avg # of iterations =  2.0

     total cpu time spent up to now is    12481.3 secs

     total energy              =   -2728.53651211 Ry
     estimated scf accuracy    <       0.00010263 Ry

     total magnetization       =     2.06 Bohr mag/cell
     absolute magnetization    =     2.83 Bohr mag/cell

     iteration #  5     ecut=    60.00 Ry     beta= 0.30
     Davidson diagonalization with overlap
     ethr =  5.94E-08,  avg # of iterations =  1.0

     total cpu time spent up to now is    12511.7 secs

     total energy              =   -2728.53651688 Ry
     estimated scf accuracy    <       0.00003067 Ry

     total magnetization       =     2.06 Bohr mag/cell
     absolute magnetization    =     2.83 Bohr mag/cell

     iteration #  6     ecut=    60.00 Ry     beta= 0.30
     Davidson diagonalization with overlap
     ethr =  2.09E-08,  avg # of iterations =  1.0

     total cpu time spent up to now is    12542.2 secs

     total energy              =   -2728.53651825 Ry
     estimated scf accuracy    <       0.00001737 Ry

     total magnetization       =     2.06 Bohr mag/cell
     absolute magnetization    =     2.83 Bohr mag/cell

     iteration #  7     ecut=    60.00 Ry     beta= 0.30
     Davidson diagonalization with overlap
     ethr =  1.18E-08,  avg # of iterations =  1.0

     total cpu time spent up to now is    12572.6 secs

     total energy              =   -2728.53651918 Ry
     estimated scf accuracy    <       0.00000222 Ry

     total magnetization       =     2.06 Bohr mag/cell
     absolute magnetization    =     2.83 Bohr mag/cell

     iteration #  8     ecut=    60.00 Ry     beta= 0.30
     Davidson diagonalization with overlap
     ethr =  1.51E-09,  avg # of iterations =  2.0

     total cpu time spent up to now is    12609.9 secs

     total energy              =   -2728.53651918 Ry
     estimated scf accuracy    <       0.00000316 Ry

     total magnetization       =     2.06 Bohr mag/cell
     absolute magnetization    =     2.83 Bohr mag/cell

     iteration #  9     ecut=    60.00 Ry     beta= 0.30
     Davidson diagonalization with overlap
     ethr =  1.51E-09,  avg # of iterations =  1.1

     total cpu time spent up to now is    12641.7 secs

     total energy              =   -2728.53651925 Ry
     estimated scf accuracy    <       0.00000442 Ry

     total magnetization       =     2.06 Bohr mag/cell
     absolute magnetization    =     2.83 Bohr mag/cell

     iteration # 10     ecut=    60.00 Ry     beta= 0.30
     Davidson diagonalization with overlap
     ethr =  1.51E-09,  avg # of iterations =  1.0

     total cpu time spent up to now is    12672.2 secs

     total energy              =   -2728.53651941 Ry
     estimated scf accuracy    <       0.00000020 Ry

     total magnetization       =     2.06 Bohr mag/cell
     absolute magnetization    =     2.83 Bohr mag/cell

     iteration # 11     ecut=    60.00 Ry     beta= 0.30
     Davidson diagonalization with overlap
     ethr =  1.35E-10,  avg # of iterations =  4.5

     total cpu time spent up to now is    12734.0 secs

     total energy              =   -2728.53651946 Ry
     estimated scf accuracy    <       0.00000033 Ry

     total magnetization       =     2.06 Bohr mag/cell
     absolute magnetization    =     2.83 Bohr mag/cell

     iteration # 12     ecut=    60.00 Ry     beta= 0.30
     Davidson diagonalization with overlap
     ethr =  1.35E-10,  avg # of iterations =  2.2

     total cpu time spent up to now is    12773.3 secs

     total energy              =   -2728.53651948 Ry
     estimated scf accuracy    <          7.9E-09 Ry

     total magnetization       =     2.06 Bohr mag/cell
     absolute magnetization    =     2.83 Bohr mag/cell

     iteration # 13     ecut=    60.00 Ry     beta= 0.30
     Davidson diagonalization with overlap
     ethr =  5.39E-12,  avg # of iterations =  3.6

     total cpu time spent up to now is    12837.5 secs

     total energy              =   -2728.53651948 Ry
     estimated scf accuracy    <          8.0E-09 Ry

     total magnetization       =     2.06 Bohr mag/cell
     absolute magnetization    =     2.83 Bohr mag/cell

     iteration # 14     ecut=    60.00 Ry     beta= 0.30
     Davidson diagonalization with overlap
     ethr =  5.39E-12,  avg # of iterations =  1.0

     total cpu time spent up to now is    12868.1 secs

     total energy              =   -2728.53651948 Ry
     estimated scf accuracy    <          2.6E-09 Ry

     total magnetization       =     2.06 Bohr mag/cell
     absolute magnetization    =     2.83 Bohr mag/cell

     iteration # 15     ecut=    60.00 Ry     beta= 0.30
     Davidson diagonalization with overlap
     ethr =  1.80E-12,  avg # of iterations =  2.0

     total cpu time spent up to now is    12907.5 secs

     total energy              =   -2728.53651948 Ry
     estimated scf accuracy    <          7.7E-09 Ry

     total magnetization       =     2.06 Bohr mag/cell
     absolute magnetization    =     2.83 Bohr mag/cell

     iteration # 16     ecut=    60.00 Ry     beta= 0.30
     Davidson diagonalization with overlap
     ethr =  1.80E-12,  avg # of iterations =  2.0

     total cpu time spent up to now is    12945.2 secs

     total energy              =   -2728.53651948 Ry
     estimated scf accuracy    <       0.00000003 Ry

     total magnetization       =     2.06 Bohr mag/cell
     absolute magnetization    =     2.83 Bohr mag/cell

     iteration # 17     ecut=    60.00 Ry     beta= 0.30
     Davidson diagonalization with overlap
     ethr =  1.80E-12,  avg # of iterations =  1.1

     total cpu time spent up to now is    12976.6 secs

     total energy              =   -2728.53651948 Ry
     estimated scf accuracy    <          4.1E-10 Ry

     total magnetization       =     2.06 Bohr mag/cell
     absolute magnetization    =     2.83 Bohr mag/cell

     iteration # 18     ecut=    60.00 Ry     beta= 0.30
     Davidson diagonalization with overlap
     ethr =  2.76E-13,  avg # of iterations =  2.0

     total cpu time spent up to now is    13016.0 secs

     total energy              =   -2728.53651948 Ry
     estimated scf accuracy    <          1.2E-10 Ry

     total magnetization       =     2.06 Bohr mag/cell
     absolute magnetization    =     2.83 Bohr mag/cell

     iteration # 19     ecut=    60.00 Ry     beta= 0.30
     Davidson diagonalization with overlap
     ethr =  1.00E-13,  avg # of iterations =  2.4

     total cpu time spent up to now is    13060.0 secs

     total energy              =   -2728.53651948 Ry
     estimated scf accuracy    <          6.7E-11 Ry

     total magnetization       =     2.06 Bohr mag/cell
     absolute magnetization    =     2.83 Bohr mag/cell

     iteration # 20     ecut=    60.00 Ry     beta= 0.30
     Davidson diagonalization with overlap
     ethr =  1.00E-13,  avg # of iterations =  1.1

     total cpu time spent up to now is    13092.6 secs

     total energy              =   -2728.53651948 Ry
     estimated scf accuracy    <          1.1E-10 Ry

     total magnetization       =     2.06 Bohr mag/cell
     absolute magnetization    =     2.83 Bohr mag/cell

     iteration # 21     ecut=    60.00 Ry     beta= 0.30
     Davidson diagonalization with overlap
     ethr =  1.00E-13,  avg # of iterations =  1.0

     total cpu time spent up to now is    13123.0 secs

     total energy              =   -2728.53651948 Ry
     estimated scf accuracy    <          1.5E-11 Ry

     total magnetization       =     2.06 Bohr mag/cell
     absolute magnetization    =     2.83 Bohr mag/cell

     iteration # 22     ecut=    60.00 Ry     beta= 0.30
     Davidson diagonalization with overlap
     ethr =  1.00E-13,  avg # of iterations =  1.0
 
     Magnetic moment per site  (integrated on atomic sphere of radius R)
     atom   1 (R=0.194)  charge= 15.2510  magn=  1.5858
     atom   2 (R=0.212)  charge=  0.6239  magn= -0.0030
     atom   3 (R=0.212)  charge=  0.6216  magn= -0.0146
     atom   4 (R=0.212)  charge=  0.6270  magn= -0.0020
     atom   5 (R=0.212)  charge=  0.6239  magn= -0.0030
     atom   6 (R=0.212)  charge=  0.6270  magn= -0.0020
     atom   7 (R=0.212)  charge=  0.6339  magn= -0.0075
     atom   8 (R=0.212)  charge=  0.6235  magn= -0.0032
     atom   9 (R=0.212)  charge=  0.6339  magn= -0.0075
     atom  10 (R=0.212)  charge=  0.6356  magn=  0.0027
     atom  11 (R=0.212)  charge=  0.6356  magn=  0.0027
     atom  12 (R=0.212)  charge=  0.6235  magn= -0.0032
     atom  13 (R=0.194)  charge= 16.4803  magn=  0.0295
     atom  14 (R=0.194)  charge= 16.4832  magn=  0.1714
     atom  15 (R=0.194)  charge= 16.4832  magn=  0.1714
     atom  16 (R=0.194)  charge= 16.4988  magn= -0.0356
     atom  17 (R=0.194)  charge= 16.4854  magn=  0.1742
     atom  18 (R=0.194)  charge= 16.4854  magn=  0.1742

     total cpu time spent up to now is    13153.4 secs

     End of self-consistent calculation

     Number of k-points >= 100: set verbosity='high' to print the bands.

     the Fermi energy is     8.0244 ev

!    total energy              =   -2728.53651948 Ry
     estimated scf accuracy    <          9.4E-12 Ry
     smearing contrib. (-TS)   =       0.00060302 Ry
     internal energy E=F+TS    =   -2728.53712250 Ry

     The total energy is F=E-TS. E is the sum of the following terms:
     one-electron contribution =   -2543.54022114 Ry
     hartree contribution      =    1320.69823080 Ry
     xc contribution           =    -264.42537311 Ry
     ewald contribution        =    -896.36661277 Ry
     DFT-D3 Dispersion         =      -0.45148063 Ry
     one-center paw contrib.   =    -344.45166565 Ry

     total magnetization       =     2.06 Bohr mag/cell
     absolute magnetization    =     2.83 Bohr mag/cell

     convergence has been achieved in  22 iterations

     Forces acting on atoms (cartesian axes, Ry/au):

     atom    1 type  1   force =     0.00004550   -0.00002668    0.00000107
     atom    2 type  2   force =    -0.00007265    0.00005034    0.00040645
     atom    3 type  2   force =     0.00025355   -0.00014640    0.00000019
     atom    4 type  2   force =    -0.00030956   -0.00013196    0.00018599
     atom    5 type  2   force =    -0.00008018    0.00003776   -0.00040703
     atom    6 type  2   force =    -0.00004050    0.00033414   -0.00018669
     atom    7 type  2   force =    -0.00019760   -0.00025930   -0.00026721
     atom    8 type  2   force =     0.00041848    0.00001063    0.00035823
     atom    9 type  2   force =     0.00012572    0.00030091    0.00026672
     atom   10 type  2   force =    -0.00000229    0.00000886    0.00015211
     atom   11 type  2   force =    -0.00000876   -0.00000238   -0.00015280
     atom   12 type  2   force =     0.00019984   -0.00036780   -0.00035834
     atom   13 type  3   force =    -0.00013058    0.00007549   -0.00000197
     atom   14 type  3   force =     0.00015518   -0.00003052   -0.00025623
     atom   15 type  3   force =     0.00010360   -0.00011859    0.00025879
     atom   16 type  3   force =    -0.00018685    0.00010783   -0.00000190
     atom   17 type  3   force =    -0.00003586    0.00025354   -0.00002546
     atom   18 type  3   force =    -0.00023704   -0.00009586    0.00002808

     Total force =     0.001457     Total SCF correction =     0.000009


     Computing stress (Cartesian axis) and pressure

          total   stress  (Ry/bohr**3)                   (kbar)     P=        4.52
   0.00003747  -0.00000409   0.00000276            5.51       -0.60        0.41
  -0.00000409   0.00003275   0.00000477           -0.60        4.82        0.70
   0.00000276   0.00000477   0.00002193            0.41        0.70        3.23

     Energy error            =      9.0E-06 Ry
     Gradient error          =      4.2E-04 Ry/Bohr

     number of scf cycles    =  14
     number of bfgs steps    =  13

     energy             old  =   -2728.5365104422 Ry
     energy             new  =   -2728.5365194830 Ry

     CASE: energy            _new < energy            _old

     new trust radius        =       0.0054059339 bohr
     new conv_thr            =            1.0E-11 Ry


ATOMIC_POSITIONS (angstrom)
Co              -1.5343919698        3.4403399019       10.6056049227
Mg              -0.0185699146        1.3610648972        6.4111418900
Mg               3.4825963640        0.5437929072       10.6055580936
Mg               2.5140977219        2.8672991823        6.3456975215
Mg               1.2166931407        3.5006155505        1.9830186859
Mg               1.1785925328        0.5541478505        2.0484619902
Mg               1.2407195756        2.1926253997        9.2261053481
Mg               2.4918439771       -0.0499600150        7.8548834790
Mg               0.9337155114        1.6609915040       11.9849983635
Mg               2.5143320729       -0.1148476033        4.9104591808
Mg               3.7613215324        2.0450099151        3.4836800115
Mg               3.6938748551        2.0320471594        0.5392305564
Ni               1.2449985167        2.0579095344        4.1970810418
Ni               2.4247622378       -0.1821622479       -0.1428863401
Ni               3.7748531346        2.1562287093        8.5370410511
Ni              -0.0154952103       -0.1391804253        4.2723352828
Ni              -0.0943870193       -0.2069131306       -0.1450543431
Ni               0.0037339581       -0.0369947780        8.6897386757



     Writing config-only to output data dir ./outdir/mg2ni_co.save/ :
     XML data file
     NEW-OLD atomic charge density approx. for the potential

     Check: negative core charge=   -0.000003
     Generating pointlists ...

     total cpu time spent up to now is    13180.2 secs

     Self-consistent Calculation

     iteration #  1     ecut=    60.00 Ry     beta= 0.30
     Davidson diagonalization with overlap
     ethr =  1.00E-06,  avg # of iterations =  3.4

     total cpu time spent up to now is    13247.8 secs

     total energy              =   -2728.53622925 Ry
     estimated scf accuracy    <       0.00067191 Ry

     total magnetization       =     2.08 Bohr mag/cell
     absolute magnetization    =     2.84 Bohr mag/cell

     iteration #  2     ecut=    60.00 Ry     beta= 0.30
     Davidson diagonalization with overlap
     ethr =  4.57E-07,  avg # of iterations =  3.2

     total cpu time spent up to now is    13303.1 secs

     total energy              =   -2728.53455758 Ry
     estimated scf accuracy    <       0.09272522 Ry

     total magnetization       =     1.86 Bohr mag/cell
     absolute magnetization    =     2.62 Bohr mag/cell

     iteration #  3     ecut=    60.00 Ry     beta= 0.30
     Davidson diagonalization with overlap
     ethr =  4.57E-07,  avg # of iterations =  3.2

     total cpu time spent up to now is    13357.2 secs

     total energy              =   -2728.53651382 Ry
     estimated scf accuracy    <       0.00008188 Ry

     total magnetization       =     2.06 Bohr mag/cell
     absolute magnetization    =     2.83 Bohr mag/cell

     iteration #  4     ecut=    60.00 Ry     beta= 0.30
     Davidson diagonalization with overlap
     ethr =  5.57E-08,  avg # of iterations =  1.9

     total cpu time spent up to now is    13395.2 secs

     total energy              =   -2728.53651780 Ry
     estimated scf accuracy    <       0.00011281 Ry

     total magnetization       =     2.06 Bohr mag/cell
     absolute magnetization    =     2.83 Bohr mag/cell

     iteration #  5     ecut=    60.00 Ry     beta= 0.30
     Davidson diagonalization with overlap
     ethr =  5.57E-08,  avg # of iterations =  1.0

     total cpu time spent up to now is    13426.0 secs

     total energy              =   -2728.53652238 Ry
     estimated scf accuracy    <       0.00003172 Ry

     total magnetization       =     2.06 Bohr mag/cell
     absolute magnetization    =     2.83 Bohr mag/cell

     iteration #  6     ecut=    60.00 Ry     beta= 0.30
     Davidson diagonalization with overlap
     ethr =  2.16E-08,  avg # of iterations =  1.0

     total cpu time spent up to now is    13456.6 secs

     total energy              =   -2728.53652390 Ry
     estimated scf accuracy    <       0.00001642 Ry

     total magnetization       =     2.06 Bohr mag/cell
     absolute magnetization    =     2.83 Bohr mag/cell

     iteration #  7     ecut=    60.00 Ry     beta= 0.30
     Davidson diagonalization with overlap
     ethr =  1.12E-08,  avg # of iterations =  1.0

     total cpu time spent up to now is    13487.0 secs

     total energy              =   -2728.53652456 Ry
     estimated scf accuracy    <       0.00000654 Ry

     total magnetization       =     2.06 Bohr mag/cell
     absolute magnetization    =     2.83 Bohr mag/cell

     iteration #  8     ecut=    60.00 Ry     beta= 0.30
     Davidson diagonalization with overlap
     ethr =  4.45E-09,  avg # of iterations =  1.0

     total cpu time spent up to now is    13517.4 secs

     total energy              =   -2728.53652477 Ry
     estimated scf accuracy    <       0.00000403 Ry

     total magnetization       =     2.06 Bohr mag/cell
     absolute magnetization    =     2.83 Bohr mag/cell

     iteration #  9     ecut=    60.00 Ry     beta= 0.30
     Davidson diagonalization with overlap
     ethr =  2.74E-09,  avg # of iterations =  1.0

     total cpu time spent up to now is    13547.8 secs

     total energy              =   -2728.53652493 Ry
     estimated scf accuracy    <       0.00000092 Ry

     total magnetization       =     2.06 Bohr mag/cell
     absolute magnetization    =     2.83 Bohr mag/cell

     iteration # 10     ecut=    60.00 Ry     beta= 0.30
     Davidson diagonalization with overlap
     ethr =  6.27E-10,  avg # of iterations =  1.3

     total cpu time spent up to now is    13582.7 secs

     total energy              =   -2728.53652498 Ry
     estimated scf accuracy    <       0.00000023 Ry

     total magnetization       =     2.06 Bohr mag/cell
     absolute magnetization    =     2.83 Bohr mag/cell

     iteration # 11     ecut=    60.00 Ry     beta= 0.30
     Davidson diagonalization with overlap
     ethr =  1.58E-10,  avg # of iterations =  3.6

     total cpu time spent up to now is    13638.8 secs

     total energy              =   -2728.53652501 Ry
     estimated scf accuracy    <       0.00000017 Ry

     total magnetization       =     2.06 Bohr mag/cell
     absolute magnetization    =     2.83 Bohr mag/cell

     iteration # 12     ecut=    60.00 Ry     beta= 0.30
     Davidson diagonalization with overlap
     ethr =  1.17E-10,  avg # of iterations =  2.0

     total cpu time spent up to now is    13681.6 secs

     total energy              =   -2728.53652503 Ry
     estimated scf accuracy    <          6.9E-09 Ry

     total magnetization       =     2.06 Bohr mag/cell
     absolute magnetization    =     2.83 Bohr mag/cell

     iteration # 13     ecut=    60.00 Ry     beta= 0.30
     Davidson diagonalization with overlap
     ethr =  4.67E-12,  avg # of iterations =  4.1

     total cpu time spent up to now is    13760.8 secs

     total energy              =   -2728.53652504 Ry
     estimated scf accuracy    <       0.00000003 Ry

     total magnetization       =     2.06 Bohr mag/cell
     absolute magnetization    =     2.83 Bohr mag/cell

     iteration # 14     ecut=    60.00 Ry     beta= 0.30
     Davidson diagonalization with overlap
     ethr =  4.67E-12,  avg # of iterations =  2.3

     total cpu time spent up to now is    13802.6 secs

     total energy              =   -2728.53652504 Ry
     estimated scf accuracy    <          3.1E-09 Ry

     total magnetization       =     2.06 Bohr mag/cell
     absolute magnetization    =     2.83 Bohr mag/cell

     iteration # 15     ecut=    60.00 Ry     beta= 0.30
     Davidson diagonalization with overlap
     ethr =  2.09E-12,  avg # of iterations =  1.3

     total cpu time spent up to now is    13837.0 secs

     total energy              =   -2728.53652504 Ry
     estimated scf accuracy    <          1.1E-09 Ry

     total magnetization       =     2.06 Bohr mag/cell
     absolute magnetization    =     2.83 Bohr mag/cell

     iteration # 16     ecut=    60.00 Ry     beta= 0.30
     Davidson diagonalization with overlap
     ethr =  7.69E-13,  avg # of iterations =  2.0

     total cpu time spent up to now is    13875.4 secs

     total energy              =   -2728.53652504 Ry
     estimated scf accuracy    <       0.00000002 Ry

     total magnetization       =     2.06 Bohr mag/cell
     absolute magnetization    =     2.83 Bohr mag/cell

     iteration # 17     ecut=    60.00 Ry     beta= 0.30
     Davidson diagonalization with overlap
     ethr =  7.69E-13,  avg # of iterations =  1.5

     total cpu time spent up to now is    13912.8 secs

     total energy              =   -2728.53652504 Ry
     estimated scf accuracy    <          4.0E-10 Ry

     total magnetization       =     2.06 Bohr mag/cell
     absolute magnetization    =     2.83 Bohr mag/cell

     iteration # 18     ecut=    60.00 Ry     beta= 0.30
     Davidson diagonalization with overlap
     ethr =  2.72E-13,  avg # of iterations =  1.3

     total cpu time spent up to now is    13947.0 secs

     total energy              =   -2728.53652504 Ry
     estimated scf accuracy    <          1.9E-10 Ry

     total magnetization       =     2.06 Bohr mag/cell
     absolute magnetization    =     2.83 Bohr mag/cell

     iteration # 19     ecut=    60.00 Ry     beta= 0.30
     Davidson diagonalization with overlap
     ethr =  1.32E-13,  avg # of iterations =  2.0

     total cpu time spent up to now is    13983.8 secs

     total energy              =   -2728.53652504 Ry
     estimated scf accuracy    <          3.9E-10 Ry

     total magnetization       =     2.06 Bohr mag/cell
     absolute magnetization    =     2.83 Bohr mag/cell

     iteration # 20     ecut=    60.00 Ry     beta= 0.30
     Davidson diagonalization with overlap
     ethr =  1.32E-13,  avg # of iterations =  1.5

     total cpu time spent up to now is    14018.0 secs

     total energy              =   -2728.53652504 Ry
     estimated scf accuracy    <          1.8E-10 Ry

     total magnetization       =     2.06 Bohr mag/cell
     absolute magnetization    =     2.83 Bohr mag/cell

     iteration # 21     ecut=    60.00 Ry     beta= 0.30
     Davidson diagonalization with overlap
     ethr =  1.19E-13,  avg # of iterations =  1.0

     total cpu time spent up to now is    14048.4 secs

     total energy              =   -2728.53652504 Ry
     estimated scf accuracy    <          3.5E-11 Ry

     total magnetization       =     2.06 Bohr mag/cell
     absolute magnetization    =     2.83 Bohr mag/cell

     iteration # 22     ecut=    60.00 Ry     beta= 0.30
     Davidson diagonalization with overlap
     ethr =  1.00E-13,  avg # of iterations =  1.0

     total cpu time spent up to now is    14078.8 secs

     total energy              =   -2728.53652504 Ry
     estimated scf accuracy    <          8.8E-11 Ry

     total magnetization       =     2.06 Bohr mag/cell
     absolute magnetization    =     2.83 Bohr mag/cell

     iteration # 23     ecut=    60.00 Ry     beta= 0.30
     Davidson diagonalization with overlap
     ethr =  1.00E-13,  avg # of iterations =  1.0

     total cpu time spent up to now is    14109.2 secs

     total energy              =   -2728.53652504 Ry
     estimated scf accuracy    <          1.9E-11 Ry

     total magnetization       =     2.06 Bohr mag/cell
     absolute magnetization    =     2.83 Bohr mag/cell

     iteration # 24     ecut=    60.00 Ry     beta= 0.30
     Davidson diagonalization with overlap
     ethr =  1.00E-13,  avg # of iterations =  1.0
 
     Magnetic moment per site  (integrated on atomic sphere of radius R)
     atom   1 (R=0.194)  charge= 15.2506  magn=  1.5864
     atom   2 (R=0.212)  charge=  0.6241  magn= -0.0030
     atom   3 (R=0.212)  charge=  0.6217  magn= -0.0146
     atom   4 (R=0.212)  charge=  0.6269  magn= -0.0019
     atom   5 (R=0.212)  charge=  0.6241  magn= -0.0030
     atom   6 (R=0.212)  charge=  0.6269  magn= -0.0019
     atom   7 (R=0.212)  charge=  0.6337  magn= -0.0075
     atom   8 (R=0.212)  charge=  0.6235  magn= -0.0032
     atom   9 (R=0.212)  charge=  0.6337  magn= -0.0075
     atom  10 (R=0.212)  charge=  0.6357  magn=  0.0027
     atom  11 (R=0.212)  charge=  0.6357  magn=  0.0027
     atom  12 (R=0.212)  charge=  0.6235  magn= -0.0032
     atom  13 (R=0.194)  charge= 16.4803  magn=  0.0296
     atom  14 (R=0.194)  charge= 16.4832  magn=  0.1712
     atom  15 (R=0.194)  charge= 16.4832  magn=  0.1712
     atom  16 (R=0.194)  charge= 16.4989  magn= -0.0357
     atom  17 (R=0.194)  charge= 16.4854  magn=  0.1742
     atom  18 (R=0.194)  charge= 16.4854  magn=  0.1742

     total cpu time spent up to now is    14139.6 secs

     End of self-consistent calculation

     Number of k-points >= 100: set verbosity='high' to print the bands.

     the Fermi energy is     8.0243 ev

!    total energy              =   -2728.53652504 Ry
     estimated scf accuracy    <          4.1E-12 Ry
     smearing contrib. (-TS)   =       0.00060353 Ry
     internal energy E=F+TS    =   -2728.53712857 Ry

     The total energy is F=E-TS. E is the sum of the following terms:
     one-electron contribution =   -2543.20826082 Ry
     hartree contribution      =    1320.53289170 Ry
     xc contribution           =    -264.42536551 Ry
     ewald contribution        =    -896.53322791 Ry
     DFT-D3 Dispersion         =      -0.45148050 Ry
     one-center paw contrib.   =    -344.45168554 Ry

     total magnetization       =     2.06 Bohr mag/cell
     absolute magnetization    =     2.83 Bohr mag/cell

     convergence has been achieved in  24 iterations

     Forces acting on atoms (cartesian axes, Ry/au):

     atom    1 type  1   force =     0.00002510   -0.00001491   -0.00000042
     atom    2 type  2   force =     0.00002184    0.00008960    0.00034916
     atom    3 type  2   force =     0.00012949   -0.00007499    0.00000065
     atom    4 type  2   force =    -0.00032712   -0.00014489    0.00030107
     atom    5 type  2   force =    -0.00006699   -0.00006389   -0.00034954
     atom    6 type  2   force =    -0.00003807    0.00035580   -0.00030168
     atom    7 type  2   force =    -0.00000309   -0.00022507   -0.00047620
     atom    8 type  2   force =     0.00028535    0.00010964    0.00041249
     atom    9 type  2   force =     0.00019338    0.00011529    0.00047600
     atom   10 type  2   force =     0.00003363   -0.00001304    0.00021855
     atom   11 type  2   force =     0.00002816   -0.00002261   -0.00021941
     atom   12 type  2   force =     0.00004752   -0.00030178   -0.00041227
     atom   13 type  3   force =    -0.00009032    0.00005232   -0.00000020
     atom   14 type  3   force =    -0.00008670   -0.00009558   -0.00028983
     atom   15 type  3   force =     0.00003909    0.00012354    0.00029051
     atom   16 type  3   force =    -0.00012424    0.00007168    0.00000012
     atom   17 type  3   force =     0.00015889    0.00035328   -0.00004992
     atom   18 type  3   force =    -0.00022592   -0.00031437    0.00005092

     Total force =     0.001562     Total SCF correction =     0.000005


     Computing stress (Cartesian axis) and pressure

          total   stress  (Ry/bohr**3)                   (kbar)     P=        4.50
   0.00003706  -0.00000394   0.00000296            5.45       -0.58        0.43
  -0.00000394   0.00003252   0.00000512           -0.58        4.78        0.75
   0.00000296   0.00000512   0.00002213            0.43        0.75        3.26

     Energy error            =      5.6E-06 Ry
     Gradient error          =      4.8E-04 Ry/Bohr

     number of scf cycles    =  15
     number of bfgs steps    =  14

     energy             old  =   -2728.5365194830 Ry
     energy             new  =   -2728.5365250446 Ry

     CASE: energy            _new < energy            _old

     new trust radius        =       0.0027852609 bohr
     new conv_thr            =            1.0E-11 Ry


ATOMIC_POSITIONS (angstrom)
Co              -1.5335751053        3.4398679588       10.6056066178
Mg              -0.0191323125        1.3606978467        6.4116396850
Mg               3.4837647198        0.5431179943       10.6055581585
Mg               2.5135104637        2.8668624095        6.3454769453
Mg               1.2167291754        3.5012866725        1.9825201441
Mg               1.1786769588        0.5548752199        2.0486816474
Mg               1.2403586892        2.1913830218        9.2261273359
Mg               2.4923288586       -0.0510866089        7.8551315549
Mg               0.9346100979        1.6619256209       11.9849755841
Mg               2.5131982078       -0.1142353947        4.9104085725
Mg               3.7602245687        2.0456862132        3.4837303911
Mg               3.6950921282        2.0321902651        0.5389820765
Ni               1.2437222092        2.0586466965        4.1970794383
Ni               2.4256763981       -0.1814707008       -0.1429302332
Ni               3.7747114167        2.1550914522        8.5370870974
Ni              -0.0167673805       -0.1384457458        4.2723340595
Ni              -0.0935349859       -0.2063773135       -0.1449057666
Ni               0.0036969091       -0.0380012962        8.6895921031



     Writing config-only to output data dir ./outdir/mg2ni_co.save/ :
     XML data file
     NEW-OLD atomic charge density approx. for the potential

     Check: negative core charge=   -0.000003
     Generating pointlists ...

     total cpu time spent up to now is    14166.4 secs

     Self-consistent Calculation

     iteration #  1     ecut=    60.00 Ry     beta= 0.30
     Davidson diagonalization with overlap
     ethr =  1.00E-06,  avg # of iterations =  3.0

     Threshold (ethr) on eigenvalues was too large:
     Diagonalizing with lowered threshold

     Davidson diagonalization with overlap
     ethr =  3.27E-08,  avg # of iterations =  1.1

     total cpu time spent up to now is    14255.4 secs

     total energy              =   -2728.53651168 Ry
     estimated scf accuracy    <       0.00004794 Ry

     total magnetization       =     2.07 Bohr mag/cell
     absolute magnetization    =     2.83 Bohr mag/cell

     iteration #  2     ecut=    60.00 Ry     beta= 0.30
     Davidson diagonalization with overlap
     ethr =  3.26E-08,  avg # of iterations =  2.7

     total cpu time spent up to now is    14302.8 secs

     total energy              =   -2728.53641563 Ry
     estimated scf accuracy    <       0.00517722 Ry

     total magnetization       =     2.01 Bohr mag/cell
     absolute magnetization    =     2.78 Bohr mag/cell

     iteration #  3     ecut=    60.00 Ry     beta= 0.30
     Davidson diagonalization with overlap
     ethr =  3.26E-08,  avg # of iterations =  2.6

     total cpu time spent up to now is    14347.7 secs

     total energy              =   -2728.53652595 Ry
     estimated scf accuracy    <       0.00002015 Ry

     total magnetization       =     2.06 Bohr mag/cell
     absolute magnetization    =     2.83 Bohr mag/cell

     iteration #  4     ecut=    60.00 Ry     beta= 0.30
     Davidson diagonalization with overlap
     ethr =  1.37E-08,  avg # of iterations =  1.6

     total cpu time spent up to now is    14385.5 secs

     total energy              =   -2728.53652663 Ry
     estimated scf accuracy    <       0.00003844 Ry

     total magnetization       =     2.06 Bohr mag/cell
     absolute magnetization    =     2.83 Bohr mag/cell

     iteration #  5     ecut=    60.00 Ry     beta= 0.30
     Davidson diagonalization with overlap
     ethr =  1.37E-08,  avg # of iterations =  1.0

     total cpu time spent up to now is    14415.9 secs

     total energy              =   -2728.53652809 Ry
     estimated scf accuracy    <       0.00000704 Ry

     total magnetization       =     2.06 Bohr mag/cell
     absolute magnetization    =     2.83 Bohr mag/cell

     iteration #  6     ecut=    60.00 Ry     beta= 0.30
     Davidson diagonalization with overlap
     ethr =  4.79E-09,  avg # of iterations =  1.0

     total cpu time spent up to now is    14446.5 secs

     total energy              =   -2728.53652846 Ry
     estimated scf accuracy    <       0.00000089 Ry

     total magnetization       =     2.06 Bohr mag/cell
     absolute magnetization    =     2.83 Bohr mag/cell

     iteration #  7     ecut=    60.00 Ry     beta= 0.30
     Davidson diagonalization with overlap
     ethr =  6.06E-10,  avg # of iterations =  1.6

     total cpu time spent up to now is    14484.5 secs

     total energy              =   -2728.53652845 Ry
     estimated scf accuracy    <       0.00000164 Ry

     total magnetization       =     2.06 Bohr mag/cell
     absolute magnetization    =     2.83 Bohr mag/cell

     iteration #  8     ecut=    60.00 Ry     beta= 0.30
     Davidson diagonalization with overlap
     ethr =  6.06E-10,  avg # of iterations =  1.0

     total cpu time spent up to now is    14515.7 secs

     total energy              =   -2728.53652849 Ry
     estimated scf accuracy    <       0.00000105 Ry

     total magnetization       =     2.06 Bohr mag/cell
     absolute magnetization    =     2.83 Bohr mag/cell

     iteration #  9     ecut=    60.00 Ry     beta= 0.30
     Davidson diagonalization with overlap
     ethr =  6.06E-10,  avg # of iterations =  1.0

     total cpu time spent up to now is    14546.1 secs

     total energy              =   -2728.53652854 Ry
     estimated scf accuracy    <       0.00000009 Ry

     total magnetization       =     2.06 Bohr mag/cell
     absolute magnetization    =     2.83 Bohr mag/cell

     iteration # 10     ecut=    60.00 Ry     beta= 0.30
     Davidson diagonalization with overlap
     ethr =  5.91E-11,  avg # of iterations =  2.5

     total cpu time spent up to now is    14590.8 secs

     total energy              =   -2728.53652855 Ry
     estimated scf accuracy    <       0.00000005 Ry

     total magnetization       =     2.06 Bohr mag/cell
     absolute magnetization    =     2.83 Bohr mag/cell

     iteration # 11     ecut=    60.00 Ry     beta= 0.30
     Davidson diagonalization with overlap
     ethr =  3.29E-11,  avg # of iterations =  3.7

     total cpu time spent up to now is    14650.6 secs

     total energy              =   -2728.53652855 Ry
     estimated scf accuracy    <       0.00000001 Ry

     total magnetization       =     2.06 Bohr mag/cell
     absolute magnetization    =     2.83 Bohr mag/cell

     iteration # 12     ecut=    60.00 Ry     beta= 0.30
     Davidson diagonalization with overlap
     ethr =  7.87E-12,  avg # of iterations =  4.4

     total cpu time spent up to now is    14715.1 secs

     total energy              =   -2728.53652856 Ry
     estimated scf accuracy    <          1.4E-09 Ry

     total magnetization       =     2.06 Bohr mag/cell
     absolute magnetization    =     2.83 Bohr mag/cell

     iteration # 13     ecut=    60.00 Ry     beta= 0.30
     Davidson diagonalization with overlap
     ethr =  9.27E-13,  avg # of iterations =  2.0

     total cpu time spent up to now is    14754.0 secs

     total energy              =   -2728.53652856 Ry
     estimated scf accuracy    <          3.2E-09 Ry

     total magnetization       =     2.06 Bohr mag/cell
     absolute magnetization    =     2.83 Bohr mag/cell

     iteration # 14     ecut=    60.00 Ry     beta= 0.30
     Davidson diagonalization with overlap
     ethr =  9.27E-13,  avg # of iterations =  2.0

     total cpu time spent up to now is    14791.1 secs

     total energy              =   -2728.53652856 Ry
     estimated scf accuracy    <          1.1E-09 Ry

     total magnetization       =     2.06 Bohr mag/cell
     absolute magnetization    =     2.83 Bohr mag/cell

     iteration # 15     ecut=    60.00 Ry     beta= 0.30
     Davidson diagonalization with overlap
     ethr =  7.57E-13,  avg # of iterations =  1.3

     total cpu time spent up to now is    14826.0 secs

     total energy              =   -2728.53652856 Ry
     estimated scf accuracy    <          3.8E-10 Ry

     total magnetization       =     2.06 Bohr mag/cell
     absolute magnetization    =     2.83 Bohr mag/cell

     iteration # 16     ecut=    60.00 Ry     beta= 0.30
     Davidson diagonalization with overlap
     ethr =  2.60E-13,  avg # of iterations =  1.0

     total cpu time spent up to now is    14856.6 secs

     total energy              =   -2728.53652856 Ry
     estimated scf accuracy    <          2.2E-10 Ry

     total magnetization       =     2.06 Bohr mag/cell
     absolute magnetization    =     2.83 Bohr mag/cell

     iteration # 17     ecut=    60.00 Ry     beta= 0.30
     Davidson diagonalization with overlap
     ethr =  1.52E-13,  avg # of iterations =  1.0

     total cpu time spent up to now is    14887.1 secs

     total energy              =   -2728.53652856 Ry
     estimated scf accuracy    <          3.5E-10 Ry

     total magnetization       =     2.06 Bohr mag/cell
     absolute magnetization    =     2.83 Bohr mag/cell

     iteration # 18     ecut=    60.00 Ry     beta= 0.30
     Davidson diagonalization with overlap
     ethr =  1.52E-13,  avg # of iterations =  1.0

     total cpu time spent up to now is    14917.4 secs

     total energy              =   -2728.53652856 Ry
     estimated scf accuracy    <          5.6E-11 Ry

     total magnetization       =     2.06 Bohr mag/cell
     absolute magnetization    =     2.83 Bohr mag/cell

     iteration # 19     ecut=    60.00 Ry     beta= 0.30
     Davidson diagonalization with overlap
     ethr =  1.00E-13,  avg # of iterations =  1.0

     total cpu time spent up to now is    14948.4 secs

     total energy              =   -2728.53652856 Ry
     estimated scf accuracy    <          3.3E-11 Ry

     total magnetization       =     2.06 Bohr mag/cell
     absolute magnetization    =     2.83 Bohr mag/cell

     iteration # 20     ecut=    60.00 Ry     beta= 0.30
     Davidson diagonalization with overlap
     ethr =  1.00E-13,  avg # of iterations =  1.0

     total cpu time spent up to now is    14978.8 secs

     total energy              =   -2728.53652856 Ry
     estimated scf accuracy    <          1.1E-11 Ry

     total magnetization       =     2.06 Bohr mag/cell
     absolute magnetization    =     2.83 Bohr mag/cell

     iteration # 21     ecut=    60.00 Ry     beta= 0.30
     Davidson diagonalization with overlap
     ethr =  1.00E-13,  avg # of iterations =  1.0
 
     Magnetic moment per site  (integrated on atomic sphere of radius R)
     atom   1 (R=0.194)  charge= 15.2504  magn=  1.5868
     atom   2 (R=0.212)  charge=  0.6242  magn= -0.0030
     atom   3 (R=0.212)  charge=  0.6219  magn= -0.0146
     atom   4 (R=0.212)  charge=  0.6269  magn= -0.0019
     atom   5 (R=0.212)  charge=  0.6242  magn= -0.0030
     atom   6 (R=0.212)  charge=  0.6269  magn= -0.0019
     atom   7 (R=0.212)  charge=  0.6337  magn= -0.0075
     atom   8 (R=0.212)  charge=  0.6235  magn= -0.0032
     atom   9 (R=0.212)  charge=  0.6337  magn= -0.0075
     atom  10 (R=0.212)  charge=  0.6357  magn=  0.0027
     atom  11 (R=0.212)  charge=  0.6357  magn=  0.0027
     atom  12 (R=0.212)  charge=  0.6235  magn= -0.0032
     atom  13 (R=0.194)  charge= 16.4803  magn=  0.0296
     atom  14 (R=0.194)  charge= 16.4832  magn=  0.1711
     atom  15 (R=0.194)  charge= 16.4832  magn=  0.1711
     atom  16 (R=0.194)  charge= 16.4989  magn= -0.0357
     atom  17 (R=0.194)  charge= 16.4855  magn=  0.1741
     atom  18 (R=0.194)  charge= 16.4855  magn=  0.1741

     total cpu time spent up to now is    15009.2 secs

     End of self-consistent calculation

     Number of k-points >= 100: set verbosity='high' to print the bands.

     the Fermi energy is     8.0242 ev

!    total energy              =   -2728.53652856 Ry
     estimated scf accuracy    <          6.2E-12 Ry
     smearing contrib. (-TS)   =       0.00060417 Ry
     internal energy E=F+TS    =   -2728.53713273 Ry

     The total energy is F=E-TS. E is the sum of the following terms:
     one-electron contribution =   -2543.12788871 Ry
     hartree contribution      =    1320.49278331 Ry
     xc contribution           =    -264.42541239 Ry
     ewald contribution        =    -896.57343413 Ry
     DFT-D3 Dispersion         =      -0.45148063 Ry
     one-center paw contrib.   =    -344.45170019 Ry

     total magnetization       =     2.06 Bohr mag/cell
     absolute magnetization    =     2.83 Bohr mag/cell

     convergence has been achieved in  21 iterations

     Forces acting on atoms (cartesian axes, Ry/au):

     atom    1 type  1   force =     0.00000440   -0.00000327   -0.00000240
     atom    2 type  2   force =     0.00005802    0.00008602    0.00026776
     atom    3 type  2   force =     0.00005908   -0.00003444    0.00000091
     atom    4 type  2   force =    -0.00029423   -0.00012993    0.00032293
     atom    5 type  2   force =    -0.00004576   -0.00009346   -0.00026780
     atom    6 type  2   force =    -0.00003459    0.00031986   -0.00032325
     atom    7 type  2   force =     0.00010517   -0.00021212   -0.00049625
     atom    8 type  2   force =     0.00015632    0.00013604    0.00039936
     atom    9 type  2   force =     0.00023635    0.00001502    0.00049642
     atom   10 type  2   force =     0.00002606   -0.00001486    0.00023756
     atom   11 type  2   force =     0.00002598   -0.00001515   -0.00023828
     atom   12 type  2   force =    -0.00003984   -0.00020301   -0.00039886
     atom   13 type  3   force =    -0.00006075    0.00003526    0.00000122
     atom   14 type  3   force =    -0.00022284   -0.00010804   -0.00027436
     atom   15 type  3   force =    -0.00001812    0.00024757    0.00027388
     atom   16 type  3   force =    -0.00007235    0.00004181    0.00000143
     atom   17 type  3   force =     0.00027823    0.00034735   -0.00005959
     atom   18 type  3   force =    -0.00016114   -0.00041465    0.00005931

     Total force =     0.001548     Total SCF correction =     0.000010


     Computing stress (Cartesian axis) and pressure

          total   stress  (Ry/bohr**3)                   (kbar)     P=        4.49
   0.00003691  -0.00000390   0.00000313            5.43       -0.57        0.46
  -0.00000390   0.00003241   0.00000542           -0.57        4.77        0.80
   0.00000313   0.00000542   0.00002217            0.46        0.80        3.26

     Energy error            =      3.5E-06 Ry
     Gradient error          =      5.0E-04 Ry/Bohr

     number of scf cycles    =  16
     number of bfgs steps    =  15

     energy             old  =   -2728.5365250446 Ry
     energy             new  =   -2728.5365285565 Ry

     CASE: energy            _new < energy            _old

     new trust radius        =       0.0030637870 bohr
     new conv_thr            =            1.0E-11 Ry


ATOMIC_POSITIONS (angstrom)
Co              -1.5327279184        3.4393778937       10.6056069425
Mg              -0.0197126247        1.3603748925        6.4124351873
Mg               3.4850939216        0.5423499687       10.6055589121
Mg               2.5126401370        2.8663019090        6.3454933210
Mg               1.2167177889        3.5019511625        1.9817236956
Mg               1.1787270138        0.5559096960        2.0486639296
Mg               1.2399796196        2.1898736580        9.2258143146
Mg               2.4930401839       -0.0521732873        7.8557405146
Mg               0.9357268052        1.6630090492       11.9852878101
Mg               2.5120308724       -0.1136067741        4.9105504296
Mg               3.7590967434        2.0463833171        3.4835876735
Mg               3.6963878682        2.0321175520        0.5383730044
Ni               1.2423346342        2.0594482530        4.1970782759
Ni               2.4265251490       -0.1808229423       -0.1432203958
Ni               3.7745746500        2.1540332216        8.5373796890
Ni              -0.0181713532       -0.1376349255        4.2723334527
Ni              -0.0924901201       -0.2055653320       -0.1447978584
Ni               0.0035176462       -0.0393130007        8.6894865132



     Writing config-only to output data dir ./outdir/mg2ni_co.save/ :
     XML data file
     NEW-OLD atomic charge density approx. for the potential

     Check: negative core charge=   -0.000003
     Generating pointlists ...

     total cpu time spent up to now is    15036.0 secs

     Self-consistent Calculation

     iteration #  1     ecut=    60.00 Ry     beta= 0.30
     Davidson diagonalization with overlap
     ethr =  1.00E-06,  avg # of iterations =  3.0

     Threshold (ethr) on eigenvalues was too large:
     Diagonalizing with lowered threshold

     Davidson diagonalization with overlap
     ethr =  1.93E-08,  avg # of iterations =  1.1

     total cpu time spent up to now is    15125.8 secs

     total energy              =   -2728.53652759 Ry
     estimated scf accuracy    <       0.00002812 Ry

     total magnetization       =     2.06 Bohr mag/cell
     absolute magnetization    =     2.83 Bohr mag/cell

     iteration #  2     ecut=    60.00 Ry     beta= 0.30
     Davidson diagonalization with overlap
     ethr =  1.91E-08,  avg # of iterations =  2.1

     total cpu time spent up to now is    15166.1 secs

     total energy              =   -2728.53649772 Ry
     estimated scf accuracy    <       0.00140987 Ry

     total magnetization       =     2.08 Bohr mag/cell
     absolute magnetization    =     2.85 Bohr mag/cell

     iteration #  3     ecut=    60.00 Ry     beta= 0.30
     Davidson diagonalization with overlap
     ethr =  1.91E-08,  avg # of iterations =  2.0

     total cpu time spent up to now is    15203.7 secs

     total energy              =   -2728.53653014 Ry
     estimated scf accuracy    <       0.00004562 Ry

     total magnetization       =     2.06 Bohr mag/cell
     absolute magnetization    =     2.82 Bohr mag/cell

     iteration #  4     ecut=    60.00 Ry     beta= 0.30
     Davidson diagonalization with overlap
     ethr =  1.91E-08,  avg # of iterations =  1.9

     total cpu time spent up to now is    15241.9 secs

     total energy              =   -2728.53653097 Ry
     estimated scf accuracy    <       0.00005595 Ry

     total magnetization       =     2.06 Bohr mag/cell
     absolute magnetization    =     2.83 Bohr mag/cell

     iteration #  5     ecut=    60.00 Ry     beta= 0.30
     Davidson diagonalization with overlap
     ethr =  1.91E-08,  avg # of iterations =  1.0

     total cpu time spent up to now is    15272.2 secs

     total energy              =   -2728.53653311 Ry
     estimated scf accuracy    <       0.00000648 Ry

     total magnetization       =     2.06 Bohr mag/cell
     absolute magnetization    =     2.83 Bohr mag/cell

     iteration #  6     ecut=    60.00 Ry     beta= 0.30
     Davidson diagonalization with overlap
     ethr =  4.41E-09,  avg # of iterations =  1.5

     total cpu time spent up to now is    15310.1 secs

     total energy              =   -2728.53653356 Ry
     estimated scf accuracy    <       0.00000231 Ry

     total magnetization       =     2.06 Bohr mag/cell
     absolute magnetization    =     2.83 Bohr mag/cell

     iteration #  7     ecut=    60.00 Ry     beta= 0.30
     Davidson diagonalization with overlap
     ethr =  1.57E-09,  avg # of iterations =  1.0

     total cpu time spent up to now is    15340.5 secs

     total energy              =   -2728.53653365 Ry
     estimated scf accuracy    <       0.00000051 Ry

     total magnetization       =     2.06 Bohr mag/cell
     absolute magnetization    =     2.83 Bohr mag/cell

     iteration #  8     ecut=    60.00 Ry     beta= 0.30
     Davidson diagonalization with overlap
     ethr =  3.46E-10,  avg # of iterations =  1.7

     total cpu time spent up to now is    15376.8 secs

     total energy              =   -2728.53653362 Ry
     estimated scf accuracy    <       0.00000244 Ry

     total magnetization       =     2.06 Bohr mag/cell
     absolute magnetization    =     2.83 Bohr mag/cell

     iteration #  9     ecut=    60.00 Ry     beta= 0.30
     Davidson diagonalization with overlap
     ethr =  3.46E-10,  avg # of iterations =  1.3

     total cpu time spent up to now is    15411.7 secs

     total energy              =   -2728.53653369 Ry
     estimated scf accuracy    <       0.00000046 Ry

     total magnetization       =     2.06 Bohr mag/cell
     absolute magnetization    =     2.83 Bohr mag/cell

     iteration # 10     ecut=    60.00 Ry     beta= 0.30
     Davidson diagonalization with overlap
     ethr =  3.13E-10,  avg # of iterations =  1.3

     total cpu time spent up to now is    15445.4 secs

     total energy              =   -2728.53653372 Ry
     estimated scf accuracy    <       0.00000002 Ry

     total magnetization       =     2.06 Bohr mag/cell
     absolute magnetization    =     2.83 Bohr mag/cell

     iteration # 11     ecut=    60.00 Ry     beta= 0.30
     Davidson diagonalization with overlap
     ethr =  1.48E-11,  avg # of iterations =  4.0

     total cpu time spent up to now is    15514.7 secs

     total energy              =   -2728.53653373 Ry
     estimated scf accuracy    <          9.5E-09 Ry

     total magnetization       =     2.06 Bohr mag/cell
     absolute magnetization    =     2.83 Bohr mag/cell

     iteration # 12     ecut=    60.00 Ry     beta= 0.30
     Davidson diagonalization with overlap
     ethr =  6.49E-12,  avg # of iterations =  1.0

     total cpu time spent up to now is    15545.7 secs

     total energy              =   -2728.53653373 Ry
     estimated scf accuracy    <          2.4E-09 Ry

     total magnetization       =     2.06 Bohr mag/cell
     absolute magnetization    =     2.83 Bohr mag/cell

     iteration # 13     ecut=    60.00 Ry     beta= 0.30
     Davidson diagonalization with overlap
     ethr =  1.64E-12,  avg # of iterations =  2.0

     total cpu time spent up to now is    15584.0 secs

     total energy              =   -2728.53653373 Ry
     estimated scf accuracy    <          4.4E-09 Ry

     total magnetization       =     2.06 Bohr mag/cell
     absolute magnetization    =     2.83 Bohr mag/cell

     iteration # 14     ecut=    60.00 Ry     beta= 0.30
     Davidson diagonalization with overlap
     ethr =  1.64E-12,  avg # of iterations =  1.7

     total cpu time spent up to now is    15623.6 secs

     total energy              =   -2728.53653373 Ry
     estimated scf accuracy    <          9.2E-10 Ry

     total magnetization       =     2.06 Bohr mag/cell
     absolute magnetization    =     2.83 Bohr mag/cell

     iteration # 15     ecut=    60.00 Ry     beta= 0.30
     Davidson diagonalization with overlap
     ethr =  6.29E-13,  avg # of iterations =  1.2

     total cpu time spent up to now is    15656.5 secs

     total energy              =   -2728.53653373 Ry
     estimated scf accuracy    <          3.6E-10 Ry

     total magnetization       =     2.06 Bohr mag/cell
     absolute magnetization    =     2.83 Bohr mag/cell

     iteration # 16     ecut=    60.00 Ry     beta= 0.30
     Davidson diagonalization with overlap
     ethr =  2.44E-13,  avg # of iterations =  1.0

     total cpu time spent up to now is    15687.0 secs

     total energy              =   -2728.53653373 Ry
     estimated scf accuracy    <          1.7E-10 Ry

     total magnetization       =     2.06 Bohr mag/cell
     absolute magnetization    =     2.83 Bohr mag/cell

     iteration # 17     ecut=    60.00 Ry     beta= 0.30
     Davidson diagonalization with overlap
     ethr =  1.13E-13,  avg # of iterations =  2.0

     total cpu time spent up to now is    15723.7 secs

     total energy              =   -2728.53653373 Ry
     estimated scf accuracy    <          6.2E-11 Ry

     total magnetization       =     2.06 Bohr mag/cell
     absolute magnetization    =     2.83 Bohr mag/cell

     iteration # 18     ecut=    60.00 Ry     beta= 0.30
     Davidson diagonalization with overlap
     ethr =  1.00E-13,  avg # of iterations =  1.0

     total cpu time spent up to now is    15754.6 secs

     total energy              =   -2728.53653373 Ry
     estimated scf accuracy    <          1.1E-09 Ry

     total magnetization       =     2.06 Bohr mag/cell
     absolute magnetization    =     2.83 Bohr mag/cell

     iteration # 19     ecut=    60.00 Ry     beta= 0.30
     Davidson diagonalization with overlap
     ethr =  1.00E-13,  avg # of iterations =  1.0

     total cpu time spent up to now is    15785.2 secs

     total energy              =   -2728.53653373 Ry
     estimated scf accuracy    <          3.2E-11 Ry

     total magnetization       =     2.06 Bohr mag/cell
     absolute magnetization    =     2.83 Bohr mag/cell

     iteration # 20     ecut=    60.00 Ry     beta= 0.30
     Davidson diagonalization with overlap
     ethr =  1.00E-13,  avg # of iterations =  1.0

     total cpu time spent up to now is    15815.7 secs

     total energy              =   -2728.53653373 Ry
     estimated scf accuracy    <          5.2E-11 Ry

     total magnetization       =     2.06 Bohr mag/cell
     absolute magnetization    =     2.83 Bohr mag/cell

     iteration # 21     ecut=    60.00 Ry     beta= 0.30
     Davidson diagonalization with overlap
     ethr =  1.00E-13,  avg # of iterations =  1.0

     total cpu time spent up to now is    15846.1 secs

     total energy              =   -2728.53653373 Ry
     estimated scf accuracy    <          1.8E-11 Ry

     total magnetization       =     2.06 Bohr mag/cell
     absolute magnetization    =     2.83 Bohr mag/cell

     iteration # 22     ecut=    60.00 Ry     beta= 0.30
     Davidson diagonalization with overlap
     ethr =  1.00E-13,  avg # of iterations =  1.0
 
     Magnetic moment per site  (integrated on atomic sphere of radius R)
     atom   1 (R=0.194)  charge= 15.2502  magn=  1.5871
     atom   2 (R=0.212)  charge=  0.6242  magn= -0.0030
     atom   3 (R=0.212)  charge=  0.6221  magn= -0.0146
     atom   4 (R=0.212)  charge=  0.6268  magn= -0.0019
     atom   5 (R=0.212)  charge=  0.6242  magn= -0.0030
     atom   6 (R=0.212)  charge=  0.6268  magn= -0.0019
     atom   7 (R=0.212)  charge=  0.6338  magn= -0.0075
     atom   8 (R=0.212)  charge=  0.6236  magn= -0.0032
     atom   9 (R=0.212)  charge=  0.6337  magn= -0.0075
     atom  10 (R=0.212)  charge=  0.6356  magn=  0.0027
     atom  11 (R=0.212)  charge=  0.6356  magn=  0.0027
     atom  12 (R=0.212)  charge=  0.6236  magn= -0.0032
     atom  13 (R=0.194)  charge= 16.4802  magn=  0.0297
     atom  14 (R=0.194)  charge= 16.4833  magn=  0.1711
     atom  15 (R=0.194)  charge= 16.4833  magn=  0.1711
     atom  16 (R=0.194)  charge= 16.4988  magn= -0.0358
     atom  17 (R=0.194)  charge= 16.4856  magn=  0.1739
     atom  18 (R=0.194)  charge= 16.4856  magn=  0.1739

     total cpu time spent up to now is    15876.5 secs

     End of self-consistent calculation

     Number of k-points >= 100: set verbosity='high' to print the bands.

     the Fermi energy is     8.0242 ev

!    total energy              =   -2728.53653373 Ry
     estimated scf accuracy    <          3.3E-12 Ry
     smearing contrib. (-TS)   =       0.00060531 Ry
     internal energy E=F+TS    =   -2728.53713904 Ry

     The total energy is F=E-TS. E is the sum of the following terms:
     one-electron contribution =   -2543.16190412 Ry
     hartree contribution      =    1320.50969946 Ry
     xc contribution           =    -264.42556131 Ry
     ewald contribution        =    -896.55617435 Ry
     DFT-D3 Dispersion         =      -0.45148103 Ry
     one-center paw contrib.   =    -344.45171769 Ry

     total magnetization       =     2.06 Bohr mag/cell
     absolute magnetization    =     2.83 Bohr mag/cell

     convergence has been achieved in  22 iterations

     Forces acting on atoms (cartesian axes, Ry/au):

     atom    1 type  1   force =    -0.00002710    0.00001513   -0.00000082
     atom    2 type  2   force =     0.00007521    0.00005518    0.00013421
     atom    3 type  2   force =    -0.00001324    0.00000725    0.00000069
     atom    4 type  2   force =    -0.00021380   -0.00009052    0.00029188
     atom    5 type  2   force =    -0.00001034   -0.00009301   -0.00013403
     atom    6 type  2   force =    -0.00002860    0.00023052   -0.00029201
     atom    7 type  2   force =     0.00019919   -0.00020730   -0.00041226
     atom    8 type  2   force =    -0.00002557    0.00013723    0.00033627
     atom    9 type  2   force =     0.00027921   -0.00006895    0.00041231
     atom   10 type  2   force =    -0.00000410   -0.00000779    0.00023762
     atom   11 type  2   force =     0.00000479    0.00000739   -0.00023838
     atom   12 type  2   force =    -0.00013178   -0.00004585   -0.00033588
     atom   13 type  3   force =    -0.00002060    0.00001200    0.00000059
     atom   14 type  3   force =    -0.00033312   -0.00010243   -0.00021470
     atom   15 type  3   force =    -0.00007786    0.00033989    0.00021421
     atom   16 type  3   force =    -0.00000224    0.00000127    0.00000059
     atom   17 type  3   force =     0.00037821    0.00027421   -0.00006094
     atom   18 type  3   force =    -0.00004826   -0.00046421    0.00006065

     Total force =     0.001413     Total SCF correction =     0.000007


     Computing stress (Cartesian axis) and pressure

          total   stress  (Ry/bohr**3)                   (kbar)     P=        4.50
   0.00003702  -0.00000392   0.00000339            5.45       -0.58        0.50
  -0.00000392   0.00003250   0.00000587           -0.58        4.78        0.86
   0.00000339   0.00000587   0.00002232            0.50        0.86        3.28

     Energy error            =      5.2E-06 Ry
     Gradient error          =      4.6E-04 Ry/Bohr

     number of scf cycles    =  17
     number of bfgs steps    =  16

     energy             old  =   -2728.5365285565 Ry
     energy             new  =   -2728.5365337333 Ry

     CASE: energy            _new < energy            _old

     new trust radius        =       0.0045956805 bohr
     new conv_thr            =            1.0E-11 Ry


ATOMIC_POSITIONS (angstrom)
Co              -1.5316840854        3.4387735246       10.6056080356
Mg              -0.0204018391        1.3600403752        6.4137399375
Mg               3.4868609432        0.5413285817       10.6055605746
Mg               2.5112023904        2.8654560176        6.3458897629
Mg               1.2166614449        3.5027155325        1.9804176185
Mg               1.1787403671        0.5575785332        2.0482652900
Mg               1.2396213067        2.1876432793        9.2249135910
Mg               2.4940740813       -0.0533953202        7.8570059156
Mg               0.9374781430        1.6644350383       11.9861872459
Mg               2.5105542513       -0.1128212297        4.9110422655
Mg               3.7576785523        2.0472698753        3.4830935696
Mg               3.6979616146        2.0318337710        0.5371077128
Ni               1.2405231146        2.0604948308        4.1970760093
Ni               2.4273039431       -0.1801237517       -0.1439148967
Ni               3.7743581966        2.1530103975        8.5380781005
Ni              -0.0200059768       -0.1365754950        4.2723319944
Ni              -0.0907974929       -0.2041750466       -0.1447371064
Ni               0.0031620620       -0.0414746023        8.6894297908



     Writing config-only to output data dir ./outdir/mg2ni_co.save/ :
     XML data file
     NEW-OLD atomic charge density approx. for the potential

     Check: negative core charge=   -0.000003
     Generating pointlists ...

     total cpu time spent up to now is    15903.4 secs

     Self-consistent Calculation

     iteration #  1     ecut=    60.00 Ry     beta= 0.30
     Davidson diagonalization with overlap
     ethr =  1.00E-06,  avg # of iterations =  3.0

     total cpu time spent up to now is    15964.5 secs

     total energy              =   -2728.53639575 Ry
     estimated scf accuracy    <       0.00033603 Ry

     total magnetization       =     2.05 Bohr mag/cell
     absolute magnetization    =     2.82 Bohr mag/cell

     iteration #  2     ecut=    60.00 Ry     beta= 0.30
     Davidson diagonalization with overlap
     ethr =  2.29E-07,  avg # of iterations =  2.9

     total cpu time spent up to now is    16015.5 secs

     total energy              =   -2728.53551954 Ry
     estimated scf accuracy    <       0.04946416 Ry

     total magnetization       =     2.21 Bohr mag/cell
     absolute magnetization    =     2.98 Bohr mag/cell

     iteration #  3     ecut=    60.00 Ry     beta= 0.30
     Davidson diagonalization with overlap
     ethr =  2.29E-07,  avg # of iterations =  2.8

     total cpu time spent up to now is    16064.3 secs

     total energy              =   -2728.53653267 Ry
     estimated scf accuracy    <       0.00004919 Ry

     total magnetization       =     2.06 Bohr mag/cell
     absolute magnetization    =     2.82 Bohr mag/cell

     iteration #  4     ecut=    60.00 Ry     beta= 0.30
     Davidson diagonalization with overlap
     ethr =  3.35E-08,  avg # of iterations =  2.0

     total cpu time spent up to now is    16101.2 secs

     total energy              =   -2728.53653365 Ry
     estimated scf accuracy    <       0.00010892 Ry

     total magnetization       =     2.06 Bohr mag/cell
     absolute magnetization    =     2.83 Bohr mag/cell

     iteration #  5     ecut=    60.00 Ry     beta= 0.30
     Davidson diagonalization with overlap
     ethr =  3.35E-08,  avg # of iterations =  1.0

     total cpu time spent up to now is    16131.9 secs

     total energy              =   -2728.53653835 Ry
     estimated scf accuracy    <       0.00001550 Ry

     total magnetization       =     2.06 Bohr mag/cell
     absolute magnetization    =     2.83 Bohr mag/cell

     iteration #  6     ecut=    60.00 Ry     beta= 0.30
     Davidson diagonalization with overlap
     ethr =  1.05E-08,  avg # of iterations =  1.9

     total cpu time spent up to now is    16170.9 secs

     total energy              =   -2728.53653924 Ry
     estimated scf accuracy    <       0.00000893 Ry

     total magnetization       =     2.06 Bohr mag/cell
     absolute magnetization    =     2.83 Bohr mag/cell

     iteration #  7     ecut=    60.00 Ry     beta= 0.30
     Davidson diagonalization with overlap
     ethr =  6.07E-09,  avg # of iterations =  1.0

     total cpu time spent up to now is    16201.3 secs

     total energy              =   -2728.53653965 Ry
     estimated scf accuracy    <       0.00000263 Ry

     total magnetization       =     2.06 Bohr mag/cell
     absolute magnetization    =     2.83 Bohr mag/cell

     iteration #  8     ecut=    60.00 Ry     beta= 0.30
     Davidson diagonalization with overlap
     ethr =  1.79E-09,  avg # of iterations =  1.0

     total cpu time spent up to now is    16231.7 secs

     total energy              =   -2728.53653973 Ry
     estimated scf accuracy    <       0.00000247 Ry

     total magnetization       =     2.06 Bohr mag/cell
     absolute magnetization    =     2.83 Bohr mag/cell

     iteration #  9     ecut=    60.00 Ry     beta= 0.30
     Davidson diagonalization with overlap
     ethr =  1.68E-09,  avg # of iterations =  1.0

     total cpu time spent up to now is    16262.2 secs

     total energy              =   -2728.53653980 Ry
     estimated scf accuracy    <       0.00000089 Ry

     total magnetization       =     2.06 Bohr mag/cell
     absolute magnetization    =     2.83 Bohr mag/cell

     iteration # 10     ecut=    60.00 Ry     beta= 0.30
     Davidson diagonalization with overlap
     ethr =  6.07E-10,  avg # of iterations =  1.0

     total cpu time spent up to now is    16293.1 secs

     total energy              =   -2728.53653985 Ry
     estimated scf accuracy    <       0.00000020 Ry

     total magnetization       =     2.06 Bohr mag/cell
     absolute magnetization    =     2.83 Bohr mag/cell

     iteration # 11     ecut=    60.00 Ry     beta= 0.30
     Davidson diagonalization with overlap
     ethr =  1.37E-10,  avg # of iterations =  2.4

     total cpu time spent up to now is    16336.3 secs

     total energy              =   -2728.53653987 Ry
     estimated scf accuracy    <       0.00000004 Ry

     total magnetization       =     2.06 Bohr mag/cell
     absolute magnetization    =     2.83 Bohr mag/cell

     iteration # 12     ecut=    60.00 Ry     beta= 0.30
     Davidson diagonalization with overlap
     ethr =  2.96E-11,  avg # of iterations =  4.8

     total cpu time spent up to now is    16407.8 secs

     total energy              =   -2728.53653990 Ry
     estimated scf accuracy    <          5.3E-09 Ry

     total magnetization       =     2.06 Bohr mag/cell
     absolute magnetization    =     2.83 Bohr mag/cell

     iteration # 13     ecut=    60.00 Ry     beta= 0.30
     Davidson diagonalization with overlap
     ethr =  3.62E-12,  avg # of iterations =  1.6

     total cpu time spent up to now is    16446.1 secs

     total energy              =   -2728.53653990 Ry
     estimated scf accuracy    <          6.6E-09 Ry

     total magnetization       =     2.06 Bohr mag/cell
     absolute magnetization    =     2.83 Bohr mag/cell

     iteration # 14     ecut=    60.00 Ry     beta= 0.30
     Davidson diagonalization with overlap
     ethr =  3.62E-12,  avg # of iterations =  1.5

     total cpu time spent up to now is    16483.5 secs

     total energy              =   -2728.53653990 Ry
     estimated scf accuracy    <          3.2E-09 Ry

     total magnetization       =     2.06 Bohr mag/cell
     absolute magnetization    =     2.83 Bohr mag/cell

     iteration # 15     ecut=    60.00 Ry     beta= 0.30
     Davidson diagonalization with overlap
     ethr =  2.20E-12,  avg # of iterations =  1.3

     total cpu time spent up to now is    16517.8 secs

     total energy              =   -2728.53653990 Ry
     estimated scf accuracy    <          1.9E-09 Ry

     total magnetization       =     2.06 Bohr mag/cell
     absolute magnetization    =     2.83 Bohr mag/cell

     iteration # 16     ecut=    60.00 Ry     beta= 0.30
     Davidson diagonalization with overlap
     ethr =  1.30E-12,  avg # of iterations =  1.0

     total cpu time spent up to now is    16548.6 secs

     total energy              =   -2728.53653990 Ry
     estimated scf accuracy    <          5.2E-09 Ry

     total magnetization       =     2.06 Bohr mag/cell
     absolute magnetization    =     2.83 Bohr mag/cell

     iteration # 17     ecut=    60.00 Ry     beta= 0.30
     Davidson diagonalization with overlap
     ethr =  1.30E-12,  avg # of iterations =  1.0

     total cpu time spent up to now is    16579.0 secs

     total energy              =   -2728.53653990 Ry
     estimated scf accuracy    <          8.9E-10 Ry

     total magnetization       =     2.06 Bohr mag/cell
     absolute magnetization    =     2.83 Bohr mag/cell

     iteration # 18     ecut=    60.00 Ry     beta= 0.30
     Davidson diagonalization with overlap
     ethr =  6.06E-13,  avg # of iterations =  1.1

     total cpu time spent up to now is    16611.0 secs

     total energy              =   -2728.53653990 Ry
     estimated scf accuracy    <          6.0E-10 Ry

     total magnetization       =     2.06 Bohr mag/cell
     absolute magnetization    =     2.83 Bohr mag/cell

     iteration # 19     ecut=    60.00 Ry     beta= 0.30
     Davidson diagonalization with overlap
     ethr =  4.08E-13,  avg # of iterations =  1.0

     total cpu time spent up to now is    16641.6 secs

     total energy              =   -2728.53653990 Ry
     estimated scf accuracy    <          1.2E-10 Ry

     total magnetization       =     2.06 Bohr mag/cell
     absolute magnetization    =     2.83 Bohr mag/cell

     iteration # 20     ecut=    60.00 Ry     beta= 0.30
     Davidson diagonalization with overlap
     ethr =  1.00E-13,  avg # of iterations =  1.8

     total cpu time spent up to now is    16679.8 secs

     total energy              =   -2728.53653990 Ry
     estimated scf accuracy    <          1.3E-10 Ry

     total magnetization       =     2.06 Bohr mag/cell
     absolute magnetization    =     2.83 Bohr mag/cell

     iteration # 21     ecut=    60.00 Ry     beta= 0.30
     Davidson diagonalization with overlap
     ethr =  1.00E-13,  avg # of iterations =  1.0

     total cpu time spent up to now is    16710.2 secs

     total energy              =   -2728.53653990 Ry
     estimated scf accuracy    <          2.2E-11 Ry

     total magnetization       =     2.06 Bohr mag/cell
     absolute magnetization    =     2.83 Bohr mag/cell

     iteration # 22     ecut=    60.00 Ry     beta= 0.30
     Davidson diagonalization with overlap
     ethr =  1.00E-13,  avg # of iterations =  1.0
 
     Magnetic moment per site  (integrated on atomic sphere of radius R)
     atom   1 (R=0.194)  charge= 15.2502  magn=  1.5874
     atom   2 (R=0.212)  charge=  0.6242  magn= -0.0030
     atom   3 (R=0.212)  charge=  0.6224  magn= -0.0146
     atom   4 (R=0.212)  charge=  0.6266  magn= -0.0019
     atom   5 (R=0.212)  charge=  0.6242  magn= -0.0030
     atom   6 (R=0.212)  charge=  0.6266  magn= -0.0019
     atom   7 (R=0.212)  charge=  0.6339  magn= -0.0074
     atom   8 (R=0.212)  charge=  0.6238  magn= -0.0032
     atom   9 (R=0.212)  charge=  0.6339  magn= -0.0074
     atom  10 (R=0.212)  charge=  0.6353  magn=  0.0027
     atom  11 (R=0.212)  charge=  0.6353  magn=  0.0027
     atom  12 (R=0.212)  charge=  0.6238  magn= -0.0032
     atom  13 (R=0.194)  charge= 16.4800  magn=  0.0298
     atom  14 (R=0.194)  charge= 16.4835  magn=  0.1713
     atom  15 (R=0.194)  charge= 16.4835  magn=  0.1713
     atom  16 (R=0.194)  charge= 16.4985  magn= -0.0360
     atom  17 (R=0.194)  charge= 16.4859  magn=  0.1736
     atom  18 (R=0.194)  charge= 16.4859  magn=  0.1736

     total cpu time spent up to now is    16740.6 secs

     End of self-consistent calculation

     Number of k-points >= 100: set verbosity='high' to print the bands.

     the Fermi energy is     8.0242 ev

!    total energy              =   -2728.53653990 Ry
     estimated scf accuracy    <          8.8E-12 Ry
     smearing contrib. (-TS)   =       0.00060734 Ry
     internal energy E=F+TS    =   -2728.53714723 Ry

     The total energy is F=E-TS. E is the sum of the following terms:
     one-electron contribution =   -2543.38994018 Ry
     hartree contribution      =    1320.62317933 Ry
     xc contribution           =    -264.42589219 Ry
     ewald contribution        =    -896.44127275 Ry
     DFT-D3 Dispersion         =      -0.45148180 Ry
     one-center paw contrib.   =    -344.45173964 Ry

     total magnetization       =     2.06 Bohr mag/cell
     absolute magnetization    =     2.83 Bohr mag/cell

     convergence has been achieved in  22 iterations

     Forces acting on atoms (cartesian axes, Ry/au):

     atom    1 type  1   force =    -0.00007695    0.00004384   -0.00000122
     atom    2 type  2   force =     0.00005391   -0.00001845   -0.00007503
     atom    3 type  2   force =    -0.00008177    0.00004679    0.00000046
     atom    4 type  2   force =    -0.00005627   -0.00001057    0.00016118
     atom    5 type  2   force =     0.00004296   -0.00003768    0.00007556
     atom    6 type  2   force =    -0.00001910    0.00005422   -0.00016087
     atom    7 type  2   force =     0.00023751   -0.00021204   -0.00015226
     atom    8 type  2   force =    -0.00026968    0.00010055    0.00018713
     atom    9 type  2   force =     0.00030254   -0.00009978    0.00015249
     atom   10 type  2   force =    -0.00005879    0.00001045    0.00020411
     atom   11 type  2   force =    -0.00003829    0.00004565   -0.00020461
     atom   12 type  2   force =    -0.00022193    0.00018421   -0.00018679
     atom   13 type  3   force =     0.00004685   -0.00002698    0.00000125
     atom   14 type  3   force =    -0.00035576   -0.00007583   -0.00007986
     atom   15 type  3   force =    -0.00011149    0.00034543    0.00007833
     atom   16 type  3   force =     0.00010205   -0.00005886    0.00000102
     atom   17 type  3   force =     0.00038556    0.00008530   -0.00004706
     atom   18 type  3   force =     0.00011865   -0.00037625    0.00004616

     Total force =     0.001131     Total SCF correction =     0.000011


     Computing stress (Cartesian axis) and pressure

          total   stress  (Ry/bohr**3)                   (kbar)     P=        4.55
   0.00003742  -0.00000404   0.00000383            5.51       -0.59        0.56
  -0.00000404   0.00003276   0.00000664           -0.59        4.82        0.98
   0.00000383   0.00000664   0.00002254            0.56        0.98        3.32

     Energy error            =      6.2E-06 Ry
     Gradient error          =      3.9E-04 Ry/Bohr

     number of scf cycles    =  18
     number of bfgs steps    =  17

     energy             old  =   -2728.5365337333 Ry
     energy             new  =   -2728.5365398973 Ry

     CASE: energy            _new < energy            _old

     new trust radius        =       0.0017976657 bohr
     new conv_thr            =            1.0E-11 Ry


ATOMIC_POSITIONS (angstrom)
Co              -1.5315321605        3.4386846917       10.6056071477
Mg              -0.0204967701        1.3600142443        6.4141831285
Mg               3.4872537048        0.5411011266       10.6055616684
Mg               2.5106590561        2.8651900228        6.3462910354
Mg               1.2166361422        3.5028105937        1.9799743094
Mg               1.1786989098        0.5581824226        2.0478634078
Mg               1.2397176088        2.1868865341        9.2243452570
Mg               2.4942762067       -0.0535010175        7.8576815294
Mg               0.9381815720        1.6647300775       11.9867553493
Mg               2.5102352236       -0.1126674402        4.9114396090
Mg               3.7573860951        2.0474693485        3.4826948439
Mg               3.6981537674        2.0317125042        0.5364325021
Ni               1.2401428088        2.0607147036        4.1970760475
Ni               2.4271165106       -0.1800907042       -0.1443153343
Ni               3.7742360990        2.1531564077        8.5384789453
Ni              -0.0203720157       -0.1363641103        4.2723322133
Ni              -0.0900542706       -0.2036187730       -0.1447969366
Ni               0.0030525290       -0.0423963210        8.6894906881



     Writing config-only to output data dir ./outdir/mg2ni_co.save/ :
     XML data file
     NEW-OLD atomic charge density approx. for the potential

     Check: negative core charge=   -0.000003
     Generating pointlists ...

     total cpu time spent up to now is    16767.4 secs

     Self-consistent Calculation

     iteration #  1     ecut=    60.00 Ry     beta= 0.30
     Davidson diagonalization with overlap
     ethr =  1.00E-06,  avg # of iterations =  3.0

     total cpu time spent up to now is    16821.0 secs

     total energy              =   -2728.53642979 Ry
     estimated scf accuracy    <       0.00024260 Ry

     total magnetization       =     2.05 Bohr mag/cell
     absolute magnetization    =     2.82 Bohr mag/cell

     iteration #  2     ecut=    60.00 Ry     beta= 0.30
     Davidson diagonalization with overlap
     ethr =  1.65E-07,  avg # of iterations =  2.8

     total cpu time spent up to now is    16870.1 secs

     total energy              =   -2728.53573689 Ry
     estimated scf accuracy    <       0.03931856 Ry

     total magnetization       =     2.20 Bohr mag/cell
     absolute magnetization    =     2.97 Bohr mag/cell

     iteration #  3     ecut=    60.00 Ry     beta= 0.30
     Davidson diagonalization with overlap
     ethr =  1.65E-07,  avg # of iterations =  2.7

     total cpu time spent up to now is    16917.7 secs

     total energy              =   -2728.53654120 Ry
     estimated scf accuracy    <       0.00000555 Ry

     total magnetization       =     2.06 Bohr mag/cell
     absolute magnetization    =     2.83 Bohr mag/cell

     iteration #  4     ecut=    60.00 Ry     beta= 0.30
     Davidson diagonalization with overlap
     ethr =  3.77E-09,  avg # of iterations =  2.1

     total cpu time spent up to now is    16958.7 secs

     total energy              =   -2728.53654182 Ry
     estimated scf accuracy    <       0.00000299 Ry

     total magnetization       =     2.06 Bohr mag/cell
     absolute magnetization    =     2.83 Bohr mag/cell

     iteration #  5     ecut=    60.00 Ry     beta= 0.30
     Davidson diagonalization with overlap
     ethr =  2.03E-09,  avg # of iterations =  2.0

     total cpu time spent up to now is    16995.7 secs

     total energy              =   -2728.53654179 Ry
     estimated scf accuracy    <       0.00000643 Ry

     total magnetization       =     2.06 Bohr mag/cell
     absolute magnetization    =     2.83 Bohr mag/cell

     iteration #  6     ecut=    60.00 Ry     beta= 0.30
     Davidson diagonalization with overlap
     ethr =  2.03E-09,  avg # of iterations =  1.1

     total cpu time spent up to now is    17027.0 secs

     total energy              =   -2728.53654204 Ry
     estimated scf accuracy    <       0.00000285 Ry

     total magnetization       =     2.06 Bohr mag/cell
     absolute magnetization    =     2.83 Bohr mag/cell

     iteration #  7     ecut=    60.00 Ry     beta= 0.30
     Davidson diagonalization with overlap
     ethr =  1.94E-09,  avg # of iterations =  1.0

     total cpu time spent up to now is    17057.7 secs

     total energy              =   -2728.53654215 Ry
     estimated scf accuracy    <       0.00000035 Ry

     total magnetization       =     2.06 Bohr mag/cell
     absolute magnetization    =     2.83 Bohr mag/cell

     iteration #  8     ecut=    60.00 Ry     beta= 0.30
     Davidson diagonalization with overlap
     ethr =  2.40E-10,  avg # of iterations =  1.9

     total cpu time spent up to now is    17097.9 secs

     total energy              =   -2728.53654217 Ry
     estimated scf accuracy    <       0.00000009 Ry

     total magnetization       =     2.06 Bohr mag/cell
     absolute magnetization    =     2.83 Bohr mag/cell

     iteration #  9     ecut=    60.00 Ry     beta= 0.30
     Davidson diagonalization with overlap
     ethr =  6.23E-11,  avg # of iterations =  2.1

     total cpu time spent up to now is    17136.1 secs

     total energy              =   -2728.53654217 Ry
     estimated scf accuracy    <       0.00000031 Ry

     total magnetization       =     2.06 Bohr mag/cell
     absolute magnetization    =     2.83 Bohr mag/cell

     iteration # 10     ecut=    60.00 Ry     beta= 0.30
     Davidson diagonalization with overlap
     ethr =  6.23E-11,  avg # of iterations =  1.5

     total cpu time spent up to now is    17172.7 secs

     total energy              =   -2728.53654218 Ry
     estimated scf accuracy    <          6.1E-09 Ry

     total magnetization       =     2.06 Bohr mag/cell
     absolute magnetization    =     2.83 Bohr mag/cell

     iteration # 11     ecut=    60.00 Ry     beta= 0.30
     Davidson diagonalization with overlap
     ethr =  4.12E-12,  avg # of iterations =  4.0

     total cpu time spent up to now is    17245.2 secs

     total energy              =   -2728.53654219 Ry
     estimated scf accuracy    <       0.00000002 Ry

     total magnetization       =     2.06 Bohr mag/cell
     absolute magnetization    =     2.83 Bohr mag/cell

     iteration # 12     ecut=    60.00 Ry     beta= 0.30
     Davidson diagonalization with overlap
     ethr =  4.12E-12,  avg # of iterations =  2.3

     total cpu time spent up to now is    17285.9 secs

     total energy              =   -2728.53654219 Ry
     estimated scf accuracy    <          9.0E-10 Ry

     total magnetization       =     2.06 Bohr mag/cell
     absolute magnetization    =     2.83 Bohr mag/cell

     iteration # 13     ecut=    60.00 Ry     beta= 0.30
     Davidson diagonalization with overlap
     ethr =  6.11E-13,  avg # of iterations =  2.0

     total cpu time spent up to now is    17323.6 secs

     total energy              =   -2728.53654219 Ry
     estimated scf accuracy    <          7.1E-10 Ry

     total magnetization       =     2.06 Bohr mag/cell
     absolute magnetization    =     2.83 Bohr mag/cell

     iteration # 14     ecut=    60.00 Ry     beta= 0.30
     Davidson diagonalization with overlap
     ethr =  4.85E-13,  avg # of iterations =  1.1

     total cpu time spent up to now is    17355.3 secs

     total energy              =   -2728.53654219 Ry
     estimated scf accuracy    <          5.6E-10 Ry

     total magnetization       =     2.06 Bohr mag/cell
     absolute magnetization    =     2.83 Bohr mag/cell

     iteration # 15     ecut=    60.00 Ry     beta= 0.30
     Davidson diagonalization with overlap
     ethr =  3.81E-13,  avg # of iterations =  1.2

     total cpu time spent up to now is    17388.9 secs

     total energy              =   -2728.53654219 Ry
     estimated scf accuracy    <          3.6E-10 Ry

     total magnetization       =     2.06 Bohr mag/cell
     absolute magnetization    =     2.83 Bohr mag/cell

     iteration # 16     ecut=    60.00 Ry     beta= 0.30
     Davidson diagonalization with overlap
     ethr =  2.45E-13,  avg # of iterations =  1.4

     total cpu time spent up to now is    17424.1 secs

     total energy              =   -2728.53654219 Ry
     estimated scf accuracy    <          1.6E-09 Ry

     total magnetization       =     2.06 Bohr mag/cell
     absolute magnetization    =     2.83 Bohr mag/cell

     iteration # 17     ecut=    60.00 Ry     beta= 0.30
     Davidson diagonalization with overlap
     ethr =  2.45E-13,  avg # of iterations =  1.0

     total cpu time spent up to now is    17454.5 secs

     total energy              =   -2728.53654219 Ry
     estimated scf accuracy    <          1.1E-10 Ry

     total magnetization       =     2.06 Bohr mag/cell
     absolute magnetization    =     2.83 Bohr mag/cell

     iteration # 18     ecut=    60.00 Ry     beta= 0.30
     Davidson diagonalization with overlap
     ethr =  1.00E-13,  avg # of iterations =  1.0

     total cpu time spent up to now is    17485.0 secs

     total energy              =   -2728.53654219 Ry
     estimated scf accuracy    <          4.6E-11 Ry

     total magnetization       =     2.06 Bohr mag/cell
     absolute magnetization    =     2.83 Bohr mag/cell

     iteration # 19     ecut=    60.00 Ry     beta= 0.30
     Davidson diagonalization with overlap
     ethr =  1.00E-13,  avg # of iterations =  1.0

     total cpu time spent up to now is    17515.4 secs

     total energy              =   -2728.53654219 Ry
     estimated scf accuracy    <          6.7E-11 Ry

     total magnetization       =     2.06 Bohr mag/cell
     absolute magnetization    =     2.83 Bohr mag/cell

     iteration # 20     ecut=    60.00 Ry     beta= 0.30
     Davidson diagonalization with overlap
     ethr =  1.00E-13,  avg # of iterations =  1.0

     total cpu time spent up to now is    17545.9 secs

     total energy              =   -2728.53654219 Ry
     estimated scf accuracy    <          4.4E-11 Ry

     total magnetization       =     2.06 Bohr mag/cell
     absolute magnetization    =     2.83 Bohr mag/cell

     iteration # 21     ecut=    60.00 Ry     beta= 0.30
     Davidson diagonalization with overlap
     ethr =  1.00E-13,  avg # of iterations =  1.0
 
     Magnetic moment per site  (integrated on atomic sphere of radius R)
     atom   1 (R=0.194)  charge= 15.2503  magn=  1.5873
     atom   2 (R=0.212)  charge=  0.6241  magn= -0.0030
     atom   3 (R=0.212)  charge=  0.6225  magn= -0.0146
     atom   4 (R=0.212)  charge=  0.6266  magn= -0.0020
     atom   5 (R=0.212)  charge=  0.6241  magn= -0.0030
     atom   6 (R=0.212)  charge=  0.6266  magn= -0.0020
     atom   7 (R=0.212)  charge=  0.6340  magn= -0.0074
     atom   8 (R=0.212)  charge=  0.6239  magn= -0.0032
     atom   9 (R=0.212)  charge=  0.6340  magn= -0.0074
     atom  10 (R=0.212)  charge=  0.6352  magn=  0.0027
     atom  11 (R=0.212)  charge=  0.6352  magn=  0.0027
     atom  12 (R=0.212)  charge=  0.6239  magn= -0.0032
     atom  13 (R=0.194)  charge= 16.4799  magn=  0.0299
     atom  14 (R=0.194)  charge= 16.4836  magn=  0.1713
     atom  15 (R=0.194)  charge= 16.4836  magn=  0.1713
     atom  16 (R=0.194)  charge= 16.4984  magn= -0.0361
     atom  17 (R=0.194)  charge= 16.4860  magn=  0.1735
     atom  18 (R=0.194)  charge= 16.4860  magn=  0.1735

     total cpu time spent up to now is    17576.2 secs

     End of self-consistent calculation

     Number of k-points >= 100: set verbosity='high' to print the bands.

     the Fermi energy is     8.0242 ev

!    total energy              =   -2728.53654219 Ry
     estimated scf accuracy    <          7.8E-12 Ry
     smearing contrib. (-TS)   =       0.00060814 Ry
     internal energy E=F+TS    =   -2728.53715033 Ry

     The total energy is F=E-TS. E is the sum of the following terms:
     one-electron contribution =   -2543.60474028 Ry
     hartree contribution      =    1320.73014417 Ry
     xc contribution           =    -264.42608855 Ry
     ewald contribution        =    -896.33324557 Ry
     DFT-D3 Dispersion         =      -0.45148232 Ry
     one-center paw contrib.   =    -344.45173779 Ry

     total magnetization       =     2.06 Bohr mag/cell
     absolute magnetization    =     2.83 Bohr mag/cell

     convergence has been achieved in  21 iterations

     Forces acting on atoms (cartesian axes, Ry/au):

     atom    1 type  1   force =    -0.00008523    0.00004904    0.00000299
     atom    2 type  2   force =     0.00000866   -0.00005581   -0.00013066
     atom    3 type  2   force =    -0.00006301    0.00003604   -0.00000018
     atom    4 type  2   force =     0.00001329    0.00002450    0.00005285
     atom    5 type  2   force =     0.00005275    0.00002021    0.00013086
     atom    6 type  2   force =    -0.00001475   -0.00002356   -0.00005273
     atom    7 type  2   force =     0.00014844   -0.00021118    0.00001516
     atom    8 type  2   force =    -0.00028898    0.00005991    0.00009967
     atom    9 type  2   force =     0.00025721   -0.00002310   -0.00001556
     atom   10 type  2   force =    -0.00006822    0.00001755    0.00016307
     atom   11 type  2   force =    -0.00004918    0.00005024   -0.00016378
     atom   12 type  2   force =    -0.00019635    0.00022111   -0.00009989
     atom   13 type  3   force =     0.00006170   -0.00003570   -0.00000101
     atom   14 type  3   force =    -0.00020923   -0.00005424   -0.00000579
     atom   15 type  3   force =    -0.00005701    0.00020740    0.00000588
     atom   16 type  3   force =     0.00011601   -0.00006701   -0.00000149
     atom   17 type  3   force =     0.00024270   -0.00001186   -0.00002480
     atom   18 type  3   force =     0.00013120   -0.00020354    0.00002540

     Total force =     0.000830     Total SCF correction =     0.000011


     Computing stress (Cartesian axis) and pressure

          total   stress  (Ry/bohr**3)                   (kbar)     P=        4.58
   0.00003777  -0.00000417   0.00000401            5.56       -0.61        0.59
  -0.00000417   0.00003296   0.00000694           -0.61        4.85        1.02
   0.00000401   0.00000694   0.00002268            0.59        1.02        3.34

     Energy error            =      2.3E-06 Ry
     Gradient error          =      2.9E-04 Ry/Bohr

     number of scf cycles    =  19
     number of bfgs steps    =  18

     energy             old  =   -2728.5365398973 Ry
     energy             new  =   -2728.5365421882 Ry

     CASE: energy            _new < energy            _old

     new trust radius        =       0.0012036732 bohr
     new conv_thr            =            1.0E-11 Ry


ATOMIC_POSITIONS (angstrom)
Co              -1.5315550935        3.4386972365       10.6056090082
Mg              -0.0204809463        1.3599865595        6.4142473576
Mg               3.4873049133        0.5410709574       10.6055620610
Mg               2.5104307849        2.8650923778        6.3465630582
Mg               1.2166679127        3.5028104192        1.9799102539
Mg               1.1786691165        0.5584292408        2.0475912600
Mg               1.2399615224        2.1864344363        9.2240106108
Mg               2.4940860829       -0.0534357164        7.8580766231
Mg               0.9386951473        1.6647448023       11.9870895963
Mg               2.5100858767       -0.1126098001        4.9117699748
Mg               3.7572617112        2.0475698212        3.4823632220
Mg               3.6980019836        2.0318456407        0.5360374659
Ni               1.2400642075        2.0607601643        4.1970752061
Ni               2.4267602330       -0.1801600026       -0.1445104533
Ni               3.7741185595        2.1534989766        8.5386743016
Ni              -0.0203955007       -0.1363505975        4.2723310655
Ni              -0.0894835628       -0.2033419444       -0.1448550055
Ni               0.0030980686       -0.0430282604        8.6895498054



     Writing config-only to output data dir ./outdir/mg2ni_co.save/ :
     XML data file
     NEW-OLD atomic charge density approx. for the potential

     Check: negative core charge=   -0.000003
     Generating pointlists ...

     total cpu time spent up to now is    17603.1 secs

     Self-consistent Calculation

     iteration #  1     ecut=    60.00 Ry     beta= 0.30
     Davidson diagonalization with overlap
     ethr =  1.00E-06,  avg # of iterations =  3.0

     Threshold (ethr) on eigenvalues was too large:
     Diagonalizing with lowered threshold

     Davidson diagonalization with overlap
     ethr =  7.68E-08,  avg # of iterations =  1.0

     total cpu time spent up to now is    17678.4 secs

     total energy              =   -2728.53649163 Ry
     estimated scf accuracy    <       0.00011406 Ry

     total magnetization       =     2.05 Bohr mag/cell
     absolute magnetization    =     2.82 Bohr mag/cell

     iteration #  2     ecut=    60.00 Ry     beta= 0.30
     Davidson diagonalization with overlap
     ethr =  7.76E-08,  avg # of iterations =  2.8

     total cpu time spent up to now is    17726.8 secs

     total energy              =   -2728.53617270 Ry
     estimated scf accuracy    <       0.01794723 Ry

     total magnetization       =     2.15 Bohr mag/cell
     absolute magnetization    =     2.92 Bohr mag/cell

     iteration #  3     ecut=    60.00 Ry     beta= 0.30
     Davidson diagonalization with overlap
     ethr =  7.76E-08,  avg # of iterations =  2.7

     total cpu time spent up to now is    17774.6 secs

     total energy              =   -2728.53654221 Ry
     estimated scf accuracy    <       0.00001023 Ry

     total magnetization       =     2.06 Bohr mag/cell
     absolute magnetization    =     2.83 Bohr mag/cell

     iteration #  4     ecut=    60.00 Ry     beta= 0.30
     Davidson diagonalization with overlap
     ethr =  6.96E-09,  avg # of iterations =  1.6

     total cpu time spent up to now is    17813.1 secs

     total energy              =   -2728.53654289 Ry
     estimated scf accuracy    <       0.00000862 Ry

     total magnetization       =     2.06 Bohr mag/cell
     absolute magnetization    =     2.83 Bohr mag/cell

     iteration #  5     ecut=    60.00 Ry     beta= 0.30
     Davidson diagonalization with overlap
     ethr =  5.86E-09,  avg # of iterations =  1.0

     total cpu time spent up to now is    17843.4 secs

     total energy              =   -2728.53654326 Ry
     estimated scf accuracy    <       0.00000186 Ry

     total magnetization       =     2.06 Bohr mag/cell
     absolute magnetization    =     2.83 Bohr mag/cell

     iteration #  6     ecut=    60.00 Ry     beta= 0.30
     Davidson diagonalization with overlap
     ethr =  1.27E-09,  avg # of iterations =  1.0

     total cpu time spent up to now is    17874.0 secs

     total energy              =   -2728.53654333 Ry
     estimated scf accuracy    <       0.00000204 Ry

     total magnetization       =     2.06 Bohr mag/cell
     absolute magnetization    =     2.83 Bohr mag/cell

     iteration #  7     ecut=    60.00 Ry     beta= 0.30
     Davidson diagonalization with overlap
     ethr =  1.27E-09,  avg # of iterations =  1.0

     total cpu time spent up to now is    17904.4 secs

     total energy              =   -2728.53654341 Ry
     estimated scf accuracy    <       0.00000014 Ry

     total magnetization       =     2.06 Bohr mag/cell
     absolute magnetization    =     2.83 Bohr mag/cell

     iteration #  8     ecut=    60.00 Ry     beta= 0.30
     Davidson diagonalization with overlap
     ethr =  9.72E-11,  avg # of iterations =  1.0

     total cpu time spent up to now is    17935.1 secs

     total energy              =   -2728.53654342 Ry
     estimated scf accuracy    <       0.00000004 Ry

     total magnetization       =     2.06 Bohr mag/cell
     absolute magnetization    =     2.83 Bohr mag/cell

     iteration #  9     ecut=    60.00 Ry     beta= 0.30
     Davidson diagonalization with overlap
     ethr =  2.98E-11,  avg # of iterations =  2.0

     total cpu time spent up to now is    17972.1 secs

     total energy              =   -2728.53654342 Ry
     estimated scf accuracy    <       0.00000005 Ry

     total magnetization       =     2.06 Bohr mag/cell
     absolute magnetization    =     2.83 Bohr mag/cell

     iteration # 10     ecut=    60.00 Ry     beta= 0.30
     Davidson diagonalization with overlap
     ethr =  2.98E-11,  avg # of iterations =  1.0

     total cpu time spent up to now is    18002.7 secs

     total energy              =   -2728.53654342 Ry
     estimated scf accuracy    <          5.7E-09 Ry

     total magnetization       =     2.06 Bohr mag/cell
     absolute magnetization    =     2.83 Bohr mag/cell

     iteration # 11     ecut=    60.00 Ry     beta= 0.30
     Davidson diagonalization with overlap
     ethr =  3.88E-12,  avg # of iterations =  4.7

     total cpu time spent up to now is    18067.0 secs

     total energy              =   -2728.53654342 Ry
     estimated scf accuracy    <       0.00000001 Ry

     total magnetization       =     2.06 Bohr mag/cell
     absolute magnetization    =     2.83 Bohr mag/cell

     iteration # 12     ecut=    60.00 Ry     beta= 0.30
     Davidson diagonalization with overlap
     ethr =  3.88E-12,  avg # of iterations =  1.6

     total cpu time spent up to now is    18105.1 secs

     total energy              =   -2728.53654342 Ry
     estimated scf accuracy    <          3.2E-10 Ry

     total magnetization       =     2.06 Bohr mag/cell
     absolute magnetization    =     2.83 Bohr mag/cell

     iteration # 13     ecut=    60.00 Ry     beta= 0.30
     Davidson diagonalization with overlap
     ethr =  2.16E-13,  avg # of iterations =  2.9

     total cpu time spent up to now is    18156.9 secs

     total energy              =   -2728.53654342 Ry
     estimated scf accuracy    <          3.6E-10 Ry

     total magnetization       =     2.06 Bohr mag/cell
     absolute magnetization    =     2.83 Bohr mag/cell

     iteration # 14     ecut=    60.00 Ry     beta= 0.30
     Davidson diagonalization with overlap
     ethr =  2.16E-13,  avg # of iterations =  1.3

     total cpu time spent up to now is    18191.2 secs

     total energy              =   -2728.53654342 Ry
     estimated scf accuracy    <          1.8E-10 Ry

     total magnetization       =     2.06 Bohr mag/cell
     absolute magnetization    =     2.83 Bohr mag/cell

     iteration # 15     ecut=    60.00 Ry     beta= 0.30
     Davidson diagonalization with overlap
     ethr =  1.20E-13,  avg # of iterations =  2.0

     total cpu time spent up to now is    18229.3 secs

     total energy              =   -2728.53654342 Ry
     estimated scf accuracy    <          1.6E-10 Ry

     total magnetization       =     2.06 Bohr mag/cell
     absolute magnetization    =     2.83 Bohr mag/cell

     iteration # 16     ecut=    60.00 Ry     beta= 0.30
     Davidson diagonalization with overlap
     ethr =  1.10E-13,  avg # of iterations =  1.1

     total cpu time spent up to now is    18260.8 secs

     total energy              =   -2728.53654342 Ry
     estimated scf accuracy    <          2.7E-10 Ry

     total magnetization       =     2.06 Bohr mag/cell
     absolute magnetization    =     2.83 Bohr mag/cell

     iteration # 17     ecut=    60.00 Ry     beta= 0.30
     Davidson diagonalization with overlap
     ethr =  1.10E-13,  avg # of iterations =  1.0

     total cpu time spent up to now is    18291.2 secs

     total energy              =   -2728.53654342 Ry
     estimated scf accuracy    <          4.2E-11 Ry

     total magnetization       =     2.06 Bohr mag/cell
     absolute magnetization    =     2.83 Bohr mag/cell

     iteration # 18     ecut=    60.00 Ry     beta= 0.30
     Davidson diagonalization with overlap
     ethr =  1.00E-13,  avg # of iterations =  1.0
 
     Magnetic moment per site  (integrated on atomic sphere of radius R)
     atom   1 (R=0.194)  charge= 15.2505  magn=  1.5871
     atom   2 (R=0.212)  charge=  0.6240  magn= -0.0030
     atom   3 (R=0.212)  charge=  0.6224  magn= -0.0146
     atom   4 (R=0.212)  charge=  0.6266  magn= -0.0020
     atom   5 (R=0.212)  charge=  0.6240  magn= -0.0030
     atom   6 (R=0.212)  charge=  0.6266  magn= -0.0020
     atom   7 (R=0.212)  charge=  0.6340  magn= -0.0074
     atom   8 (R=0.212)  charge=  0.6240  magn= -0.0033
     atom   9 (R=0.212)  charge=  0.6340  magn= -0.0074
     atom  10 (R=0.212)  charge=  0.6351  magn=  0.0027
     atom  11 (R=0.212)  charge=  0.6351  magn=  0.0027
     atom  12 (R=0.212)  charge=  0.6240  magn= -0.0033
     atom  13 (R=0.194)  charge= 16.4799  magn=  0.0299
     atom  14 (R=0.194)  charge= 16.4837  magn=  0.1713
     atom  15 (R=0.194)  charge= 16.4837  magn=  0.1713
     atom  16 (R=0.194)  charge= 16.4983  magn= -0.0361
     atom  17 (R=0.194)  charge= 16.4861  magn=  0.1735
     atom  18 (R=0.194)  charge= 16.4861  magn=  0.1735

     total cpu time spent up to now is    18321.6 secs

     End of self-consistent calculation

     Number of k-points >= 100: set verbosity='high' to print the bands.

     the Fermi energy is     8.0243 ev

!    total energy              =   -2728.53654342 Ry
     estimated scf accuracy    <          6.9E-12 Ry
     smearing contrib. (-TS)   =       0.00060844 Ry
     internal energy E=F+TS    =   -2728.53715186 Ry

     The total energy is F=E-TS. E is the sum of the following terms:
     one-electron contribution =   -2543.75815356 Ry
     hartree contribution      =    1320.80658841 Ry
     xc contribution           =    -264.42622668 Ry
     ewald contribution        =    -896.25615048 Ry
     DFT-D3 Dispersion         =      -0.45148265 Ry
     one-center paw contrib.   =    -344.45172691 Ry

     total magnetization       =     2.06 Bohr mag/cell
     absolute magnetization    =     2.83 Bohr mag/cell

     convergence has been achieved in  18 iterations

     Forces acting on atoms (cartesian axes, Ry/au):

     atom    1 type  1   force =    -0.00008073    0.00004614    0.00000073
     atom    2 type  2   force =    -0.00003616   -0.00006616   -0.00011330
     atom    3 type  2   force =    -0.00001339    0.00000744   -0.00000001
     atom    4 type  2   force =     0.00003594    0.00003418   -0.00002650
     atom    5 type  2   force =     0.00003925    0.00006434    0.00011344
     atom    6 type  2   force =    -0.00001173   -0.00004802    0.00002675
     atom    7 type  2   force =     0.00002125   -0.00018820    0.00010712
     atom    8 type  2   force =    -0.00020161    0.00002558    0.00005043
     atom    9 type  2   force =     0.00017366    0.00007578   -0.00010718
     atom   10 type  2   force =    -0.00004349    0.00001315    0.00012266
     atom   11 type  2   force =    -0.00003302    0.00003104   -0.00012306
     atom   12 type  2   force =    -0.00012290    0.00016235   -0.00005052
     atom   13 type  3   force =     0.00006055   -0.00003497    0.00000089
     atom   14 type  3   force =    -0.00001629   -0.00003936    0.00003439
     atom   15 type  3   force =     0.00002637    0.00003334   -0.00003557
     atom   16 type  3   force =     0.00009510   -0.00005486    0.00000067
     atom   17 type  3   force =     0.00004246   -0.00005034   -0.00000390
     atom   18 type  3   force =     0.00006473   -0.00001143    0.00000296

     Total force =     0.000549     Total SCF correction =     0.000004


     Computing stress (Cartesian axis) and pressure

          total   stress  (Ry/bohr**3)                   (kbar)     P=        4.61
   0.00003808  -0.00000430   0.00000409            5.60       -0.63        0.60
  -0.00000430   0.00003312   0.00000709           -0.63        4.87        1.04
   0.00000409   0.00000709   0.00002287            0.60        1.04        3.36

     Energy error            =      1.2E-06 Ry
     Gradient error          =      2.0E-04 Ry/Bohr

     number of scf cycles    =  20
     number of bfgs steps    =  19

     energy             old  =   -2728.5365421882 Ry
     energy             new  =   -2728.5365434224 Ry

     CASE: energy            _new < energy            _old

     new trust radius        =       0.0005535412 bohr
     new conv_thr            =            1.0E-11 Ry


ATOMIC_POSITIONS (angstrom)
Co              -1.5316176841        3.4387328223       10.6056095153
Mg              -0.0204849954        1.3599246421        6.4141133022
Mg               3.4872667274        0.5410926273       10.6055621545
Mg               2.5104363727        2.8651038659        6.3465999518
Mg               1.2167195520        3.5028447595        1.9800446012
Mg               1.1786618196        0.5584188825        2.0475546649
Mg               1.2401013518        2.1862145088        9.2240124312
Mg               2.4938103960       -0.0534059645        7.8581692979
Mg               0.9389555972        1.6647337039       11.9870877465
Mg               2.5100053140       -0.1125814118        4.9119279958
Mg               3.7571969775        2.0476253439        3.4822047062
Mg               3.6978383880        2.0320702575        0.5359448014
Ni               1.2400944290        2.0607427261        4.1970760010
Ni               2.4266026074       -0.1801980204       -0.1444999805
Ni               3.7740732294        2.1536539122        8.5386626035
Ni              -0.0203136679       -0.1363978201        4.2723315952
Ni              -0.0892510041       -0.2033204845       -0.1448704930
Ni               0.0031956066       -0.0432400394        8.6895645162



     Writing config-only to output data dir ./outdir/mg2ni_co.save/ :
     XML data file
     NEW-OLD atomic charge density approx. for the potential

     Check: negative core charge=   -0.000003
     Generating pointlists ...

     total cpu time spent up to now is    18348.4 secs

     Self-consistent Calculation

     iteration #  1     ecut=    60.00 Ry     beta= 0.30
     Davidson diagonalization with overlap
     ethr =  1.00E-06,  avg # of iterations =  2.0

     Threshold (ethr) on eigenvalues was too large:
     Diagonalizing with lowered threshold

     Davidson diagonalization with overlap
     ethr =  2.86E-09,  avg # of iterations =  3.0

     total cpu time spent up to now is    18430.8 secs

     total energy              =   -2728.53654213 Ry
     estimated scf accuracy    <       0.00000445 Ry

     total magnetization       =     2.06 Bohr mag/cell
     absolute magnetization    =     2.83 Bohr mag/cell

     iteration #  2     ecut=    60.00 Ry     beta= 0.30
     Davidson diagonalization with overlap
     ethr =  3.03E-09,  avg # of iterations =  2.9

     total cpu time spent up to now is    18480.9 secs

     total energy              =   -2728.53653254 Ry
     estimated scf accuracy    <       0.00050897 Ry

     total magnetization       =     2.08 Bohr mag/cell
     absolute magnetization    =     2.84 Bohr mag/cell

     iteration #  3     ecut=    60.00 Ry     beta= 0.30
     Davidson diagonalization with overlap
     ethr =  3.03E-09,  avg # of iterations =  2.6

     total cpu time spent up to now is    18526.6 secs

     total energy              =   -2728.53654350 Ry
     estimated scf accuracy    <       0.00000595 Ry

     total magnetization       =     2.06 Bohr mag/cell
     absolute magnetization    =     2.83 Bohr mag/cell

     iteration #  4     ecut=    60.00 Ry     beta= 0.30
     Davidson diagonalization with overlap
     ethr =  3.03E-09,  avg # of iterations =  1.0

     total cpu time spent up to now is    18556.9 secs

     total energy              =   -2728.53654383 Ry
     estimated scf accuracy    <       0.00000090 Ry

     total magnetization       =     2.06 Bohr mag/cell
     absolute magnetization    =     2.83 Bohr mag/cell

     iteration #  5     ecut=    60.00 Ry     beta= 0.30
     Davidson diagonalization with overlap
     ethr =  6.14E-10,  avg # of iterations =  1.0

     total cpu time spent up to now is    18587.3 secs

     total energy              =   -2728.53654387 Ry
     estimated scf accuracy    <       0.00000010 Ry

     total magnetization       =     2.06 Bohr mag/cell
     absolute magnetization    =     2.83 Bohr mag/cell

     iteration #  6     ecut=    60.00 Ry     beta= 0.30
     Davidson diagonalization with overlap
     ethr =  6.98E-11,  avg # of iterations =  1.9

     total cpu time spent up to now is    18625.9 secs

     total energy              =   -2728.53654387 Ry
     estimated scf accuracy    <       0.00000017 Ry

     total magnetization       =     2.06 Bohr mag/cell
     absolute magnetization    =     2.83 Bohr mag/cell

     iteration #  7     ecut=    60.00 Ry     beta= 0.30
     Davidson diagonalization with overlap
     ethr =  6.98E-11,  avg # of iterations =  1.0

     total cpu time spent up to now is    18656.3 secs

     total energy              =   -2728.53654388 Ry
     estimated scf accuracy    <       0.00000002 Ry

     total magnetization       =     2.06 Bohr mag/cell
     absolute magnetization    =     2.83 Bohr mag/cell

     iteration #  8     ecut=    60.00 Ry     beta= 0.30
     Davidson diagonalization with overlap
     ethr =  1.46E-11,  avg # of iterations =  1.1

     total cpu time spent up to now is    18687.8 secs

     total energy              =   -2728.53654388 Ry
     estimated scf accuracy    <          9.0E-09 Ry

     total magnetization       =     2.06 Bohr mag/cell
     absolute magnetization    =     2.83 Bohr mag/cell

     iteration #  9     ecut=    60.00 Ry     beta= 0.30
     Davidson diagonalization with overlap
     ethr =  6.11E-12,  avg # of iterations =  1.5

     total cpu time spent up to now is    18724.6 secs

     total energy              =   -2728.53654388 Ry
     estimated scf accuracy    <          5.8E-09 Ry

     total magnetization       =     2.06 Bohr mag/cell
     absolute magnetization    =     2.83 Bohr mag/cell

     iteration # 10     ecut=    60.00 Ry     beta= 0.30
     Davidson diagonalization with overlap
     ethr =  3.96E-12,  avg # of iterations =  1.4

     total cpu time spent up to now is    18761.0 secs

     total energy              =   -2728.53654388 Ry
     estimated scf accuracy    <          1.2E-09 Ry

     total magnetization       =     2.06 Bohr mag/cell
     absolute magnetization    =     2.83 Bohr mag/cell

     iteration # 11     ecut=    60.00 Ry     beta= 0.30
     Davidson diagonalization with overlap
     ethr =  8.18E-13,  avg # of iterations =  4.8

     total cpu time spent up to now is    18825.9 secs

     total energy              =   -2728.53654388 Ry
     estimated scf accuracy    <          1.1E-09 Ry

     total magnetization       =     2.06 Bohr mag/cell
     absolute magnetization    =     2.83 Bohr mag/cell

     iteration # 12     ecut=    60.00 Ry     beta= 0.30
     Davidson diagonalization with overlap
     ethr =  7.61E-13,  avg # of iterations =  1.9

     total cpu time spent up to now is    18867.3 secs

     total energy              =   -2728.53654388 Ry
     estimated scf accuracy    <          1.1E-10 Ry

     total magnetization       =     2.06 Bohr mag/cell
     absolute magnetization    =     2.83 Bohr mag/cell

     iteration # 13     ecut=    60.00 Ry     beta= 0.30
     Davidson diagonalization with overlap
     ethr =  1.00E-13,  avg # of iterations =  4.0

     total cpu time spent up to now is    18932.8 secs

     total energy              =   -2728.53654388 Ry
     estimated scf accuracy    <          1.0E-10 Ry

     total magnetization       =     2.06 Bohr mag/cell
     absolute magnetization    =     2.83 Bohr mag/cell

     iteration # 14     ecut=    60.00 Ry     beta= 0.30
     Davidson diagonalization with overlap
     ethr =  1.00E-13,  avg # of iterations =  1.0

     total cpu time spent up to now is    18963.6 secs

     total energy              =   -2728.53654388 Ry
     estimated scf accuracy    <          7.4E-11 Ry

     total magnetization       =     2.06 Bohr mag/cell
     absolute magnetization    =     2.83 Bohr mag/cell

     iteration # 15     ecut=    60.00 Ry     beta= 0.30
     Davidson diagonalization with overlap
     ethr =  1.00E-13,  avg # of iterations =  1.0

     total cpu time spent up to now is    18994.1 secs

     total energy              =   -2728.53654388 Ry
     estimated scf accuracy    <          2.6E-11 Ry

     total magnetization       =     2.06 Bohr mag/cell
     absolute magnetization    =     2.83 Bohr mag/cell

     iteration # 16     ecut=    60.00 Ry     beta= 0.30
     Davidson diagonalization with overlap
     ethr =  1.00E-13,  avg # of iterations =  1.0

     total cpu time spent up to now is    19024.5 secs

     total energy              =   -2728.53654388 Ry
     estimated scf accuracy    <          3.2E-11 Ry

     total magnetization       =     2.06 Bohr mag/cell
     absolute magnetization    =     2.83 Bohr mag/cell

     iteration # 17     ecut=    60.00 Ry     beta= 0.30
     Davidson diagonalization with overlap
     ethr =  1.00E-13,  avg # of iterations =  1.0

     total cpu time spent up to now is    19054.9 secs

     total energy              =   -2728.53654388 Ry
     estimated scf accuracy    <          4.2E-11 Ry

     total magnetization       =     2.06 Bohr mag/cell
     absolute magnetization    =     2.83 Bohr mag/cell

     iteration # 18     ecut=    60.00 Ry     beta= 0.30
     Davidson diagonalization with overlap
     ethr =  1.00E-13,  avg # of iterations =  1.0
 
     Magnetic moment per site  (integrated on atomic sphere of radius R)
     atom   1 (R=0.194)  charge= 15.2506  magn=  1.5870
     atom   2 (R=0.212)  charge=  0.6240  magn= -0.0030
     atom   3 (R=0.212)  charge=  0.6224  magn= -0.0146
     atom   4 (R=0.212)  charge=  0.6267  magn= -0.0020
     atom   5 (R=0.212)  charge=  0.6240  magn= -0.0030
     atom   6 (R=0.212)  charge=  0.6267  magn= -0.0020
     atom   7 (R=0.212)  charge=  0.6340  magn= -0.0074
     atom   8 (R=0.212)  charge=  0.6240  magn= -0.0033
     atom   9 (R=0.212)  charge=  0.6340  magn= -0.0074
     atom  10 (R=0.212)  charge=  0.6351  magn=  0.0027
     atom  11 (R=0.212)  charge=  0.6351  magn=  0.0027
     atom  12 (R=0.212)  charge=  0.6240  magn= -0.0033
     atom  13 (R=0.194)  charge= 16.4799  magn=  0.0299
     atom  14 (R=0.194)  charge= 16.4837  magn=  0.1713
     atom  15 (R=0.194)  charge= 16.4837  magn=  0.1713
     atom  16 (R=0.194)  charge= 16.4983  magn= -0.0361
     atom  17 (R=0.194)  charge= 16.4861  magn=  0.1735
     atom  18 (R=0.194)  charge= 16.4861  magn=  0.1735

     total cpu time spent up to now is    19085.3 secs

     End of self-consistent calculation

     Number of k-points >= 100: set verbosity='high' to print the bands.

     the Fermi energy is     8.0243 ev

!    total energy              =   -2728.53654388 Ry
     estimated scf accuracy    <          4.3E-12 Ry
     smearing contrib. (-TS)   =       0.00060834 Ry
     internal energy E=F+TS    =   -2728.53715222 Ry

     The total energy is F=E-TS. E is the sum of the following terms:
     one-electron contribution =   -2543.79141965 Ry
     hartree contribution      =    1320.82315433 Ry
     xc contribution           =    -264.42624902 Ry
     ewald contribution        =    -896.23943781 Ry
     DFT-D3 Dispersion         =      -0.45148276 Ry
     one-center paw contrib.   =    -344.45171732 Ry

     total magnetization       =     2.06 Bohr mag/cell
     absolute magnetization    =     2.83 Bohr mag/cell

     convergence has been achieved in  18 iterations

     Forces acting on atoms (cartesian axes, Ry/au):

     atom    1 type  1   force =    -0.00006725    0.00003824    0.00000029
     atom    2 type  2   force =    -0.00005060   -0.00005277   -0.00007404
     atom    3 type  2   force =     0.00001945   -0.00001143   -0.00000009
     atom    4 type  2   force =     0.00002375    0.00002347   -0.00004229
     atom    5 type  2   force =     0.00002042    0.00007022    0.00007410
     atom    6 type  2   force =    -0.00000853   -0.00003212    0.00004251
     atom    7 type  2   force =    -0.00003990   -0.00014832    0.00009802
     atom    8 type  2   force =    -0.00011061    0.00000983    0.00004399
     atom    9 type  2   force =     0.00010851    0.00010890   -0.00009811
     atom   10 type  2   force =    -0.00001036    0.00000298    0.00009954
     atom   11 type  2   force =    -0.00000768    0.00000745   -0.00009981
     atom   12 type  2   force =    -0.00006377    0.00009122   -0.00004416
     atom   13 type  3   force =     0.00004798   -0.00002772    0.00000013
     atom   14 type  3   force =     0.00007798   -0.00002947    0.00003499
     atom   15 type  3   force =     0.00006477   -0.00005298   -0.00003519
     atom   16 type  3   force =     0.00006464   -0.00003731   -0.00000000
     atom   17 type  3   force =    -0.00006062   -0.00002535    0.00000944
     atom   18 type  3   force =    -0.00000817    0.00006515   -0.00000930

     Total force =     0.000428     Total SCF correction =     0.000005


     Computing stress (Cartesian axis) and pressure

          total   stress  (Ry/bohr**3)                   (kbar)     P=        4.61
   0.00003809  -0.00000435   0.00000411            5.60       -0.64        0.60
  -0.00000435   0.00003307   0.00000712           -0.64        4.86        1.05
   0.00000411   0.00000712   0.00002292            0.60        1.05        3.37

     Energy error            =      4.6E-07 Ry
     Gradient error          =      1.5E-04 Ry/Bohr

     number of scf cycles    =  21
     number of bfgs steps    =  20

     energy             old  =   -2728.5365434224 Ry
     energy             new  =   -2728.5365438809 Ry

     CASE: energy            _new < energy            _old

     new trust radius        =       0.0006799246 bohr
     new conv_thr            =            1.0E-11 Ry


ATOMIC_POSITIONS (angstrom)
Co              -1.5316437054        3.4387470070       10.6056100823
Mg              -0.0205688389        1.3598038612        6.4139601598
Mg               3.4873303458        0.5410554805       10.6055620984
Mg               2.5104447641        2.8651065716        6.3465474856
Mg               1.2167822628        3.5029777457        1.9801980013
Mg               1.1786634900        0.5584105895        2.0476075273
Mg               1.2401541717        2.1858767700        9.2241244059
Mg               2.4935347045       -0.0534816755        7.8582417549
Mg               0.9392744799        1.6648570171       11.9869756567
Mg               2.5098446159       -0.1125072148        4.9120861595
Mg               3.7570525343        2.0477273932        3.4820460883
Mg               3.6977661076        2.0323476144        0.5358721746
Ni               1.2400535188        2.0607663440        4.1970765287
Ni               2.4266252775       -0.1801798404       -0.1444365057
Ni               3.7740694514        2.1536246023        8.5385982451
Ni              -0.0203005995       -0.1364053244        4.2723318306
Ni              -0.0890675074       -0.2033072284       -0.1448558536
Ni               0.0032759440       -0.0434054019        8.6895495717



     Writing config-only to output data dir ./outdir/mg2ni_co.save/ :
     XML data file
     NEW-OLD atomic charge density approx. for the potential

     Check: negative core charge=   -0.000003
     Generating pointlists ...

     total cpu time spent up to now is    19112.2 secs

     Self-consistent Calculation

     iteration #  1     ecut=    60.00 Ry     beta= 0.30
     Davidson diagonalization with overlap
     ethr =  1.00E-06,  avg # of iterations =  2.0

     Threshold (ethr) on eigenvalues was too large:
     Diagonalizing with lowered threshold

     Davidson diagonalization with overlap
     ethr =  2.01E-09,  avg # of iterations =  3.0

     total cpu time spent up to now is    19195.0 secs

     total energy              =   -2728.53654274 Ry
     estimated scf accuracy    <       0.00000316 Ry

     total magnetization       =     2.06 Bohr mag/cell
     absolute magnetization    =     2.83 Bohr mag/cell

     iteration #  2     ecut=    60.00 Ry     beta= 0.30
     Davidson diagonalization with overlap
     ethr =  2.15E-09,  avg # of iterations =  2.6

     total cpu time spent up to now is    19244.3 secs

     total energy              =   -2728.53653486 Ry
     estimated scf accuracy    <       0.00043650 Ry

     total magnetization       =     2.05 Bohr mag/cell
     absolute magnetization    =     2.81 Bohr mag/cell

     iteration #  3     ecut=    60.00 Ry     beta= 0.30
     Davidson diagonalization with overlap
     ethr =  2.15E-09,  avg # of iterations =  2.7

     total cpu time spent up to now is    19290.8 secs

     total energy              =   -2728.53654403 Ry
     estimated scf accuracy    <       0.00000133 Ry

     total magnetization       =     2.06 Bohr mag/cell
     absolute magnetization    =     2.83 Bohr mag/cell

     iteration #  4     ecut=    60.00 Ry     beta= 0.30
     Davidson diagonalization with overlap
     ethr =  9.03E-10,  avg # of iterations =  1.3

     total cpu time spent up to now is    19324.9 secs

     total energy              =   -2728.53654411 Ry
     estimated scf accuracy    <       0.00000066 Ry

     total magnetization       =     2.06 Bohr mag/cell
     absolute magnetization    =     2.83 Bohr mag/cell

     iteration #  5     ecut=    60.00 Ry     beta= 0.30
     Davidson diagonalization with overlap
     ethr =  4.52E-10,  avg # of iterations =  1.0

     total cpu time spent up to now is    19355.3 secs

     total energy              =   -2728.53654414 Ry
     estimated scf accuracy    <       0.00000003 Ry

     total magnetization       =     2.06 Bohr mag/cell
     absolute magnetization    =     2.83 Bohr mag/cell

     iteration #  6     ecut=    60.00 Ry     beta= 0.30
     Davidson diagonalization with overlap
     ethr =  2.23E-11,  avg # of iterations =  2.0

     total cpu time spent up to now is    19394.6 secs

     total energy              =   -2728.53654414 Ry
     estimated scf accuracy    <       0.00000007 Ry

     total magnetization       =     2.06 Bohr mag/cell
     absolute magnetization    =     2.83 Bohr mag/cell

     iteration #  7     ecut=    60.00 Ry     beta= 0.30
     Davidson diagonalization with overlap
     ethr =  2.23E-11,  avg # of iterations =  1.1

     total cpu time spent up to now is    19426.0 secs

     total energy              =   -2728.53654415 Ry
     estimated scf accuracy    <       0.00000004 Ry

     total magnetization       =     2.06 Bohr mag/cell
     absolute magnetization    =     2.83 Bohr mag/cell

     iteration #  8     ecut=    60.00 Ry     beta= 0.30
     Davidson diagonalization with overlap
     ethr =  2.23E-11,  avg # of iterations =  1.0

     total cpu time spent up to now is    19456.4 secs

     total energy              =   -2728.53654415 Ry
     estimated scf accuracy    <          5.9E-09 Ry

     total magnetization       =     2.06 Bohr mag/cell
     absolute magnetization    =     2.83 Bohr mag/cell

     iteration #  9     ecut=    60.00 Ry     beta= 0.30
     Davidson diagonalization with overlap
     ethr =  4.04E-12,  avg # of iterations =  2.0

     total cpu time spent up to now is    19493.3 secs

     total energy              =   -2728.53654415 Ry
     estimated scf accuracy    <          3.9E-09 Ry

     total magnetization       =     2.06 Bohr mag/cell
     absolute magnetization    =     2.83 Bohr mag/cell

     iteration # 10     ecut=    60.00 Ry     beta= 0.30
     Davidson diagonalization with overlap
     ethr =  2.64E-12,  avg # of iterations =  1.8

     total cpu time spent up to now is    19534.1 secs

     total energy              =   -2728.53654415 Ry
     estimated scf accuracy    <          5.4E-10 Ry

     total magnetization       =     2.06 Bohr mag/cell
     absolute magnetization    =     2.83 Bohr mag/cell

     iteration # 11     ecut=    60.00 Ry     beta= 0.30
     Davidson diagonalization with overlap
     ethr =  3.65E-13,  avg # of iterations =  4.0

     total cpu time spent up to now is    19599.8 secs

     total energy              =   -2728.53654415 Ry
     estimated scf accuracy    <          1.7E-09 Ry

     total magnetization       =     2.06 Bohr mag/cell
     absolute magnetization    =     2.83 Bohr mag/cell

     iteration # 12     ecut=    60.00 Ry     beta= 0.30
     Davidson diagonalization with overlap
     ethr =  3.65E-13,  avg # of iterations =  2.1

     total cpu time spent up to now is    19638.2 secs

     total energy              =   -2728.53654415 Ry
     estimated scf accuracy    <          6.2E-11 Ry

     total magnetization       =     2.06 Bohr mag/cell
     absolute magnetization    =     2.83 Bohr mag/cell

     iteration # 13     ecut=    60.00 Ry     beta= 0.30
     Davidson diagonalization with overlap
     ethr =  1.00E-13,  avg # of iterations =  2.0

     total cpu time spent up to now is    19676.3 secs

     total energy              =   -2728.53654415 Ry
     estimated scf accuracy    <          6.8E-11 Ry

     total magnetization       =     2.06 Bohr mag/cell
     absolute magnetization    =     2.83 Bohr mag/cell

     iteration # 14     ecut=    60.00 Ry     beta= 0.30
     Davidson diagonalization with overlap
     ethr =  1.00E-13,  avg # of iterations =  1.0

     total cpu time spent up to now is    19706.7 secs

     total energy              =   -2728.53654415 Ry
     estimated scf accuracy    <          5.2E-11 Ry

     total magnetization       =     2.06 Bohr mag/cell
     absolute magnetization    =     2.83 Bohr mag/cell

     iteration # 15     ecut=    60.00 Ry     beta= 0.30
     Davidson diagonalization with overlap
     ethr =  1.00E-13,  avg # of iterations =  1.0

     total cpu time spent up to now is    19737.2 secs

     total energy              =   -2728.53654415 Ry
     estimated scf accuracy    <          2.5E-11 Ry

     total magnetization       =     2.06 Bohr mag/cell
     absolute magnetization    =     2.83 Bohr mag/cell

     iteration # 16     ecut=    60.00 Ry     beta= 0.30
     Davidson diagonalization with overlap
     ethr =  1.00E-13,  avg # of iterations =  1.0
 
     Magnetic moment per site  (integrated on atomic sphere of radius R)
     atom   1 (R=0.194)  charge= 15.2506  magn=  1.5869
     atom   2 (R=0.212)  charge=  0.6240  magn= -0.0030
     atom   3 (R=0.212)  charge=  0.6224  magn= -0.0146
     atom   4 (R=0.212)  charge=  0.6267  magn= -0.0020
     atom   5 (R=0.212)  charge=  0.6240  magn= -0.0030
     atom   6 (R=0.212)  charge=  0.6267  magn= -0.0020
     atom   7 (R=0.212)  charge=  0.6340  magn= -0.0074
     atom   8 (R=0.212)  charge=  0.6240  magn= -0.0033
     atom   9 (R=0.212)  charge=  0.6340  magn= -0.0074
     atom  10 (R=0.212)  charge=  0.6351  magn=  0.0027
     atom  11 (R=0.212)  charge=  0.6351  magn=  0.0027
     atom  12 (R=0.212)  charge=  0.6240  magn= -0.0033
     atom  13 (R=0.194)  charge= 16.4799  magn=  0.0298
     atom  14 (R=0.194)  charge= 16.4837  magn=  0.1713
     atom  15 (R=0.194)  charge= 16.4837  magn=  0.1713
     atom  16 (R=0.194)  charge= 16.4983  magn= -0.0361
     atom  17 (R=0.194)  charge= 16.4861  magn=  0.1735
     atom  18 (R=0.194)  charge= 16.4861  magn=  0.1735

     total cpu time spent up to now is    19767.6 secs

     End of self-consistent calculation

     Number of k-points >= 100: set verbosity='high' to print the bands.

     the Fermi energy is     8.0243 ev

!    total energy              =   -2728.53654415 Ry
     estimated scf accuracy    <          5.7E-12 Ry
     smearing contrib. (-TS)   =       0.00060814 Ry
     internal energy E=F+TS    =   -2728.53715229 Ry

     The total energy is F=E-TS. E is the sum of the following terms:
     one-electron contribution =   -2543.77936227 Ry
     hartree contribution      =    1320.81719480 Ry
     xc contribution           =    -264.42625076 Ry
     ewald contribution        =    -896.24554158 Ry
     DFT-D3 Dispersion         =      -0.45148280 Ry
     one-center paw contrib.   =    -344.45170967 Ry

     total magnetization       =     2.06 Bohr mag/cell
     absolute magnetization    =     2.83 Bohr mag/cell

     convergence has been achieved in  16 iterations

     Forces acting on atoms (cartesian axes, Ry/au):

     atom    1 type  1   force =    -0.00005059    0.00002855   -0.00000026
     atom    2 type  2   force =    -0.00005003   -0.00002946   -0.00003753
     atom    3 type  2   force =     0.00003985   -0.00002314   -0.00000006
     atom    4 type  2   force =     0.00000523    0.00000629   -0.00003366
     atom    5 type  2   force =     0.00000049    0.00005813    0.00003756
     atom    6 type  2   force =    -0.00000288   -0.00000750    0.00003387
     atom    7 type  2   force =    -0.00006104   -0.00008572    0.00005364
     atom    8 type  2   force =    -0.00002948   -0.00000563    0.00004537
     atom    9 type  2   force =     0.00004369    0.00009596   -0.00005368
     atom   10 type  2   force =     0.00002608   -0.00001033    0.00007540
     atom   11 type  2   force =     0.00002203   -0.00001743   -0.00007556
     atom   12 type  2   force =    -0.00000984    0.00002851   -0.00004553
     atom   13 type  3   force =     0.00003204   -0.00001846    0.00000076
     atom   14 type  3   force =     0.00011409   -0.00001277    0.00002170
     atom   15 type  3   force =     0.00006821   -0.00009232   -0.00002223
     atom   16 type  3   force =     0.00003277   -0.00001892    0.00000068
     atom   17 type  3   force =    -0.00010645    0.00002452    0.00001762
     atom   18 type  3   force =    -0.00007418    0.00007973   -0.00001809

     Total force =     0.000345     Total SCF correction =     0.000004


     Computing stress (Cartesian axis) and pressure

          total   stress  (Ry/bohr**3)                   (kbar)     P=        4.62
   0.00003809  -0.00000439   0.00000414            5.60       -0.65        0.61
  -0.00000439   0.00003302   0.00000717           -0.65        4.86        1.05
   0.00000414   0.00000717   0.00002303            0.61        1.05        3.39

     Energy error            =      2.7E-07 Ry
     Gradient error          =      1.1E-04 Ry/Bohr

     number of scf cycles    =  22
     number of bfgs steps    =  21

     energy             old  =   -2728.5365438809 Ry
     energy             new  =   -2728.5365441480 Ry

     CASE: energy            _new < energy            _old

     new trust radius        =       0.0008523715 bohr
     new conv_thr            =            1.0E-11 Ry


ATOMIC_POSITIONS (angstrom)
Co              -1.5316392788        3.4387433022       10.6056105310
Mg              -0.0207170944        1.3596619669        6.4138686190
Mg               3.4875081818        0.5409523502       10.6055620415
Mg               2.5103983685        2.8650758142        6.3464729715
Mg               1.2168309738        3.5031771574        1.9802896886
Mg               1.1786667402        0.5584665571        2.0476824025
Mg               1.2401131592        2.1854443837        9.2242455352
Mg               2.4933516447       -0.0536293527        7.8583661000
Mg               0.9396283249        1.6651090641       11.9868543423
Mg               2.5096525146       -0.1124106759        4.9122676617
Mg               3.7568730537        2.0478455000        3.4818640645
Mg               3.6978024138        2.0325806783        0.5357475599
Ni               1.2399452859        2.0608288947        4.1970775580
Ni               2.4268004174       -0.1801238942       -0.1443868808
Ni               3.7741091441        2.1534445983        8.5385475673
Ni              -0.0203680446       -0.1363663289        4.2723325898
Ni              -0.0889395353       -0.2032315971       -0.1448218844
Ni               0.0032747478       -0.0435541069        8.6895149438



     Writing config-only to output data dir ./outdir/mg2ni_co.save/ :
     XML data file
     NEW-OLD atomic charge density approx. for the potential

     Check: negative core charge=   -0.000003
     Generating pointlists ...

     total cpu time spent up to now is    19794.4 secs

     Self-consistent Calculation

     iteration #  1     ecut=    60.00 Ry     beta= 0.30
     Davidson diagonalization with overlap
     ethr =  1.00E-06,  avg # of iterations =  2.0

     Threshold (ethr) on eigenvalues was too large:
     Diagonalizing with lowered threshold

     Davidson diagonalization with overlap
     ethr =  5.23E-09,  avg # of iterations =  3.0

     total cpu time spent up to now is    19882.4 secs

     total energy              =   -2728.53654065 Ry
     estimated scf accuracy    <       0.00000809 Ry

     total magnetization       =     2.06 Bohr mag/cell
     absolute magnetization    =     2.83 Bohr mag/cell

     iteration #  2     ecut=    60.00 Ry     beta= 0.30
     Davidson diagonalization with overlap
     ethr =  5.51E-09,  avg # of iterations =  2.7

     total cpu time spent up to now is    19930.1 secs

     total energy              =   -2728.53651845 Ry
     estimated scf accuracy    <       0.00124686 Ry

     total magnetization       =     2.04 Bohr mag/cell
     absolute magnetization    =     2.80 Bohr mag/cell

     iteration #  3     ecut=    60.00 Ry     beta= 0.30
     Davidson diagonalization with overlap
     ethr =  5.51E-09,  avg # of iterations =  2.7

     total cpu time spent up to now is    19977.5 secs

     total energy              =   -2728.53654434 Ry
     estimated scf accuracy    <       0.00000041 Ry

     total magnetization       =     2.06 Bohr mag/cell
     absolute magnetization    =     2.83 Bohr mag/cell

     iteration #  4     ecut=    60.00 Ry     beta= 0.30
     Davidson diagonalization with overlap
     ethr =  2.78E-10,  avg # of iterations =  2.0

     total cpu time spent up to now is    20014.1 secs

     total energy              =   -2728.53654437 Ry
     estimated scf accuracy    <       0.00000035 Ry

     total magnetization       =     2.06 Bohr mag/cell
     absolute magnetization    =     2.83 Bohr mag/cell

     iteration #  5     ecut=    60.00 Ry     beta= 0.30
     Davidson diagonalization with overlap
     ethr =  2.37E-10,  avg # of iterations =  1.0

     total cpu time spent up to now is    20044.5 secs

     total energy              =   -2728.53654439 Ry
     estimated scf accuracy    <       0.00000006 Ry

     total magnetization       =     2.06 Bohr mag/cell
     absolute magnetization    =     2.83 Bohr mag/cell

     iteration #  6     ecut=    60.00 Ry     beta= 0.30
     Davidson diagonalization with overlap
     ethr =  3.78E-11,  avg # of iterations =  1.2

     total cpu time spent up to now is    20078.2 secs

     total energy              =   -2728.53654439 Ry
     estimated scf accuracy    <       0.00000016 Ry

     total magnetization       =     2.06 Bohr mag/cell
     absolute magnetization    =     2.83 Bohr mag/cell

     iteration #  7     ecut=    60.00 Ry     beta= 0.30
     Davidson diagonalization with overlap
     ethr =  3.78E-11,  avg # of iterations =  1.1

     total cpu time spent up to now is    20110.2 secs

     total energy              =   -2728.53654439 Ry
     estimated scf accuracy    <       0.00000003 Ry

     total magnetization       =     2.06 Bohr mag/cell
     absolute magnetization    =     2.83 Bohr mag/cell

     iteration #  8     ecut=    60.00 Ry     beta= 0.30
     Davidson diagonalization with overlap
     ethr =  1.98E-11,  avg # of iterations =  1.0

     total cpu time spent up to now is    20141.5 secs

     total energy              =   -2728.53654439 Ry
     estimated scf accuracy    <          6.3E-09 Ry

     total magnetization       =     2.06 Bohr mag/cell
     absolute magnetization    =     2.83 Bohr mag/cell

     iteration #  9     ecut=    60.00 Ry     beta= 0.30
     Davidson diagonalization with overlap
     ethr =  4.29E-12,  avg # of iterations =  2.0

     total cpu time spent up to now is    20179.5 secs

     total energy              =   -2728.53654439 Ry
     estimated scf accuracy    <          6.4E-09 Ry

     total magnetization       =     2.06 Bohr mag/cell
     absolute magnetization    =     2.83 Bohr mag/cell

     iteration # 10     ecut=    60.00 Ry     beta= 0.30
     Davidson diagonalization with overlap
     ethr =  4.29E-12,  avg # of iterations =  1.0

     total cpu time spent up to now is    20210.8 secs

     total energy              =   -2728.53654439 Ry
     estimated scf accuracy    <          2.6E-10 Ry

     total magnetization       =     2.06 Bohr mag/cell
     absolute magnetization    =     2.83 Bohr mag/cell

     iteration # 11     ecut=    60.00 Ry     beta= 0.30
     Davidson diagonalization with overlap
     ethr =  1.77E-13,  avg # of iterations =  4.0

     total cpu time spent up to now is    20287.8 secs

     total energy              =   -2728.53654439 Ry
     estimated scf accuracy    <          8.5E-10 Ry

     total magnetization       =     2.06 Bohr mag/cell
     absolute magnetization    =     2.83 Bohr mag/cell

     iteration # 12     ecut=    60.00 Ry     beta= 0.30
     Davidson diagonalization with overlap
     ethr =  1.77E-13,  avg # of iterations =  2.7

     total cpu time spent up to now is    20332.2 secs

     total energy              =   -2728.53654439 Ry
     estimated scf accuracy    <          5.8E-11 Ry

     total magnetization       =     2.06 Bohr mag/cell
     absolute magnetization    =     2.83 Bohr mag/cell

     iteration # 13     ecut=    60.00 Ry     beta= 0.30
     Davidson diagonalization with overlap
     ethr =  1.00E-13,  avg # of iterations =  1.1

     total cpu time spent up to now is    20363.8 secs

     total energy              =   -2728.53654439 Ry
     estimated scf accuracy    <          2.9E-11 Ry

     total magnetization       =     2.06 Bohr mag/cell
     absolute magnetization    =     2.83 Bohr mag/cell

     iteration # 14     ecut=    60.00 Ry     beta= 0.30
     Davidson diagonalization with overlap
     ethr =  1.00E-13,  avg # of iterations =  1.0

     total cpu time spent up to now is    20394.6 secs

     total energy              =   -2728.53654439 Ry
     estimated scf accuracy    <          3.0E-11 Ry

     total magnetization       =     2.06 Bohr mag/cell
     absolute magnetization    =     2.83 Bohr mag/cell

     iteration # 15     ecut=    60.00 Ry     beta= 0.30
     Davidson diagonalization with overlap
     ethr =  1.00E-13,  avg # of iterations =  1.0

     total cpu time spent up to now is    20425.7 secs

     total energy              =   -2728.53654439 Ry
     estimated scf accuracy    <          1.7E-11 Ry

     total magnetization       =     2.06 Bohr mag/cell
     absolute magnetization    =     2.83 Bohr mag/cell

     iteration # 16     ecut=    60.00 Ry     beta= 0.30
     Davidson diagonalization with overlap
     ethr =  1.00E-13,  avg # of iterations =  1.0
 
     Magnetic moment per site  (integrated on atomic sphere of radius R)
     atom   1 (R=0.194)  charge= 15.2505  magn=  1.5870
     atom   2 (R=0.212)  charge=  0.6240  magn= -0.0030
     atom   3 (R=0.212)  charge=  0.6224  magn= -0.0146
     atom   4 (R=0.212)  charge=  0.6267  magn= -0.0020
     atom   5 (R=0.212)  charge=  0.6240  magn= -0.0030
     atom   6 (R=0.212)  charge=  0.6267  magn= -0.0020
     atom   7 (R=0.212)  charge=  0.6340  magn= -0.0074
     atom   8 (R=0.212)  charge=  0.6240  magn= -0.0033
     atom   9 (R=0.212)  charge=  0.6340  magn= -0.0074
     atom  10 (R=0.212)  charge=  0.6350  magn=  0.0027
     atom  11 (R=0.212)  charge=  0.6350  magn=  0.0027
     atom  12 (R=0.212)  charge=  0.6240  magn= -0.0033
     atom  13 (R=0.194)  charge= 16.4799  magn=  0.0298
     atom  14 (R=0.194)  charge= 16.4836  magn=  0.1712
     atom  15 (R=0.194)  charge= 16.4836  magn=  0.1712
     atom  16 (R=0.194)  charge= 16.4983  magn= -0.0361
     atom  17 (R=0.194)  charge= 16.4862  magn=  0.1736
     atom  18 (R=0.194)  charge= 16.4862  magn=  0.1736

     total cpu time spent up to now is    20457.1 secs

     End of self-consistent calculation

     Number of k-points >= 100: set verbosity='high' to print the bands.

     the Fermi energy is     8.0243 ev

!    total energy              =   -2728.53654439 Ry
     estimated scf accuracy    <          9.3E-12 Ry
     smearing contrib. (-TS)   =       0.00060797 Ry
     internal energy E=F+TS    =   -2728.53715236 Ry

     The total energy is F=E-TS. E is the sum of the following terms:
     one-electron contribution =   -2543.74912039 Ry
     hartree contribution      =    1320.80216600 Ry
     xc contribution           =    -264.42624057 Ry
     ewald contribution        =    -896.26076760 Ry
     DFT-D3 Dispersion         =      -0.45148294 Ry
     one-center paw contrib.   =    -344.45170685 Ry

     total magnetization       =     2.06 Bohr mag/cell
     absolute magnetization    =     2.83 Bohr mag/cell

     convergence has been achieved in  16 iterations

     Forces acting on atoms (cartesian axes, Ry/au):

     atom    1 type  1   force =    -0.00003623    0.00002034   -0.00000005
     atom    2 type  2   force =    -0.00003871   -0.00000709   -0.00001958
     atom    3 type  2   force =     0.00004336   -0.00002509   -0.00000018
     atom    4 type  2   force =    -0.00000592   -0.00000898   -0.00001474
     atom    5 type  2   force =    -0.00001321    0.00003717    0.00001955
     atom    6 type  2   force =     0.00000475    0.00000975    0.00001485
     atom    7 type  2   force =    -0.00004433   -0.00001687    0.00000720
     atom    8 type  2   force =     0.00001467   -0.00002376    0.00004254
     atom    9 type  2   force =    -0.00000761    0.00004705   -0.00000740
     atom   10 type  2   force =     0.00005220   -0.00002159    0.00004922
     atom   11 type  2   force =     0.00004481   -0.00003440   -0.00004933
     atom   12 type  2   force =     0.00002790   -0.00000076   -0.00004285
     atom   13 type  3   force =     0.00001905   -0.00001097   -0.00000045
     atom   14 type  3   force =     0.00009216    0.00001206    0.00001270
     atom   15 type  3   force =     0.00003575   -0.00008568   -0.00001188
     atom   16 type  3   force =     0.00001123   -0.00000654   -0.00000036
     atom   17 type  3   force =    -0.00009323    0.00006978    0.00002716
     atom   18 type  3   force =    -0.00010665    0.00004559   -0.00002640

     Total force =     0.000277     Total SCF correction =     0.000012


     Computing stress (Cartesian axis) and pressure

          total   stress  (Ry/bohr**3)                   (kbar)     P=        4.61
   0.00003803  -0.00000443   0.00000419            5.59       -0.65        0.62
  -0.00000443   0.00003292   0.00000725           -0.65        4.84        1.07
   0.00000419   0.00000725   0.00002312            0.62        1.07        3.40

     Energy error            =      2.5E-07 Ry
     Gradient error          =      1.1E-04 Ry/Bohr

     number of scf cycles    =  23
     number of bfgs steps    =  22

     energy             old  =   -2728.5365441480 Ry
     energy             new  =   -2728.5365443938 Ry

     CASE: energy            _new < energy            _old

     new trust radius        =       0.0007153275 bohr
     new conv_thr            =            1.0E-11 Ry


ATOMIC_POSITIONS (angstrom)
Co              -1.5316497735        3.4387481494       10.6056111401
Mg              -0.0208629786        1.3595565994        6.4138363899
Mg               3.4877017349        0.5408402249       10.6055618827
Mg               2.5103242943        2.8650305679        6.3464254989
Mg               1.2168492248        3.5033563039        1.9803219108
Mg               1.1786687038        0.5585537226        2.0477300975
Mg               1.2400266371        2.1850822222        9.2243123444
Mg               2.4932764679       -0.0537605908        7.8585236766
Mg               0.9398985719        1.6653654666       11.9867871629
Mg               2.5095397637       -0.1123498701        4.9124469884
Mg               3.7567641597        2.0479127662        3.4816841875
Mg               3.6978784039        2.0327119386        0.5355895229
Ni               1.2398577441        2.0608794991        4.1970775735
Ni               2.4270150624       -0.1800727171       -0.1443690720
Ni               3.7741726226        2.1532330135        8.5385300322
Ni              -0.0204371944       -0.1363264138        4.2723325255
Ni              -0.0889101780       -0.2031019929       -0.1447788514
Ni               0.0031777505       -0.0436445783        8.6894724009



     Writing config-only to output data dir ./outdir/mg2ni_co.save/ :
     XML data file
     NEW-OLD atomic charge density approx. for the potential

     Check: negative core charge=   -0.000003
     Generating pointlists ...

     total cpu time spent up to now is    20484.7 secs

     Self-consistent Calculation

     iteration #  1     ecut=    60.00 Ry     beta= 0.30
     Davidson diagonalization with overlap
     ethr =  1.00E-06,  avg # of iterations =  2.0

     Threshold (ethr) on eigenvalues was too large:
     Diagonalizing with lowered threshold

     Davidson diagonalization with overlap
     ethr =  5.67E-09,  avg # of iterations =  3.0

     total cpu time spent up to now is    20572.3 secs

     total energy              =   -2728.53654055 Ry
     estimated scf accuracy    <       0.00000884 Ry

     total magnetization       =     2.06 Bohr mag/cell
     absolute magnetization    =     2.83 Bohr mag/cell

     iteration #  2     ecut=    60.00 Ry     beta= 0.30
     Davidson diagonalization with overlap
     ethr =  6.01E-09,  avg # of iterations =  2.8

     total cpu time spent up to now is    20623.3 secs

     total energy              =   -2728.53651705 Ry
     estimated scf accuracy    <       0.00130741 Ry

     total magnetization       =     2.04 Bohr mag/cell
     absolute magnetization    =     2.80 Bohr mag/cell

     iteration #  3     ecut=    60.00 Ry     beta= 0.30
     Davidson diagonalization with overlap
     ethr =  6.01E-09,  avg # of iterations =  2.7

     total cpu time spent up to now is    20671.6 secs

     total energy              =   -2728.53654438 Ry
     estimated scf accuracy    <       0.00000259 Ry

     total magnetization       =     2.06 Bohr mag/cell
     absolute magnetization    =     2.83 Bohr mag/cell

     iteration #  4     ecut=    60.00 Ry     beta= 0.30
     Davidson diagonalization with overlap
     ethr =  1.76E-09,  avg # of iterations =  1.0

     total cpu time spent up to now is    20702.6 secs

     total energy              =   -2728.53654453 Ry
     estimated scf accuracy    <       0.00000020 Ry

     total magnetization       =     2.06 Bohr mag/cell
     absolute magnetization    =     2.83 Bohr mag/cell

     iteration #  5     ecut=    60.00 Ry     beta= 0.30
     Davidson diagonalization with overlap
     ethr =  1.36E-10,  avg # of iterations =  2.0

     total cpu time spent up to now is    20740.7 secs

     total energy              =   -2728.53654454 Ry
     estimated scf accuracy    <       0.00000011 Ry

     total magnetization       =     2.06 Bohr mag/cell
     absolute magnetization    =     2.83 Bohr mag/cell

     iteration #  6     ecut=    60.00 Ry     beta= 0.30
     Davidson diagonalization with overlap
     ethr =  7.64E-11,  avg # of iterations =  1.6

     total cpu time spent up to now is    20778.4 secs

     total energy              =   -2728.53654455 Ry
     estimated scf accuracy    <       0.00000003 Ry

     total magnetization       =     2.06 Bohr mag/cell
     absolute magnetization    =     2.83 Bohr mag/cell

     iteration #  7     ecut=    60.00 Ry     beta= 0.30
     Davidson diagonalization with overlap
     ethr =  1.73E-11,  avg # of iterations =  1.7

     total cpu time spent up to now is    20817.6 secs

     total energy              =   -2728.53654455 Ry
     estimated scf accuracy    <       0.00000003 Ry

     total magnetization       =     2.06 Bohr mag/cell
     absolute magnetization    =     2.83 Bohr mag/cell

     iteration #  8     ecut=    60.00 Ry     beta= 0.30
     Davidson diagonalization with overlap
     ethr =  1.73E-11,  avg # of iterations =  1.0

     total cpu time spent up to now is    20848.5 secs

     total energy              =   -2728.53654455 Ry
     estimated scf accuracy    <          6.9E-09 Ry

     total magnetization       =     2.06 Bohr mag/cell
     absolute magnetization    =     2.83 Bohr mag/cell

     iteration #  9     ecut=    60.00 Ry     beta= 0.30
     Davidson diagonalization with overlap
     ethr =  4.70E-12,  avg # of iterations =  1.9

     total cpu time spent up to now is    20888.4 secs

     total energy              =   -2728.53654455 Ry
     estimated scf accuracy    <          5.9E-09 Ry

     total magnetization       =     2.06 Bohr mag/cell
     absolute magnetization    =     2.83 Bohr mag/cell

     iteration # 10     ecut=    60.00 Ry     beta= 0.30
     Davidson diagonalization with overlap
     ethr =  3.99E-12,  avg # of iterations =  1.2

     total cpu time spent up to now is    20923.2 secs

     total energy              =   -2728.53654455 Ry
     estimated scf accuracy    <          9.0E-10 Ry

     total magnetization       =     2.06 Bohr mag/cell
     absolute magnetization    =     2.83 Bohr mag/cell

     iteration # 11     ecut=    60.00 Ry     beta= 0.30
     Davidson diagonalization with overlap
     ethr =  6.15E-13,  avg # of iterations =  4.9

     total cpu time spent up to now is    20987.8 secs

     total energy              =   -2728.53654455 Ry
     estimated scf accuracy    <          9.7E-10 Ry

     total magnetization       =     2.06 Bohr mag/cell
     absolute magnetization    =     2.83 Bohr mag/cell

     iteration # 12     ecut=    60.00 Ry     beta= 0.30
     Davidson diagonalization with overlap
     ethr =  6.15E-13,  avg # of iterations =  1.4

     total cpu time spent up to now is    21023.1 secs

     total energy              =   -2728.53654455 Ry
     estimated scf accuracy    <          3.0E-11 Ry

     total magnetization       =     2.06 Bohr mag/cell
     absolute magnetization    =     2.83 Bohr mag/cell

     iteration # 13     ecut=    60.00 Ry     beta= 0.30
     Davidson diagonalization with overlap
     ethr =  1.00E-13,  avg # of iterations =  2.6

     total cpu time spent up to now is    21067.8 secs

     total energy              =   -2728.53654455 Ry
     estimated scf accuracy    <          3.8E-11 Ry

     total magnetization       =     2.06 Bohr mag/cell
     absolute magnetization    =     2.83 Bohr mag/cell

     iteration # 14     ecut=    60.00 Ry     beta= 0.30
     Davidson diagonalization with overlap
     ethr =  1.00E-13,  avg # of iterations =  1.0

     total cpu time spent up to now is    21098.6 secs

     total energy              =   -2728.53654455 Ry
     estimated scf accuracy    <          2.4E-11 Ry

     total magnetization       =     2.06 Bohr mag/cell
     absolute magnetization    =     2.83 Bohr mag/cell

     iteration # 15     ecut=    60.00 Ry     beta= 0.30
     Davidson diagonalization with overlap
     ethr =  1.00E-13,  avg # of iterations =  1.0

     total cpu time spent up to now is    21129.1 secs

     total energy              =   -2728.53654455 Ry
     estimated scf accuracy    <          2.6E-11 Ry

     total magnetization       =     2.06 Bohr mag/cell
     absolute magnetization    =     2.83 Bohr mag/cell

     iteration # 16     ecut=    60.00 Ry     beta= 0.30
     Davidson diagonalization with overlap
     ethr =  1.00E-13,  avg # of iterations =  1.0
 
     Magnetic moment per site  (integrated on atomic sphere of radius R)
     atom   1 (R=0.194)  charge= 15.2505  magn=  1.5871
     atom   2 (R=0.212)  charge=  0.6240  magn= -0.0030
     atom   3 (R=0.212)  charge=  0.6224  magn= -0.0146
     atom   4 (R=0.212)  charge=  0.6267  magn= -0.0020
     atom   5 (R=0.212)  charge=  0.6240  magn= -0.0030
     atom   6 (R=0.212)  charge=  0.6267  magn= -0.0020
     atom   7 (R=0.212)  charge=  0.6340  magn= -0.0074
     atom   8 (R=0.212)  charge=  0.6240  magn= -0.0033
     atom   9 (R=0.212)  charge=  0.6340  magn= -0.0074
     atom  10 (R=0.212)  charge=  0.6350  magn=  0.0027
     atom  11 (R=0.212)  charge=  0.6350  magn=  0.0027
     atom  12 (R=0.212)  charge=  0.6240  magn= -0.0033
     atom  13 (R=0.194)  charge= 16.4799  magn=  0.0298
     atom  14 (R=0.194)  charge= 16.4836  magn=  0.1712
     atom  15 (R=0.194)  charge= 16.4836  magn=  0.1712
     atom  16 (R=0.194)  charge= 16.4983  magn= -0.0361
     atom  17 (R=0.194)  charge= 16.4862  magn=  0.1736
     atom  18 (R=0.194)  charge= 16.4862  magn=  0.1736

     total cpu time spent up to now is    21160.2 secs

     End of self-consistent calculation

     Number of k-points >= 100: set verbosity='high' to print the bands.

     the Fermi energy is     8.0243 ev

!    total energy              =   -2728.53654455 Ry
     estimated scf accuracy    <          3.5E-12 Ry
     smearing contrib. (-TS)   =       0.00060784 Ry
     internal energy E=F+TS    =   -2728.53715239 Ry

     The total energy is F=E-TS. E is the sum of the following terms:
     one-electron contribution =   -2543.71710824 Ry
     hartree contribution      =    1320.78619497 Ry
     xc contribution           =    -264.42622959 Ry
     ewald contribution        =    -896.27681700 Ry
     DFT-D3 Dispersion         =      -0.45148307 Ry
     one-center paw contrib.   =    -344.45170946 Ry

     total magnetization       =     2.06 Bohr mag/cell
     absolute magnetization    =     2.83 Bohr mag/cell

     convergence has been achieved in  16 iterations

     Forces acting on atoms (cartesian axes, Ry/au):

     atom    1 type  1   force =    -0.00002626    0.00001452   -0.00000032
     atom    2 type  2   force =    -0.00002384    0.00000650   -0.00001898
     atom    3 type  2   force =     0.00003396   -0.00001969   -0.00000011
     atom    4 type  2   force =    -0.00000706   -0.00001762    0.00000195
     atom    5 type  2   force =    -0.00001758    0.00001748    0.00001898
     atom    6 type  2   force =     0.00001168    0.00001502   -0.00000185
     atom    7 type  2   force =    -0.00001059    0.00003394   -0.00001930
     atom    8 type  2   force =     0.00001796   -0.00004119    0.00003337
     atom    9 type  2   force =    -0.00003479   -0.00000763    0.00001912
     atom   10 type  2   force =     0.00005980   -0.00002681    0.00002471
     atom   11 type  2   force =     0.00005310   -0.00003839   -0.00002474
     atom   12 type  2   force =     0.00004460    0.00000506   -0.00003366
     atom   13 type  3   force =     0.00001471   -0.00000844   -0.00000004
     atom   14 type  3   force =     0.00003431    0.00003657    0.00000322
     atom   15 type  3   force =    -0.00001441   -0.00004778   -0.00000279
     atom   16 type  3   force =     0.00000599   -0.00000354   -0.00000006
     atom   17 type  3   force =    -0.00004376    0.00008819    0.00002847
     atom   18 type  3   force =    -0.00009781   -0.00000619   -0.00002799

     Total force =     0.000225     Total SCF correction =     0.000002


     Computing stress (Cartesian axis) and pressure

          total   stress  (Ry/bohr**3)                   (kbar)     P=        4.60
   0.00003795  -0.00000445   0.00000424            5.58       -0.66        0.62
  -0.00000445   0.00003281   0.00000735           -0.66        4.83        1.08
   0.00000424   0.00000735   0.00002314            0.62        1.08        3.40

     Energy error            =      1.6E-07 Ry
     Gradient error          =      9.8E-05 Ry/Bohr

     bfgs converged in  24 scf cycles and  23 bfgs steps
     (criteria: energy <  1.0E-05 Ry, force <  1.0E-04 Ry/Bohr)

     End of BFGS Geometry Optimization

     Final energy             =   -2728.5365445497 Ry

     File ./outdir/mg2ni_co.bfgs deleted, as requested
Begin final coordinates

ATOMIC_POSITIONS (angstrom)
Co              -1.5316497735        3.4387481494       10.6056111401
Mg              -0.0208629786        1.3595565994        6.4138363899
Mg               3.4877017349        0.5408402249       10.6055618827
Mg               2.5103242943        2.8650305679        6.3464254989
Mg               1.2168492248        3.5033563039        1.9803219108
Mg               1.1786687038        0.5585537226        2.0477300975
Mg               1.2400266371        2.1850822222        9.2243123444
Mg               2.4932764679       -0.0537605908        7.8585236766
Mg               0.9398985719        1.6653654666       11.9867871629
Mg               2.5095397637       -0.1123498701        4.9124469884
Mg               3.7567641597        2.0479127662        3.4816841875
Mg               3.6978784039        2.0327119386        0.5355895229
Ni               1.2398577441        2.0608794991        4.1970775735
Ni               2.4270150624       -0.1800727171       -0.1443690720
Ni               3.7741726226        2.1532330135        8.5385300322
Ni              -0.0204371944       -0.1363264138        4.2723325255
Ni              -0.0889101780       -0.2031019929       -0.1447788514
Ni               0.0031777505       -0.0436445783        8.6894724009
End final coordinates



     Writing all to output data dir ./outdir/mg2ni_co.save/ :
     XML data file, charge density, pseudopotentials, collected wavefunctions
 
     init_run     :     40.77s CPU     23.17s WALL (       1 calls)
     electrons    :  23377.23s CPU  20518.97s WALL (      24 calls)
     update_pot   :     29.98s CPU      2.54s WALL (      23 calls)
     forces       :    175.08s CPU    163.77s WALL (      24 calls)
     force_dftd3  :      6.00s CPU      5.35s WALL (      24 calls)
     stress       :    463.45s CPU    403.87s WALL (      24 calls)
     stres_dftd3  :      6.11s CPU      5.38s WALL (      24 calls)

     Called by init_run:
     wfcinit      :     19.15s CPU     20.33s WALL (       1 calls)
     potinit      :     20.29s CPU      1.45s WALL (       1 calls)
     hinit0       :      0.48s CPU      0.41s WALL (       1 calls)

     Called by electrons:
     c_bands      :  19563.67s CPU  18008.24s WALL (     520 calls)
     sum_band     :   2897.75s CPU   2272.87s WALL (     520 calls)
     v_of_rho     :      7.75s CPU      6.35s WALL (     535 calls)
     newd         :    168.33s CPU    166.45s WALL (     535 calls)
     PAW_pot      :    650.50s CPU     44.56s WALL (     558 calls)
     mix_rho      :     21.39s CPU     15.09s WALL (     520 calls)
     energy_dftd3 :      5.82s CPU      5.77s WALL (      24 calls)

     Called by c_bands:
     init_us_2    :    381.68s CPU    267.86s WALL (  569344 calls)
     cegterg      :  18192.92s CPU  16686.25s WALL (  266240 calls)

     Called by *egterg:
     cdiaghg      :   5016.60s CPU   5316.11s WALL (  739950 calls)
                                     5312.00s GPU  (  739950 calls)
     h_psi        :   6372.82s CPU   5026.91s WALL (  756846 calls)
     s_psi        :   1498.00s CPU   1490.38s WALL (  756846 calls)
     g_psi        :     30.36s CPU     30.37s WALL (  490094 calls)

     Called by h_psi:
     h_psi:calbec :     19.60s CPU     14.83s WALL (  756846 calls)
     vloc_psi     :   4715.76s CPU   3404.29s WALL (  756846 calls)
                                     3402.13s GPU  (  756846 calls)
     add_vuspsi   :   1605.20s CPU   1583.24s WALL (  756846 calls)

     General routines
     calbec       :     24.72s CPU     19.06s WALL ( 1243758 calls)
     fft          :     73.14s CPU      5.40s WALL (   14328 calls)
                                        1.66s GPU  (   13258 calls)
     ffts         :     20.85s CPU      1.10s WALL (    2110 calls)
                                        0.06s GPU  (    1040 calls)
     fftw         :     69.58s CPU   3493.60s WALL ( 8920266 calls)
                                     3465.83s GPU  ( 8920266 calls)
     interpolate  :    105.85s CPU      6.03s WALL (    1070 calls)
 
 
     PWSCF        :      6h43m CPU      5h53m WALL

 
   This run was terminated on:  12:14:43  13Jun2026            

=------------------------------------------------------------------------------=
   JOB DONE.
=------------------------------------------------------------------------------=
