
     Program PWSCF v.7.5 starts on 13Jun2026 at 17:21:39 

     This program is part of the open-source Quantum ESPRESSO suite
     for quantum simulation of materials; please cite
         "P. Giannozzi et al., J. Phys.:Condens. Matter 21 395502 (2009);
         "P. Giannozzi et al., J. Phys.:Condens. Matter 29 465901 (2017);
         "P. Giannozzi et al., J. Chem. Phys. 152 154105 (2020);
          URL http://www.quantum-espresso.org", 
     in publications or presentations arising from this work. More details at
     http://www.quantum-espresso.org/quote

     Serial multi-threaded version, running on   32 processor cores
     15125 MiB available memory on the printing compute node when the environment starts
 
     Reading input from inputs/mg2nih4_co_nisite.in
Warning: card &CELL ignored
Warning: card     CELL_DYNAMICS = 'BFGS' ignored
Warning: card     PRESS_CONV_THR = 0.5 ignored

     Current dimensions of program PWSCF are:
     Max number of different atomic species (ntypx) = 10
     Max number of k-points (npk) =  40000
     Max angular momentum in pseudopotentials (lmaxx) =  4
     file Mg.pbe-n-kjpaw_psl.0.3.0.UPF: wavefunction(s)  3S renormalized
 
 
     G-vector sticks info
     --------------------
     sticks:   dense  smooth     PW     G-vecs:    dense   smooth      PW
     Sum        6071    3039    883               302505   106995   16783
 
     Using Slab Decomposition
 


     bravais-lattice index     =            0
     lattice parameter (alat)  =      14.6135  a.u.
     unit-cell volume          =    1703.5765 (a.u.)^3
     number of atoms/cell      =           28
     number of atomic types    =            4
     number of electrons       =       103.00
     number of Kohn-Sham states=           62
     kinetic-energy cutoff     =      60.0000  Ry
     charge density cutoff     =     480.0000  Ry
     scf convergence threshold =      1.0E-09
     mixing beta               =       0.3000
     number of iterations used =           12  plain     mixing
     energy convergence thresh.=      1.0E-05
     force convergence thresh. =      1.0E-04
     Exchange-correlation= PBE
                           (   1   4   3   4   0   0   0)
     nstep                     =          200


     GPU acceleration is ACTIVE.  1 visible GPUs per MPI rank


     celldm(1)=  14.613457  celldm(2)=   0.000000  celldm(3)=   0.000000
     celldm(4)=   0.000000  celldm(5)=   0.000000  celldm(6)=   0.000000

     crystal axes: (cart. coord. in units of alat)
               a(1) = (   0.999659   0.007354  -0.025069 )  
               a(2) = (  -0.663227   0.740139   0.019239 )  
               a(3) = (  -0.316148   0.133752   0.741371 )  

     reciprocal axes: (cart. coord. in units 2 pi/alat)
               b(1) = (  1.000471  0.889588  0.266146 )  
               b(2) = ( -0.016131  1.343121 -0.249193 )  
               b(3) = (  0.034250 -0.004773  1.364319 )  


     PseudoPot. # 1 for Mg read from file:
     /home/x/Workspace/3-hEspesso/pseudo/Mg.pbe-n-kjpaw_psl.0.3.0.UPF
     MD5 check sum: 24ecedc7f3e3cbe212e682f4413594e4
     Pseudo is Projector augmented-wave + core cor, Zval =  2.0
     Generated using "atomic" code by A. Dal Corso  v.5.0.99 svn rev. 10869
     Shape of augmentation charge: PSQ
     Using radial grid of 1129 points,  4 beta functions with: 
                l(1) =   0
                l(2) =   0
                l(3) =   1
                l(4) =   1
     Q(r) pseudized with 0 coefficients 


     PseudoPot. # 2 for Co read from file:
     /home/x/Workspace/3-hEspesso/pseudo/Co_pbe_v1.2.uspp.F.UPF
     MD5 check sum: 5f91765df6ddd3222702df6e7b74a16d
     Pseudo is Ultrasoft + core correction, Zval = 17.0
     Generated by new atomic code, or converted to UPF format
     Using radial grid of  863 points,  6 beta functions with: 
                l(1) =   0
                l(2) =   0
                l(3) =   1
                l(4) =   1
                l(5) =   2
                l(6) =   2
     Q(r) pseudized with  8 coefficients,  rinner =    1.200   1.200   1.200
                                                       1.200   1.200

     PseudoPot. # 3 for Ni read from file:
     /home/x/Workspace/3-hEspesso/pseudo/ni_pbe_v1.4.uspp.F.UPF
     MD5 check sum: 1ee80287db30b12d2bc1f57a5b5d6409
     Pseudo is Ultrasoft + core correction, Zval = 18.0
     Generated by new atomic code, or converted to UPF format
     Using radial grid of  865 points,  6 beta functions with: 
                l(1) =   0
                l(2) =   0
                l(3) =   1
                l(4) =   1
                l(5) =   2
                l(6) =   2
     Q(r) pseudized with 10 coefficients,  rinner =    0.980   0.980   0.980
                                                       0.980   0.980

     PseudoPot. # 4 for H  read from file:
     /home/x/Workspace/3-hEspesso/pseudo/H.pbe-rrkjus_psl.1.0.0.UPF
     MD5 check sum: f52b6d4d1c606e5624b1dc7b2218f220
     Pseudo is Ultrasoft, Zval =  1.0
     Generated using "atomic" code by A. Dal Corso  v.5.1
     Using radial grid of  929 points,  2 beta functions with: 
                l(1) =   0
                l(2) =   0
     Q(r) pseudized with 0 coefficients 


     atomic species   valence    mass     pseudopotential
     Mg                2.00    24.30500     Mg( 1.00)
     Co               17.00    58.93320     Co( 1.00)
     Ni               18.00    58.69340     Ni( 1.00)
     H                 1.00     1.00794     H ( 1.00)

     Starting magnetic structure 
     atomic species   magnetization
     Mg              0.000
     Co              0.400
     Ni              0.100
     H               0.000

     No symmetry found



   Cartesian axes

     site n.     atom                  positions (alat units)
         1        Mg     tau(   1) = (  -0.5588294   0.6863915   0.7333715  )
         2        Mg     tau(   2) = (  -0.4001061   0.6270143   0.3684390  )
         3        Mg     tau(   3) = (   0.4282162   0.2577790   0.3748017  )
         4        Mg     tau(   4) = (   0.5824211   0.1836624   0.0004344  )
         5        Mg     tau(   5) = (   0.0931444   0.8342909   0.5472497  )
         6        Mg     tau(   6) = (  -0.0733841   0.0393272   0.1805163  )
         7        Mg     tau(   7) = (  -0.0824045   0.4701116   0.5560623  )
         8        Mg     tau(   8) = (   0.0906939   0.4195051   0.1821239  )
         9        Co     tau(   9) = (  -0.2341079   0.7751217   0.6604383  )
        10        Ni     tau(  10) = (  -0.2507659   0.3213560   0.2946670  )
        11        Ni     tau(  11) = (   0.2738196   0.5591787   0.4360205  )
        12        Ni     tau(  12) = (   0.2536582   0.1016703   0.0699339  )
        13        H      tau(  13) = (  -0.0733262   0.6745143   0.7217298  )
        14        H      tau(  14) = (  -0.0599260   0.2851775   0.3387680  )
        15        H      tau(  15) = (   0.0807048   0.5952016   0.4021869  )
        16        H      tau(  16) = (   0.0925107   0.2123827   0.0326475  )
        17        H      tau(  17) = (   0.6777646   0.1403745   0.2695238  )
        18        H      tau(  18) = (   0.5230383   0.2114885   0.6367135  )
        19        H      tau(  19) = (  -0.4919215   0.6580554   0.0854453  )
        20        H      tau(  20) = (  -0.6528647   0.7395716   0.4579992  )
        21        H      tau(  21) = (  -0.3889052   0.8319747   0.5487388  )
        22        H      tau(  22) = (  -0.3748268   0.4098645   0.1673148  )
        23        H      tau(  23) = (   0.3881498   0.4667291   0.5699552  )
        24        H      tau(  24) = (   0.4019620   0.0700997   0.1982936  )
        25        H      tau(  25) = (   0.0347668   0.2485494   0.6349538  )
        26        H      tau(  26) = (   0.3406159   0.4821846   0.2626033  )
        27        H      tau(  27) = (  -0.3232286   0.3857962   0.4713705  )
        28        H      tau(  28) = (  -0.0128973   0.6500601   0.0952577  )

     --------------------------------------------
     DFT-D3 Dispersion Correction (3-body terms):
     --------------------------------------------
       Reference C6 values for interpolation: 

         atom   Coordination number   C6
         H          0.912             6.05
         H          0.000            15.18
         Mg         0.000          1366.75
         Mg         0.963           902.54
         Mg         1.950           351.12
         Co         0.000          1065.56
         Co         1.715           373.09
         Co         2.926           296.13
         Co         7.779           236.57
         Ni         0.000          1149.49
         Ni         1.794           356.66
         Ni         6.546           257.56
         Ni         6.292           283.75

       Values used:

         atom   Coordination number  R0_AB[au]  C6      C8
         Mg        10.152            3.292    351.12  31436.69
         Mg         9.922            3.292    351.12  31436.69
         Mg        10.380            3.292    351.12  31436.69
         Mg        10.241            3.292    351.12  31436.69
         Mg        10.251            3.292    351.12  31436.69
         Mg        10.141            3.292    351.12  31436.69
         Mg        10.479            3.292    351.12  31436.69
         Mg        10.648            3.292    351.12  31436.69
         Co        10.447            3.243    236.57  20800.86
         Ni         9.921            3.162    257.58  21583.67
         Ni         9.765            3.162    257.59  21584.29
         Ni         9.829            3.162    257.59  21584.01
         H          2.257            2.062      6.05     73.18
         H          2.186            2.062      6.05     73.18
         H          2.355            2.062      6.05     73.18
         H          2.293            2.062      6.05     73.18
         H          2.082            2.062      6.05     73.18
         H          2.206            2.062      6.05     73.18
         H          1.998            2.062      6.05     73.18
         H          2.026            2.062      6.05     73.18
         H          2.204            2.062      6.05     73.18
         H          2.187            2.062      6.05     73.18
         H          2.382            2.062      6.05     73.18
         H          2.304            2.062      6.05     73.18
         H          2.227            2.062      6.05     73.18
         H          2.147            2.062      6.05     73.18
         H          2.193            2.062      6.05     73.18
         H          2.292            2.062      6.05     73.18

         Molecular C6 ( Ry / a.u.^6 ) =     62843.84


     number of k points=   384  Marzari-Vanderbilt smearing, width (Ry)=  0.0100

     Number of k-points >= 100: set verbosity='high' to print them.

     Dense  grid:   302505 G-vectors     FFT dimensions: ( 108, 108,  90)

     Smooth grid:   106995 G-vectors     FFT dimensions: (  75,  72,  60)

     Estimated max dynamical RAM per process >      11.01 GB

     Check: negative core charge=   -0.000002
     Generating pointlists ...
     new r_m :   0.1054 (alat units)  1.5398 (a.u.) for type    1
     new r_m :   0.0822 (alat units)  1.2006 (a.u.) for type    2
     new r_m :   0.0819 (alat units)  1.1972 (a.u.) for type    3
     new r_m :   0.0819 (alat units)  1.1972 (a.u.) for type    4

     Initial potential from superposition of free atoms

     starting charge      95.9924, renormalised to     103.0000
     Starting wfcs are  100 randomized atomic wfcs

     total cpu time spent up to now is       28.3 secs

     Self-consistent Calculation

     iteration #  1     ecut=    60.00 Ry     beta= 0.30
     Davidson diagonalization with overlap
     ethr =  1.00E-02,  avg # of iterations =  5.0

     total cpu time spent up to now is      116.3 secs

     total energy              =   -1552.82250180 Ry
     estimated scf accuracy    <     185.18192643 Ry

     total magnetization       =     1.21 Bohr mag/cell
     absolute magnetization    =     1.62 Bohr mag/cell

     iteration #  2     ecut=    60.00 Ry     beta= 0.30
     Davidson diagonalization with overlap
     ethr =  1.00E-02,  avg # of iterations =  3.0

     total cpu time spent up to now is      179.6 secs

     total energy              =   -1616.72136419 Ry
     estimated scf accuracy    <      85.33334791 Ry

     total magnetization       =     0.94 Bohr mag/cell
     absolute magnetization    =     1.12 Bohr mag/cell

     iteration #  3     ecut=    60.00 Ry     beta= 0.30
     Davidson diagonalization with overlap
     ethr =  1.00E-02,  avg # of iterations =  2.0

     total cpu time spent up to now is      227.7 secs

     total energy              =   -1615.72538764 Ry
     estimated scf accuracy    <      20.58761694 Ry

     total magnetization       =     1.01 Bohr mag/cell
     absolute magnetization    =     1.39 Bohr mag/cell

     iteration #  4     ecut=    60.00 Ry     beta= 0.30
     Davidson diagonalization with overlap
     ethr =  1.00E-02,  avg # of iterations =  2.0

     total cpu time spent up to now is      270.7 secs

     total energy              =   -1617.07619509 Ry
     estimated scf accuracy    <       2.45030338 Ry

     total magnetization       =     1.00 Bohr mag/cell
     absolute magnetization    =     2.38 Bohr mag/cell

     iteration #  5     ecut=    60.00 Ry     beta= 0.30
     Davidson diagonalization with overlap
     ethr =  2.38E-03,  avg # of iterations =  2.9

     total cpu time spent up to now is      325.9 secs

     total energy              =   -1615.83147608 Ry
     estimated scf accuracy    <       8.54031025 Ry

     total magnetization       =     0.66 Bohr mag/cell
     absolute magnetization    =     1.14 Bohr mag/cell

     iteration #  6     ecut=    60.00 Ry     beta= 0.30
     Davidson diagonalization with overlap
     ethr =  2.38E-03,  avg # of iterations =  2.7

     total cpu time spent up to now is      377.1 secs

     total energy              =   -1616.46264823 Ry
     estimated scf accuracy    <       0.66361453 Ry

     total magnetization       =     1.03 Bohr mag/cell
     absolute magnetization    =     2.25 Bohr mag/cell

     iteration #  7     ecut=    60.00 Ry     beta= 0.30
     Davidson diagonalization with overlap
     ethr =  6.44E-04,  avg # of iterations =  3.4

     total cpu time spent up to now is      442.1 secs

     total energy              =   -1616.45303627 Ry
     estimated scf accuracy    <       2.75113114 Ry

     total magnetization       =     1.01 Bohr mag/cell
     absolute magnetization    =     1.74 Bohr mag/cell

     iteration #  8     ecut=    60.00 Ry     beta= 0.30
     Davidson diagonalization with overlap
     ethr =  6.44E-04,  avg # of iterations =  3.0

     total cpu time spent up to now is      494.5 secs

     total energy              =   -1616.74004640 Ry
     estimated scf accuracy    <       0.09308444 Ry

     total magnetization       =     0.90 Bohr mag/cell
     absolute magnetization    =     1.60 Bohr mag/cell

     iteration #  9     ecut=    60.00 Ry     beta= 0.30
     Davidson diagonalization with overlap
     ethr =  9.04E-05,  avg # of iterations =  3.1

     total cpu time spent up to now is      560.8 secs

     total energy              =   -1616.66347768 Ry
     estimated scf accuracy    <       0.35896784 Ry

     total magnetization       =     0.73 Bohr mag/cell
     absolute magnetization    =     1.37 Bohr mag/cell

     iteration # 10     ecut=    60.00 Ry     beta= 0.30
     Davidson diagonalization with overlap
     ethr =  9.04E-05,  avg # of iterations =  3.0

     total cpu time spent up to now is      616.6 secs

     total energy              =   -1616.74408198 Ry
     estimated scf accuracy    <       0.15156919 Ry

     total magnetization       =     0.75 Bohr mag/cell
     absolute magnetization    =     1.06 Bohr mag/cell

     iteration # 11     ecut=    60.00 Ry     beta= 0.30
     Davidson diagonalization with overlap
     ethr =  9.04E-05,  avg # of iterations =  1.0

     total cpu time spent up to now is      649.5 secs

     total energy              =   -1616.73112104 Ry
     estimated scf accuracy    <       0.21100815 Ry

     total magnetization       =     0.58 Bohr mag/cell
     absolute magnetization    =     0.76 Bohr mag/cell

     iteration # 12     ecut=    60.00 Ry     beta= 0.30
     Davidson diagonalization with overlap
     ethr =  9.04E-05,  avg # of iterations =  1.0

     total cpu time spent up to now is      682.4 secs

     total energy              =   -1616.72595921 Ry
     estimated scf accuracy    <       0.08439178 Ry

     total magnetization       =     0.51 Bohr mag/cell
     absolute magnetization    =     0.68 Bohr mag/cell

     iteration # 13     ecut=    60.00 Ry     beta= 0.30
     Davidson diagonalization with overlap
     ethr =  8.19E-05,  avg # of iterations =  1.0

     total cpu time spent up to now is      715.2 secs

     total energy              =   -1616.72439498 Ry
     estimated scf accuracy    <       0.01962122 Ry

     total magnetization       =     0.45 Bohr mag/cell
     absolute magnetization    =     0.59 Bohr mag/cell

     iteration # 14     ecut=    60.00 Ry     beta= 0.30
     Davidson diagonalization with overlap
     ethr =  1.90E-05,  avg # of iterations =  2.4

     total cpu time spent up to now is      764.2 secs

     total energy              =   -1616.72798083 Ry
     estimated scf accuracy    <       0.00735427 Ry

     total magnetization       =     0.30 Bohr mag/cell
     absolute magnetization    =     0.38 Bohr mag/cell

     iteration # 15     ecut=    60.00 Ry     beta= 0.30
     Davidson diagonalization with overlap
     ethr =  7.14E-06,  avg # of iterations =  1.3

     total cpu time spent up to now is      804.4 secs

     total energy              =   -1616.72790717 Ry
     estimated scf accuracy    <       0.00141713 Ry

     total magnetization       =     0.26 Bohr mag/cell
     absolute magnetization    =     0.32 Bohr mag/cell

     iteration # 16     ecut=    60.00 Ry     beta= 0.30
     Davidson diagonalization with overlap
     ethr =  1.38E-06,  avg # of iterations =  4.2

     total cpu time spent up to now is      875.9 secs

     total energy              =   -1616.72853042 Ry
     estimated scf accuracy    <       0.00180102 Ry

     total magnetization       =     0.16 Bohr mag/cell
     absolute magnetization    =     0.18 Bohr mag/cell

     iteration # 17     ecut=    60.00 Ry     beta= 0.30
     Davidson diagonalization with overlap
     ethr =  1.38E-06,  avg # of iterations =  1.9

     total cpu time spent up to now is      918.0 secs

     total energy              =   -1616.72861769 Ry
     estimated scf accuracy    <       0.00034888 Ry

     total magnetization       =     0.16 Bohr mag/cell
     absolute magnetization    =     0.18 Bohr mag/cell

     iteration # 18     ecut=    60.00 Ry     beta= 0.30
     Davidson diagonalization with overlap
     ethr =  3.39E-07,  avg # of iterations =  2.2

     total cpu time spent up to now is      965.1 secs

     total energy              =   -1616.72873038 Ry
     estimated scf accuracy    <       0.00008170 Ry

     total magnetization       =     0.09 Bohr mag/cell
     absolute magnetization    =     0.10 Bohr mag/cell

     iteration # 19     ecut=    60.00 Ry     beta= 0.30
     Davidson diagonalization with overlap
     ethr =  7.93E-08,  avg # of iterations =  1.9

     total cpu time spent up to now is     1009.8 secs

     total energy              =   -1616.72874113 Ry
     estimated scf accuracy    <       0.00002652 Ry

     total magnetization       =     0.07 Bohr mag/cell
     absolute magnetization    =     0.08 Bohr mag/cell

     iteration # 20     ecut=    60.00 Ry     beta= 0.30
     Davidson diagonalization with overlap
     ethr =  2.57E-08,  avg # of iterations =  2.2

     total cpu time spent up to now is     1055.3 secs

     total energy              =   -1616.72875045 Ry
     estimated scf accuracy    <       0.00000492 Ry

     total magnetization       =     0.05 Bohr mag/cell
     absolute magnetization    =     0.05 Bohr mag/cell

     iteration # 21     ecut=    60.00 Ry     beta= 0.30
     Davidson diagonalization with overlap
     ethr =  4.78E-09,  avg # of iterations =  3.3

     total cpu time spent up to now is     1115.9 secs

     total energy              =   -1616.72875695 Ry
     estimated scf accuracy    <       0.00000480 Ry

     total magnetization       =     0.03 Bohr mag/cell
     absolute magnetization    =     0.03 Bohr mag/cell

     iteration # 22     ecut=    60.00 Ry     beta= 0.30
     Davidson diagonalization with overlap
     ethr =  4.66E-09,  avg # of iterations =  2.0

     total cpu time spent up to now is     1157.2 secs

     total energy              =   -1616.72875891 Ry
     estimated scf accuracy    <       0.00000442 Ry

     total magnetization       =     0.01 Bohr mag/cell
     absolute magnetization    =     0.01 Bohr mag/cell

     iteration # 23     ecut=    60.00 Ry     beta= 0.30
     Davidson diagonalization with overlap
     ethr =  4.29E-09,  avg # of iterations =  2.0

     total cpu time spent up to now is     1201.3 secs

     total energy              =   -1616.72875950 Ry
     estimated scf accuracy    <       0.00000030 Ry

     total magnetization       =     0.01 Bohr mag/cell
     absolute magnetization    =     0.01 Bohr mag/cell

     iteration # 24     ecut=    60.00 Ry     beta= 0.30
     Davidson diagonalization with overlap
     ethr =  2.89E-10,  avg # of iterations =  4.4

     total cpu time spent up to now is     1279.5 secs

     total energy              =   -1616.72875993 Ry
     estimated scf accuracy    <       0.00000009 Ry

     total magnetization       =     0.00 Bohr mag/cell
     absolute magnetization    =     0.00 Bohr mag/cell

     iteration # 25     ecut=    60.00 Ry     beta= 0.30
     Davidson diagonalization with overlap
     ethr =  8.61E-11,  avg # of iterations =  3.0

     total cpu time spent up to now is     1334.0 secs

     total energy              =   -1616.72875998 Ry
     estimated scf accuracy    <       0.00000002 Ry

     total magnetization       =     0.00 Bohr mag/cell
     absolute magnetization    =     0.00 Bohr mag/cell

     iteration # 26     ecut=    60.00 Ry     beta= 0.30
     Davidson diagonalization with overlap
     ethr =  1.90E-11,  avg # of iterations =  3.3

     total cpu time spent up to now is     1392.7 secs

     total energy              =   -1616.72876001 Ry
     estimated scf accuracy    <          4.2E-09 Ry

     total magnetization       =     0.00 Bohr mag/cell
     absolute magnetization    =     0.00 Bohr mag/cell

     iteration # 27     ecut=    60.00 Ry     beta= 0.30
     Davidson diagonalization with overlap
     ethr =  4.04E-12,  avg # of iterations =  3.4

     total cpu time spent up to now is     1451.9 secs

     total energy              =   -1616.72876002 Ry
     estimated scf accuracy    <          2.3E-09 Ry

     total magnetization       =     0.00 Bohr mag/cell
     absolute magnetization    =     0.00 Bohr mag/cell

     iteration # 28     ecut=    60.00 Ry     beta= 0.30
     Davidson diagonalization with overlap
     ethr =  2.24E-12,  avg # of iterations =  2.0
 
     Magnetic moment per site  (integrated on atomic sphere of radius R)
     atom   1 (R=0.105)  charge=  0.1740  magn= -0.0000
     atom   2 (R=0.105)  charge=  0.1701  magn= -0.0000
     atom   3 (R=0.105)  charge=  0.1750  magn= -0.0000
     atom   4 (R=0.105)  charge=  0.1737  magn= -0.0000
     atom   5 (R=0.105)  charge=  0.1719  magn= -0.0000
     atom   6 (R=0.105)  charge=  0.1710  magn= -0.0000
     atom   7 (R=0.105)  charge=  0.1776  magn= -0.0000
     atom   8 (R=0.105)  charge=  0.1797  magn= -0.0000
     atom   9 (R=0.082)  charge= 12.7784  magn=  0.0001
     atom  10 (R=0.082)  charge= 13.9045  magn=  0.0000
     atom  11 (R=0.082)  charge= 13.9078  magn=  0.0000
     atom  12 (R=0.082)  charge= 13.9058  magn=  0.0000
     atom  13 (R=0.082)  charge=  0.7940  magn= -0.0000
     atom  14 (R=0.082)  charge=  0.7878  magn=  0.0000
     atom  15 (R=0.082)  charge=  0.7921  magn=  0.0000
     atom  16 (R=0.082)  charge=  0.7909  magn=  0.0000
     atom  17 (R=0.082)  charge=  0.7734  magn=  0.0000
     atom  18 (R=0.082)  charge=  0.7864  magn=  0.0000
     atom  19 (R=0.082)  charge=  0.7714  magn=  0.0000
     atom  20 (R=0.082)  charge=  0.7715  magn=  0.0000
     atom  21 (R=0.082)  charge=  0.7919  magn= -0.0000
     atom  22 (R=0.082)  charge=  0.7875  magn=  0.0000
     atom  23 (R=0.082)  charge=  0.7956  magn=  0.0000
     atom  24 (R=0.082)  charge=  0.7909  magn=  0.0000
     atom  25 (R=0.082)  charge=  0.7748  magn=  0.0000
     atom  26 (R=0.082)  charge=  0.7724  magn=  0.0000
     atom  27 (R=0.082)  charge=  0.7707  magn=  0.0000
     atom  28 (R=0.082)  charge=  0.7839  magn=  0.0000

     total cpu time spent up to now is     1495.4 secs

     End of self-consistent calculation

     Number of k-points >= 100: set verbosity='high' to print the bands.

     the Fermi energy is     5.9550 ev

!    total energy              =   -1616.72876002 Ry
     estimated scf accuracy    <          4.8E-10 Ry
     smearing contrib. (-TS)   =       0.00042697 Ry
     internal energy E=F+TS    =   -1616.72918699 Ry

     The total energy is F=E-TS. E is the sum of the following terms:
     one-electron contribution =   -1356.25295401 Ry
     hartree contribution      =     707.03208396 Ry
     xc contribution           =    -164.40458975 Ry
     ewald contribution        =    -552.41686562 Ry
     DFT-D3 Dispersion         =      -0.36349333 Ry
     one-center paw contrib.   =    -250.32336824 Ry

     total magnetization       =     0.00 Bohr mag/cell
     absolute magnetization    =     0.00 Bohr mag/cell

     convergence has been achieved in  28 iterations

     Forces acting on atoms (cartesian axes, Ry/au):

     atom    1 type  1   force =     0.00001773    0.00002099    0.00001737
     atom    2 type  1   force =     0.00003341   -0.00000179   -0.00000125
     atom    3 type  1   force =     0.00001320   -0.00002140   -0.00002827
     atom    4 type  1   force =    -0.00000391   -0.00002231   -0.00000907
     atom    5 type  1   force =     0.00000440    0.00002087   -0.00000927
     atom    6 type  1   force =     0.00002408   -0.00002568    0.00001350
     atom    7 type  1   force =     0.00003768   -0.00000647    0.00003195
     atom    8 type  1   force =     0.00001945   -0.00000918   -0.00000552
     atom    9 type  2   force =     0.00001417    0.00001098   -0.00003953
     atom   10 type  3   force =     0.00005400    0.00009293   -0.00005757
     atom   11 type  3   force =     0.00004511    0.00005700   -0.00007303
     atom   12 type  3   force =    -0.00000989    0.00001108    0.00005859
     atom   13 type  4   force =    -0.00000124    0.00000115   -0.00000809
     atom   14 type  4   force =    -0.00004233   -0.00000865   -0.00000712
     atom   15 type  4   force =    -0.00007466    0.00004811   -0.00001301
     atom   16 type  4   force =    -0.00002727   -0.00000885   -0.00004773
     atom   17 type  4   force =    -0.00004944   -0.00006773   -0.00001436
     atom   18 type  4   force =    -0.00002787   -0.00002410    0.00003112
     atom   19 type  4   force =    -0.00003048   -0.00003727    0.00001866
     atom   20 type  4   force =    -0.00006355   -0.00005548    0.00007752
     atom   21 type  4   force =     0.00001861    0.00000741    0.00003274
     atom   22 type  4   force =     0.00001886   -0.00003076    0.00001262
     atom   23 type  4   force =     0.00004647   -0.00004648    0.00001595
     atom   24 type  4   force =     0.00000907    0.00003435    0.00001554
     atom   25 type  4   force =     0.00000422   -0.00000794   -0.00005059
     atom   26 type  4   force =    -0.00002045    0.00005921    0.00004012
     atom   27 type  4   force =    -0.00001900    0.00001139   -0.00000953
     atom   28 type  4   force =     0.00000963   -0.00000138    0.00000828

     Total force =     0.000311     Total SCF correction =     0.000020


     Computing stress (Cartesian axis) and pressure

          total   stress  (Ry/bohr**3)                   (kbar)     P=       -0.04
  -0.00000026   0.00000009  -0.00000005           -0.04        0.01       -0.01
   0.00000009  -0.00000031   0.00000004            0.01       -0.05        0.01
  -0.00000005   0.00000004  -0.00000029           -0.01        0.01       -0.04


     BFGS Geometry Optimization
     Energy error            =      9.7E-08 Ry
     Gradient error          =      9.3E-05 Ry/Bohr

     bfgs converged in   1 scf cycles and   0 bfgs steps
     (criteria: energy <  1.0E-05 Ry, force <  1.0E-04 Ry/Bohr)

     End of BFGS Geometry Optimization

     Final energy             =   -1616.7287600196 Ry
Begin final coordinates

ATOMIC_POSITIONS (angstrom)
Mg              -4.3214883959        5.3079402085        5.6712416043
Mg              -3.0940640764        4.8487699223        2.8491788810
Mg               3.3114421869        1.9934327929        2.8983823453
Mg               4.5039254754        1.4202816414        0.0033595361
Mg               0.7202960597        6.4516624755        4.2319409735
Mg              -0.5674870255        0.3041213357        1.3959524081
Mg              -0.6372427133        3.6354243906        4.3000900161
Mg               0.7013454415        3.2440787307        1.4083836264
Co              -1.8103818397        5.9941002886        5.1072410437
Ni              -1.9392002085        2.4850809942        2.2786917567
Ni               2.1174763201        4.3241898103        3.3717934912
Ni               1.9615664902        0.7862273046        0.5408066215
H               -0.5670396741        5.2160925814        5.5812150045
H               -0.4634139895        2.2053082386        2.6197299751
H                0.6240992945        4.6027585866        3.1101546322
H                0.7153956170        1.6423782798        0.2524663957
H                5.2412273055        1.0855315032        2.0842567230
H                4.0447121782        1.6354632975        4.9237745845
H               -3.8040820122        5.0888140933        0.6607579537
H               -5.0486733758        5.7191873476        3.5417578885
H               -3.0074460796        6.4337507850        4.2434568806
H               -2.8985764638        3.1695269306        1.2938635957
H                3.0016048255        3.6092666504        4.4075257278
H                3.1084161013        0.5420885180        1.5334255877
H                0.2688553909        1.9220598832        4.9101664322
H                2.6340196610        3.7287858227        2.0307398930
H               -2.4995615459        2.9834035492        3.6451591746
H               -0.0997363705        5.0269852469        0.7366382023
End final coordinates



     Writing all to output data dir ./outdir/mg2nih4_co_nisite.save/ :
     XML data file, charge density, pseudopotentials, collected wavefunctions
 
     init_run     :     78.66s CPU     28.04s WALL (       1 calls)
     electrons    :   1655.83s CPU   1467.17s WALL (       1 calls)
     forces       :      7.51s CPU      6.88s WALL (       1 calls)
     force_dftd3  :      0.70s CPU      0.67s WALL (       1 calls)
     stress       :     18.06s CPU     14.29s WALL (       1 calls)
     stres_dftd3  :      0.71s CPU      0.68s WALL (       1 calls)

     Called by init_run:
     wfcinit      :     22.34s CPU     23.56s WALL (       1 calls)
     potinit      :     54.63s CPU      2.77s WALL (       1 calls)
     hinit0       :      0.65s CPU      0.55s WALL (       1 calls)

     Called by electrons:
     c_bands      :   1438.47s CPU   1317.69s WALL (      28 calls)
     sum_band     :    177.04s CPU    137.01s WALL (      28 calls)
     v_of_rho     :      0.48s CPU      0.41s WALL (      29 calls)
     newd         :      8.56s CPU      8.39s WALL (      29 calls)
     PAW_pot      :     25.16s CPU      1.90s WALL (      29 calls)
     mix_rho      :      1.24s CPU      0.94s WALL (      28 calls)
     energy_dftd3 :      0.62s CPU      0.61s WALL (       1 calls)

     Called by c_bands:
     init_us_2    :     36.92s CPU     27.58s WALL (   45312 calls)
     cegterg      :   1348.01s CPU   1232.35s WALL (   21504 calls)

     Called by *egterg:
     cdiaghg      :    427.86s CPU    449.94s WALL (   77250 calls)
                                      449.25s GPU  (   77250 calls)
     h_psi        :    493.23s CPU    398.82s WALL (   78018 calls)
     s_psi        :    113.83s CPU    112.35s WALL (   78018 calls)
     g_psi        :      2.71s CPU      2.66s WALL (   55746 calls)

     Called by h_psi:
     h_psi:calbec :      3.35s CPU      2.17s WALL (   78018 calls)
     vloc_psi     :    371.41s CPU    282.86s WALL (   78018 calls)
                                      282.60s GPU  (   78018 calls)
     add_vuspsi   :    114.68s CPU    111.74s WALL (   78018 calls)

     General routines
     calbec       :      3.40s CPU      2.46s WALL (  112578 calls)
     fft          :     46.26s CPU      2.29s WALL (     763 calls)
                                        0.12s GPU  (     705 calls)
     ffts         :     11.18s CPU      0.65s WALL (     114 calls)
                                        0.00s GPU  (      56 calls)
     fftw         :      4.33s CPU    282.77s WALL (  563210 calls)
                                      279.94s GPU  (  563210 calls)
     interpolate  :     58.19s CPU      2.92s WALL (      58 calls)
 
 
     PWSCF        :  29m47.83s CPU  25m20.46s WALL

 
   This run was terminated on:  17:46:59  13Jun2026            

=------------------------------------------------------------------------------=
   JOB DONE.
=------------------------------------------------------------------------------=
