
     Program PWSCF v.7.5 starts on 11Jun2026 at 17:49:30 

     This program is part of the open-source Quantum ESPRESSO suite
     for quantum simulation of materials; please cite
         "P. Giannozzi et al., J. Phys.:Condens. Matter 21 395502 (2009);
         "P. Giannozzi et al., J. Phys.:Condens. Matter 29 465901 (2017);
         "P. Giannozzi et al., J. Chem. Phys. 152 154105 (2020);
          URL http://www.quantum-espresso.org", 
     in publications or presentations arising from this work. More details at
     http://www.quantum-espresso.org/quote

     Serial multi-threaded version, running on   32 processor cores
     12968 MiB available memory on the printing compute node when the environment starts
 
     Reading input from inputs/mg2nih4_co.in

     Current dimensions of program PWSCF are:
     Max number of different atomic species (ntypx) = 10
     Max number of k-points (npk) =  40000
     Max angular momentum in pseudopotentials (lmaxx) =  4

     File ./outdir/mg2nih4_co.update deleted, as requested

     File ./outdir/mg2nih4_co.bfgs deleted, as requested
     file Mg.pbe-n-kjpaw_psl.0.3.0.UPF: wavefunction(s)  3S renormalized
 
 
     G-vector sticks info
     --------------------
     sticks:   dense  smooth     PW     G-vecs:    dense   smooth      PW
     Sum        5967    2979    857               294707   104215   16285
 
     Using Slab Decomposition
 


     bravais-lattice index     =            0
     lattice parameter (alat)  =      14.2522  a.u.
     unit-cell volume          =    1659.3392 (a.u.)^3
     number of atoms/cell      =           28
     number of atomic types    =            4
     number of electrons       =       119.00
     number of Kohn-Sham states=           72
     kinetic-energy cutoff     =      60.0000  Ry
     charge density cutoff     =     480.0000  Ry
     scf convergence threshold =      1.0E-09
     mixing beta               =       0.3000
     number of iterations used =           12  plain     mixing
     energy convergence thresh.=      1.0E-05
     force convergence thresh. =      1.0E-04
     press convergence thresh. =      5.0E-01
     Exchange-correlation= PBE
                           (   1   4   3   4   0   0   0)
     nstep                     =          200


     GPU acceleration is ACTIVE.  1 visible GPUs per MPI rank


     celldm(1)=  14.252238  celldm(2)=   0.000000  celldm(3)=   0.000000
     celldm(4)=   0.000000  celldm(5)=   0.000000  celldm(6)=   0.000000

     crystal axes: (cart. coord. in units of alat)
               a(1) = (   0.999979  -0.003135  -0.005692 )  
               a(2) = (  -0.670870   0.769701   0.023112 )  
               a(3) = (  -0.303226   0.158042   0.752401 )  

     reciprocal axes: (cart. coord. in units 2 pi/alat)
               b(1) = (  1.004009  0.868419  0.222215 )  
               b(2) = (  0.002546  1.309655 -0.274068 )  
               b(3) = (  0.007518 -0.033660  1.339178 )  


     PseudoPot. # 1 for Co read from file:
     /home/x/Workspace/3-hEspesso/pseudo/Co_pbe_v1.2.uspp.F.UPF
     MD5 check sum: 5f91765df6ddd3222702df6e7b74a16d
     Pseudo is Ultrasoft + core correction, Zval = 17.0
     Generated by new atomic code, or converted to UPF format
     Using radial grid of  863 points,  6 beta functions with: 
                l(1) =   0
                l(2) =   0
                l(3) =   1
                l(4) =   1
                l(5) =   2
                l(6) =   2
     Q(r) pseudized with  8 coefficients,  rinner =    1.200   1.200   1.200
                                                       1.200   1.200

     PseudoPot. # 2 for Mg read from file:
     /home/x/Workspace/3-hEspesso/pseudo/Mg.pbe-n-kjpaw_psl.0.3.0.UPF
     MD5 check sum: 24ecedc7f3e3cbe212e682f4413594e4
     Pseudo is Projector augmented-wave + core cor, Zval =  2.0
     Generated using "atomic" code by A. Dal Corso  v.5.0.99 svn rev. 10869
     Shape of augmentation charge: PSQ
     Using radial grid of 1129 points,  4 beta functions with: 
                l(1) =   0
                l(2) =   0
                l(3) =   1
                l(4) =   1
     Q(r) pseudized with 0 coefficients 


     PseudoPot. # 3 for Ni read from file:
     /home/x/Workspace/3-hEspesso/pseudo/ni_pbe_v1.4.uspp.F.UPF
     MD5 check sum: 1ee80287db30b12d2bc1f57a5b5d6409
     Pseudo is Ultrasoft + core correction, Zval = 18.0
     Generated by new atomic code, or converted to UPF format
     Using radial grid of  865 points,  6 beta functions with: 
                l(1) =   0
                l(2) =   0
                l(3) =   1
                l(4) =   1
                l(5) =   2
                l(6) =   2
     Q(r) pseudized with 10 coefficients,  rinner =    0.980   0.980   0.980
                                                       0.980   0.980

     PseudoPot. # 4 for H  read from file:
     /home/x/Workspace/3-hEspesso/pseudo/H.pbe-rrkjus_psl.1.0.0.UPF
     MD5 check sum: f52b6d4d1c606e5624b1dc7b2218f220
     Pseudo is Ultrasoft, Zval =  1.0
     Generated using "atomic" code by A. Dal Corso  v.5.1
     Using radial grid of  929 points,  2 beta functions with: 
                l(1) =   0
                l(2) =   0
     Q(r) pseudized with 0 coefficients 


     atomic species   valence    mass     pseudopotential
     Co               17.00    58.93320     Co( 1.00)
     Mg                2.00    24.30500     Mg( 1.00)
     Ni               18.00    58.69340     Ni( 1.00)
     H                 1.00     1.00794     H ( 1.00)

     No symmetry found



   Cartesian axes

     site n.     atom                  positions (alat units)
         1        Co     tau(   1) = (  -0.5583349   0.7112251   0.7341570  )
         2        Mg     tau(   2) = (  -0.3994942   0.6510237   0.3566029  )
         3        Mg     tau(   3) = (   0.4341635   0.2710995   0.4060975  )
         4        Mg     tau(   4) = (   0.5877810   0.2008978   0.0236875  )
         5        Mg     tau(   5) = (   0.1087809   0.8732270   0.5898302  )
         6        Mg     tau(   6) = (  -0.0755151   0.0447948   0.1887800  )
         7        Mg     tau(   7) = (  -0.0805480   0.5084053   0.5675712  )
         8        Mg     tau(   8) = (   0.0821741   0.4244522   0.1892073  )
         9        Ni     tau(   9) = (  -0.2305221   0.8167808   0.6921987  )
        10        Ni     tau(  10) = (  -0.2395136   0.3369693   0.3040528  )
        11        Ni     tau(  11) = (   0.2713990   0.5788446   0.4621858  )
        12        Ni     tau(  12) = (   0.2521841   0.1130716   0.0739626  )
        13        H      tau(  13) = (  -0.0634608   0.7135560   0.7526653  )
        14        H      tau(  14) = (  -0.0506148   0.2819187   0.3673828  )
        15        H      tau(  15) = (   0.0828393   0.6414546   0.4033988  )
        16        H      tau(  16) = (   0.0775411   0.1994066   0.0162111  )
        17        H      tau(  17) = (   0.6706970   0.1492494   0.2826165  )
        18        H      tau(  18) = (   0.5083649   0.2403440   0.6703685  )
        19        H      tau(  19) = (  -0.4259631   0.6696220   0.0633522  )
        20        H      tau(  20) = (  -0.6476145   0.7669979   0.5423857  )
        21        H      tau(  21) = (  -0.4097573   0.8148798   0.5868724  )
        22        H      tau(  22) = (  -0.3448258   0.4415764   0.1480901  )
        23        H      tau(  23) = (   0.4267577   0.5271369   0.6075181  )
        24        H      tau(  24) = (   0.3827259   0.1014625   0.2293558  )
        25        H      tau(  25) = (   0.0660768   0.3213388   0.6598507  )
        26        H      tau(  26) = (   0.3410351   0.4895817   0.2917932  )
        27        H      tau(  27) = (  -0.3206439   0.4256689   0.4713879  )
        28        H      tau(  28) = (  -0.0833527   0.6295268   0.0959125  )

     --------------------------------------------
     DFT-D3 Dispersion Correction (3-body terms):
     --------------------------------------------
       Reference C6 values for interpolation: 

         atom   Coordination number   C6
         H          0.912             6.05
         H          0.000            15.18
         Mg         0.000          1366.75
         Mg         0.963           902.54
         Mg         1.950           351.12
         Co         0.000          1065.56
         Co         1.715           373.09
         Co         2.926           296.13
         Co         7.779           236.57
         Ni         0.000          1149.49
         Ni         1.794           356.66
         Ni         6.546           257.56
         Ni         6.292           283.75

       Values used:

         atom   Coordination number  R0_AB[au]  C6      C8
         Co         8.088            3.243    236.57  20800.86
         Mg         9.505            3.292    351.12  31436.69
         Mg        10.248            3.292    351.12  31436.69
         Mg        10.241            3.292    351.12  31436.69
         Mg        10.166            3.292    351.12  31436.69
         Mg         9.971            3.292    351.12  31436.69
         Mg        10.792            3.292    351.12  31436.69
         Mg        10.039            3.292    351.12  31436.69
         Ni         9.399            3.162    257.62  21586.80
         Ni         9.781            3.162    257.59  21584.22
         Ni         9.552            3.162    257.61  21585.52
         Ni         9.207            3.162    257.65  21589.07
         H          2.351            2.062      6.05     73.18
         H          2.143            2.062      6.05     73.18
         H          2.118            2.062      6.05     73.18
         H          2.269            2.062      6.05     73.18
         H          2.174            2.062      6.05     73.18
         H          2.391            2.062      6.05     73.18
         H          2.254            2.062      6.05     73.18
         H          2.213            2.062      6.05     73.18
         H          1.900            2.062      6.05     73.18
         H          2.310            2.062      6.05     73.18
         H          2.136            2.062      6.05     73.18
         H          2.587            2.062      6.05     73.18
         H          2.533            2.062      6.05     73.18
         H          2.192            2.062      6.05     73.18
         H          2.483            2.062      6.05     73.18
         H          1.921            2.062      6.05     73.18

         Molecular C6 ( Ry / a.u.^6 ) =     61524.06


     number of k points=   384  Marzari-Vanderbilt smearing, width (Ry)=  0.0100

     Number of k-points >= 100: set verbosity='high' to print them.

     Dense  grid:   294707 G-vectors     FFT dimensions: ( 100, 108,  90)

     Smooth grid:   104215 G-vectors     FFT dimensions: (  72,  72,  60)

     Estimated max dynamical RAM per process >       6.69 GB

     Check: negative core charge=   -0.000003

     Initial potential from superposition of free atoms

     starting charge     109.9934, renormalised to     119.0000
     Starting wfcs are  109 randomized atomic wfcs

     total cpu time spent up to now is       15.3 secs

     Self-consistent Calculation

     iteration #  1     ecut=    60.00 Ry     beta= 0.30
     Davidson diagonalization with overlap
     ethr =  1.00E-02,  avg # of iterations =  5.7

     total cpu time spent up to now is       68.6 secs

     total energy              =   -1839.85527661 Ry
     estimated scf accuracy    <     257.26849992 Ry

     iteration #  2     ecut=    60.00 Ry     beta= 0.30
     Davidson diagonalization with overlap
     ethr =  1.00E-02,  avg # of iterations =  4.0

     total cpu time spent up to now is      113.9 secs

     total energy              =   -1925.82930183 Ry
     estimated scf accuracy    <     108.57379076 Ry

     iteration #  3     ecut=    60.00 Ry     beta= 0.30
     Davidson diagonalization with overlap
     ethr =  1.00E-02,  avg # of iterations =  2.1

     total cpu time spent up to now is      143.7 secs

     total energy              =   -1927.73862140 Ry
     estimated scf accuracy    <      23.37565361 Ry

     iteration #  4     ecut=    60.00 Ry     beta= 0.30
     Davidson diagonalization with overlap
     ethr =  1.00E-02,  avg # of iterations =  1.0

     total cpu time spent up to now is      162.6 secs

     total energy              =   -1927.74751750 Ry
     estimated scf accuracy    <       9.89466995 Ry

     iteration #  5     ecut=    60.00 Ry     beta= 0.30
     Davidson diagonalization with overlap
     ethr =  8.31E-03,  avg # of iterations =  1.0

     total cpu time spent up to now is      181.5 secs

     total energy              =   -1924.19913380 Ry
     estimated scf accuracy    <       7.69236919 Ry

     iteration #  6     ecut=    60.00 Ry     beta= 0.30
     Davidson diagonalization with overlap
     ethr =  6.46E-03,  avg # of iterations =  3.0

     total cpu time spent up to now is      212.9 secs

     total energy              =   -1925.85021572 Ry
     estimated scf accuracy    <      13.45759438 Ry

     iteration #  7     ecut=    60.00 Ry     beta= 0.30
     Davidson diagonalization with overlap
     ethr =  6.46E-03,  avg # of iterations =  1.0

     total cpu time spent up to now is      231.8 secs

     total energy              =   -1925.63273106 Ry
     estimated scf accuracy    <       3.60205969 Ry

     iteration #  8     ecut=    60.00 Ry     beta= 0.30
     Davidson diagonalization with overlap
     ethr =  3.03E-03,  avg # of iterations =  2.0

     total cpu time spent up to now is      256.7 secs

     total energy              =   -1926.56006294 Ry
     estimated scf accuracy    <       1.74009841 Ry

     iteration #  9     ecut=    60.00 Ry     beta= 0.30
     Davidson diagonalization with overlap
     ethr =  1.46E-03,  avg # of iterations =  1.0

     total cpu time spent up to now is      275.8 secs

     total energy              =   -1926.13062242 Ry
     estimated scf accuracy    <       2.46692507 Ry

     iteration # 10     ecut=    60.00 Ry     beta= 0.30
     Davidson diagonalization with overlap
     ethr =  1.46E-03,  avg # of iterations =  1.2

     total cpu time spent up to now is      296.6 secs

     total energy              =   -1926.26590289 Ry
     estimated scf accuracy    <       0.19869450 Ry

     iteration # 11     ecut=    60.00 Ry     beta= 0.30
     Davidson diagonalization with overlap
     ethr =  1.67E-04,  avg # of iterations =  2.0

     total cpu time spent up to now is      320.5 secs

     total energy              =   -1926.27677127 Ry
     estimated scf accuracy    <       0.06576679 Ry

     iteration # 12     ecut=    60.00 Ry     beta= 0.30
     Davidson diagonalization with overlap
     ethr =  5.53E-05,  avg # of iterations =  1.2

     total cpu time spent up to now is      341.6 secs

     total energy              =   -1926.26929133 Ry
     estimated scf accuracy    <       0.04872651 Ry

     iteration # 13     ecut=    60.00 Ry     beta= 0.30
     Davidson diagonalization with overlap
     ethr =  4.09E-05,  avg # of iterations =  1.2

     total cpu time spent up to now is      362.9 secs

     total energy              =   -1926.27101018 Ry
     estimated scf accuracy    <       0.00447568 Ry

     iteration # 14     ecut=    60.00 Ry     beta= 0.30
     Davidson diagonalization with overlap
     ethr =  3.76E-06,  avg # of iterations =  4.5

     total cpu time spent up to now is      407.0 secs

     total energy              =   -1926.27242880 Ry
     estimated scf accuracy    <       0.00100868 Ry

     iteration # 15     ecut=    60.00 Ry     beta= 0.30
     Davidson diagonalization with overlap
     ethr =  8.48E-07,  avg # of iterations =  2.2

     total cpu time spent up to now is      433.2 secs

     total energy              =   -1926.27267745 Ry
     estimated scf accuracy    <       0.00661090 Ry

     iteration # 16     ecut=    60.00 Ry     beta= 0.30
     Davidson diagonalization with overlap
     ethr =  8.48E-07,  avg # of iterations =  1.0

     total cpu time spent up to now is      452.2 secs

     total energy              =   -1926.27193919 Ry
     estimated scf accuracy    <       0.00604602 Ry

     iteration # 17     ecut=    60.00 Ry     beta= 0.30
     Davidson diagonalization with overlap
     ethr =  8.48E-07,  avg # of iterations =  2.0

     total cpu time spent up to now is      476.9 secs

     total energy              =   -1926.27212738 Ry
     estimated scf accuracy    <       0.00072107 Ry

     iteration # 18     ecut=    60.00 Ry     beta= 0.30
     Davidson diagonalization with overlap
     ethr =  6.06E-07,  avg # of iterations =  1.0

     total cpu time spent up to now is      495.9 secs

     total energy              =   -1926.27215004 Ry
     estimated scf accuracy    <       0.00009593 Ry

     iteration # 19     ecut=    60.00 Ry     beta= 0.30
     Davidson diagonalization with overlap
     ethr =  8.06E-08,  avg # of iterations =  2.0

     total cpu time spent up to now is      519.3 secs

     total energy              =   -1926.27215685 Ry
     estimated scf accuracy    <       0.00000714 Ry

     iteration # 20     ecut=    60.00 Ry     beta= 0.30
     Davidson diagonalization with overlap
     ethr =  6.00E-09,  avg # of iterations =  2.9

     total cpu time spent up to now is      549.0 secs

     total energy              =   -1926.27215786 Ry
     estimated scf accuracy    <       0.00000448 Ry

     iteration # 21     ecut=    60.00 Ry     beta= 0.30
     Davidson diagonalization with overlap
     ethr =  3.77E-09,  avg # of iterations =  1.0

     total cpu time spent up to now is      567.8 secs

     total energy              =   -1926.27215804 Ry
     estimated scf accuracy    <       0.00000037 Ry

     iteration # 22     ecut=    60.00 Ry     beta= 0.30
     Davidson diagonalization with overlap
     ethr =  3.09E-10,  avg # of iterations =  4.7

     total cpu time spent up to now is      609.2 secs

     total energy              =   -1926.27215813 Ry
     estimated scf accuracy    <       0.00000002 Ry

     iteration # 23     ecut=    60.00 Ry     beta= 0.30
     Davidson diagonalization with overlap
     ethr =  2.00E-11,  avg # of iterations =  4.0

     total cpu time spent up to now is      649.1 secs

     total energy              =   -1926.27215814 Ry
     estimated scf accuracy    <       0.00000001 Ry

     iteration # 24     ecut=    60.00 Ry     beta= 0.30
     Davidson diagonalization with overlap
     ethr =  9.19E-12,  avg # of iterations =  1.1

     total cpu time spent up to now is      668.4 secs

     total energy              =   -1926.27215814 Ry
     estimated scf accuracy    <          1.7E-09 Ry

     iteration # 25     ecut=    60.00 Ry     beta= 0.30
     Davidson diagonalization with overlap
     ethr =  1.41E-12,  avg # of iterations =  2.3

     total cpu time spent up to now is      694.3 secs

     End of self-consistent calculation

     Number of k-points >= 100: set verbosity='high' to print the bands.

     the Fermi energy is     6.9074 ev

!    total energy              =   -1926.27215814 Ry
     estimated scf accuracy    <          3.2E-10 Ry
     smearing contrib. (-TS)   =      -0.00034475 Ry
     internal energy E=F+TS    =   -1926.27181340 Ry

     The total energy is F=E-TS. E is the sum of the following terms:
     one-electron contribution =   -1699.67525916 Ry
     hartree contribution      =     884.49342351 Ry
     xc contribution           =    -198.32340901 Ry
     ewald contribution        =    -693.34797129 Ry
     DFT-D3 Dispersion         =      -0.36640122 Ry
     one-center paw contrib.   =    -219.05219622 Ry

     convergence has been achieved in  25 iterations

     Forces acting on atoms (cartesian axes, Ry/au):

     atom    1 type  1   force =     0.00055698   -0.00292844   -0.00026397
     atom    2 type  2   force =    -0.00031925    0.00153086    0.00098297
     atom    3 type  2   force =     0.00003591   -0.00131954   -0.00090373
     atom    4 type  2   force =     0.00113277    0.00040198    0.00027790
     atom    5 type  2   force =     0.00079824    0.00026593   -0.00021424
     atom    6 type  2   force =    -0.00079546    0.00021733   -0.00060501
     atom    7 type  2   force =     0.00062564   -0.00039544    0.00002855
     atom    8 type  2   force =    -0.00098561   -0.00074808    0.00095568
     atom    9 type  3   force =    -0.00078568    0.00044933    0.00027045
     atom   10 type  3   force =    -0.00093926   -0.00139734    0.00204350
     atom   11 type  3   force =    -0.00045399   -0.00045533   -0.00019295
     atom   12 type  3   force =     0.00077025    0.00066524    0.00185085
     atom   13 type  4   force =     0.00037392   -0.00017870    0.00060459
     atom   14 type  4   force =    -0.00079559    0.00024580   -0.00015958
     atom   15 type  4   force =     0.00083583    0.00038298   -0.00027210
     atom   16 type  4   force =     0.00041947    0.00011635    0.00072832
     atom   17 type  4   force =     0.00024199    0.00032680    0.00012739
     atom   18 type  4   force =     0.00030027    0.00065762    0.00060197
     atom   19 type  4   force =    -0.00096190   -0.00047262   -0.00032005
     atom   20 type  4   force =    -0.00102988    0.00222582   -0.00106191
     atom   21 type  4   force =    -0.00151464    0.00075124   -0.00006511
     atom   22 type  4   force =     0.00115874    0.00085667   -0.00091812
     atom   23 type  4   force =    -0.00038484   -0.00099442    0.00003352
     atom   24 type  4   force =     0.00128322    0.00012248   -0.00073378
     atom   25 type  4   force =    -0.00121514   -0.00066809    0.00003442
     atom   26 type  4   force =     0.00027077    0.00024422   -0.00147163
     atom   27 type  4   force =     0.00001673   -0.00056154   -0.00112587
     atom   28 type  4   force =     0.00136053    0.00065888   -0.00023203

     Total force =     0.007980     Total SCF correction =     0.000016


     Computing stress (Cartesian axis) and pressure

          total   stress  (Ry/bohr**3)                   (kbar)     P=       -1.46
  -0.00001230   0.00000262   0.00000178           -1.81        0.39        0.26
   0.00000262  -0.00000592  -0.00000596            0.39       -0.87       -0.88
   0.00000178  -0.00000596  -0.00001149            0.26       -0.88       -1.69


     BFGS Geometry Optimization
     Energy error            =      8.1E-05 Ry
     Gradient error          =      2.9E-03 Ry/Bohr
     Cell gradient error     =      1.8E+00 kbar

     number of scf cycles    =   1
     number of bfgs steps    =   0

     enthalpy           new  =   -1926.2721581443 Ry

     new trust radius        =       0.0029926054 bohr
     new conv_thr            =       0.0000000010 Ry

     new unit-cell volume =   1658.10685 a.u.^3 (   245.70608 Ang^3 )
     density =      3.24374 g/cm^3

CELL_PARAMETERS (angstrom)
   7.539477698  -0.023143304  -0.042580088
  -5.057727309   5.803837443   0.173172856
  -2.285887826   1.190778897   5.672669146

ATOMIC_POSITIONS (angstrom)
Co              -4.2087520859        5.3605876580        5.5342659365
Mg              -3.0117701755        4.9094801431        2.6883666806
Mg               3.2737257317        2.0433794872        3.0612541108
Mg               4.4323637575        1.5154154967        0.1787174206
Mg               0.8212204513        6.5844003725        4.4461399865
Mg              -0.5696919998        0.3376564397        1.4229665118
Mg              -0.6065301763        3.8329187657        4.2787867923
Mg               0.6193151415        3.2001599204        1.4266402145
Ni              -1.7378336330        6.1585627089        5.2181829597
Ni              -1.8060747283        2.5398332177        2.2931176394
Ni               2.0464518666        4.3643510121        3.4841245727
Ni               1.9018656437        0.8530485209        0.5585992343
H               -0.4776683775        5.3798429802        5.6744378305
H               -0.3817755190        2.1255969255        2.7695723574
H                0.6254728229        4.8368997428        3.0407068992
H                0.5849578707        1.5037758259        0.1224158602
H                5.0571112194        1.1256532905        2.1309950413
H                3.8333915714        1.8122425714        5.0546588438
H               -3.2117655945        5.0489829508        0.4765983010
H               -4.8827638812        5.7840600916        4.0878349525
H               -3.0896242490        6.1444166727        4.4238093279
H               -2.5989812693        3.3299751516        1.1154714640
H                3.2178607999        3.9740592555        4.5801301638
H                2.8864218137        0.7651092316        1.7289217937
H                0.4979325503        2.4221039610        4.9748170661
H                2.5717650039        3.6918294777        2.1988461724
H               -2.4171623184        3.2089178354        3.5529857758
H               -0.6273863571        4.7473627908        0.7223028799



     Writing config-only to output data dir ./outdir/mg2nih4_co.save/ :
     XML data file
     NEW-OLD atomic charge density approx. for the potential
     New effective cutoffs (rho, wfc):  480.36   60.05

     Check: negative core charge=   -0.000003

     total cpu time spent up to now is      710.0 secs

     Self-consistent Calculation

     iteration #  1     ecut=    60.00 Ry     beta= 0.30
     Davidson diagonalization with overlap
     ethr =  1.00E-06,  avg # of iterations =  3.0

     Threshold (ethr) on eigenvalues was too large:
     Diagonalizing with lowered threshold

     Davidson diagonalization with overlap
     ethr =  4.31E-08,  avg # of iterations =  1.0

     total cpu time spent up to now is      763.3 secs

     total energy              =   -1926.27221280 Ry
     estimated scf accuracy    <       0.00005153 Ry

     iteration #  2     ecut=    60.00 Ry     beta= 0.30
     Davidson diagonalization with overlap
     ethr =  4.33E-08,  avg # of iterations =  3.0

     total cpu time spent up to now is      792.9 secs

     total energy              =   -1926.27220031 Ry
     estimated scf accuracy    <       0.00040755 Ry

     iteration #  3     ecut=    60.00 Ry     beta= 0.30
     Davidson diagonalization with overlap
     ethr =  4.33E-08,  avg # of iterations =  3.0

     total cpu time spent up to now is      820.9 secs

     total energy              =   -1926.27222409 Ry
     estimated scf accuracy    <       0.00007504 Ry

     iteration #  4     ecut=    60.00 Ry     beta= 0.30
     Davidson diagonalization with overlap
     ethr =  4.33E-08,  avg # of iterations =  1.0

     total cpu time spent up to now is      839.8 secs

     total energy              =   -1926.27222840 Ry
     estimated scf accuracy    <       0.00000264 Ry

     iteration #  5     ecut=    60.00 Ry     beta= 0.30
     Davidson diagonalization with overlap
     ethr =  2.22E-09,  avg # of iterations =  2.1

     total cpu time spent up to now is      865.2 secs

     total energy              =   -1926.27222853 Ry
     estimated scf accuracy    <       0.00000453 Ry

     iteration #  6     ecut=    60.00 Ry     beta= 0.30
     Davidson diagonalization with overlap
     ethr =  2.22E-09,  avg # of iterations =  1.6

     total cpu time spent up to now is      889.8 secs

     total energy              =   -1926.27222881 Ry
     estimated scf accuracy    <       0.00000035 Ry

     iteration #  7     ecut=    60.00 Ry     beta= 0.30
     Davidson diagonalization with overlap
     ethr =  2.95E-10,  avg # of iterations =  2.0

     total cpu time spent up to now is      914.2 secs

     total energy              =   -1926.27222885 Ry
     estimated scf accuracy    <       0.00000020 Ry

     iteration #  8     ecut=    60.00 Ry     beta= 0.30
     Davidson diagonalization with overlap
     ethr =  1.67E-10,  avg # of iterations =  1.6

     total cpu time spent up to now is      938.0 secs

     total energy              =   -1926.27222886 Ry
     estimated scf accuracy    <       0.00000011 Ry

     iteration #  9     ecut=    60.00 Ry     beta= 0.30
     Davidson diagonalization with overlap
     ethr =  9.30E-11,  avg # of iterations =  1.2

     total cpu time spent up to now is      959.0 secs

     total energy              =   -1926.27222887 Ry
     estimated scf accuracy    <          5.9E-09 Ry

     iteration # 10     ecut=    60.00 Ry     beta= 0.30
     Davidson diagonalization with overlap
     ethr =  4.97E-12,  avg # of iterations =  4.2

     total cpu time spent up to now is     1006.2 secs

     total energy              =   -1926.27222887 Ry
     estimated scf accuracy    <          2.3E-09 Ry

     iteration # 11     ecut=    60.00 Ry     beta= 0.30
     Davidson diagonalization with overlap
     ethr =  1.94E-12,  avg # of iterations =  1.3

     total cpu time spent up to now is     1027.9 secs

     End of self-consistent calculation

     Number of k-points >= 100: set verbosity='high' to print the bands.

     the Fermi energy is     6.9141 ev

!    total energy              =   -1926.27222887 Ry
     estimated scf accuracy    <          6.3E-10 Ry
     smearing contrib. (-TS)   =      -0.00034465 Ry
     internal energy E=F+TS    =   -1926.27188422 Ry

     The total energy is F=E-TS. E is the sum of the following terms:
     one-electron contribution =   -1699.28101061 Ry
     hartree contribution      =     884.32375051 Ry
     xc contribution           =    -198.32887181 Ry
     ewald contribution        =    -693.56627541 Ry
     DFT-D3 Dispersion         =      -0.36666154 Ry
     one-center paw contrib.   =    -219.05281536 Ry

     convergence has been achieved in  11 iterations

     Forces acting on atoms (cartesian axes, Ry/au):

     atom    1 type  1   force =     0.00043839   -0.00218336   -0.00027811
     atom    2 type  2   force =    -0.00029278    0.00130352    0.00099580
     atom    3 type  2   force =    -0.00007638   -0.00107294   -0.00080096
     atom    4 type  2   force =     0.00087832    0.00042799    0.00016335
     atom    5 type  2   force =     0.00065193    0.00026863   -0.00012078
     atom    6 type  2   force =    -0.00069603    0.00008002   -0.00050736
     atom    7 type  2   force =     0.00057131   -0.00030244    0.00006767
     atom    8 type  2   force =    -0.00089673   -0.00062217    0.00083219
     atom    9 type  3   force =    -0.00050570    0.00034428    0.00011257
     atom   10 type  3   force =    -0.00066312   -0.00094985    0.00118235
     atom   11 type  3   force =    -0.00026106   -0.00032642   -0.00016450
     atom   12 type  3   force =     0.00045058    0.00045806    0.00145419
     atom   13 type  4   force =     0.00028018   -0.00010645    0.00057795
     atom   14 type  4   force =    -0.00051614    0.00010424    0.00000211
     atom   15 type  4   force =     0.00051861    0.00043886   -0.00036396
     atom   16 type  4   force =     0.00031930    0.00013032    0.00068586
     atom   17 type  4   force =     0.00005995   -0.00005770    0.00009881
     atom   18 type  4   force =     0.00030863    0.00054631    0.00054981
     atom   19 type  4   force =    -0.00084308   -0.00041251   -0.00024943
     atom   20 type  4   force =    -0.00085888    0.00184350   -0.00094637
     atom   21 type  4   force =    -0.00139636    0.00079584   -0.00002185
     atom   22 type  4   force =     0.00111228    0.00063925   -0.00059533
     atom   23 type  4   force =    -0.00031923   -0.00116818   -0.00009395
     atom   24 type  4   force =     0.00153437   -0.00004359   -0.00052876
     atom   25 type  4   force =    -0.00098763   -0.00068246    0.00003120
     atom   26 type  4   force =     0.00030187    0.00020691   -0.00144065
     atom   27 type  4   force =    -0.00027372   -0.00025465   -0.00053947
     atom   28 type  4   force =     0.00116111    0.00059497   -0.00010240

     Total force =     0.006563     Total SCF correction =     0.000164


     Computing stress (Cartesian axis) and pressure

          total   stress  (Ry/bohr**3)                   (kbar)     P=       -0.78
  -0.00000687   0.00000234   0.00000079           -1.01        0.34        0.12
   0.00000234  -0.00000290  -0.00000472            0.34       -0.43       -0.69
   0.00000079  -0.00000472  -0.00000612            0.12       -0.69       -0.90

     Energy error            =      7.1E-05 Ry
     Gradient error          =      2.2E-03 Ry/Bohr
     Cell gradient error     =      1.0E+00 kbar

     number of scf cycles    =   2
     number of bfgs steps    =   1

     enthalpy           old  =   -1926.2721581443 Ry
     enthalpy           new  =   -1926.2722288737 Ry

     CASE: enthalpy          _new < enthalpy          _old

     new trust radius        =       0.0044879851 bohr
     new conv_thr            =            7.1E-11 Ry

     new unit-cell volume =   1656.71106 a.u.^3 (   245.49925 Ang^3 )
     density =      3.24647 g/cm^3

CELL_PARAMETERS (angstrom)
   7.536752098  -0.022266444  -0.042231057
  -5.055229905   5.802309682   0.171536060
  -2.284678339   1.189002106   5.670449059

ATOMIC_POSITIONS (angstrom)
Co              -4.2059173901        5.3556583026        5.5307495525
Mg              -3.0103044639        4.9090921244        2.6872248612
Mg               3.2728469908        2.0415954623        3.0590975821
Mg               4.4318700702        1.5160773743        0.1786780751
Mg               0.8225536982        6.5826964718        4.4430565983
Mg              -0.5701062726        0.3373027865        1.4218721605
Mg              -0.6050969555        3.8309283121        4.2765383635
Mg               0.6185963681        3.1987463818        1.4263172794
Ni              -1.7368209292        6.1565408706        5.2151037124
Ni              -1.8057397504        2.5376705609        2.2930052255
Ni               2.0460767179        4.3627385835        3.4818902383
Ni               1.9017980530        0.8534924366        0.5598291368
H               -0.4763354012        5.3775001907        5.6719071941
H               -0.3818317039        2.1246945754        2.7681420065
H                0.6264993332        4.8359434482        3.0382541885
H                0.5852613944        1.5037097631        0.1227532559
H                5.0555904967        1.1255431442        2.1303649798
H                3.8327503150        1.8117836174        5.0533274946
H               -3.2108805183        5.0472860000        0.4748582789
H               -4.8810553247        5.7835626073        4.0839610065
H               -3.0890484756        6.1428709986        4.4207712868
H               -2.5964745367        3.3295728828        1.1135712993
H                3.2170215648        3.9715625931        4.5777732764
H                2.8870771068        0.7648906736        1.7277451954
H                0.4972148071        2.4199224869        4.9726892525
H                2.5716594374        3.6912473599        2.1959087411
H               -2.4160122150        3.2070115550        3.5503571935
H               -0.6253784529        4.7469932572        0.7208094382



     Writing config-only to output data dir ./outdir/mg2nih4_co.save/ :
     XML data file
     NEW-OLD atomic charge density approx. for the potential
     New effective cutoffs (rho, wfc):  480.87   60.12

     Check: negative core charge=   -0.000003

     total cpu time spent up to now is     1043.6 secs

     Self-consistent Calculation

     iteration #  1     ecut=    60.00 Ry     beta= 0.30
     Davidson diagonalization with overlap
     ethr =  1.00E-06,  avg # of iterations =  3.0

     Threshold (ethr) on eigenvalues was too large:
     Diagonalizing with lowered threshold

     Davidson diagonalization with overlap
     ethr =  7.69E-08,  avg # of iterations =  1.0

     total cpu time spent up to now is     1097.8 secs

     total energy              =   -1926.27228231 Ry
     estimated scf accuracy    <       0.00009166 Ry

     iteration #  2     ecut=    60.00 Ry     beta= 0.30
     Davidson diagonalization with overlap
     ethr =  7.70E-08,  avg # of iterations =  3.0

     total cpu time spent up to now is     1127.4 secs

     total energy              =   -1926.27225787 Ry
     estimated scf accuracy    <       0.00076962 Ry

     iteration #  3     ecut=    60.00 Ry     beta= 0.30
     Davidson diagonalization with overlap
     ethr =  7.70E-08,  avg # of iterations =  3.0

     total cpu time spent up to now is     1155.5 secs

     total energy              =   -1926.27230193 Ry
     estimated scf accuracy    <       0.00011819 Ry

     iteration #  4     ecut=    60.00 Ry     beta= 0.30
     Davidson diagonalization with overlap
     ethr =  7.70E-08,  avg # of iterations =  1.0

     total cpu time spent up to now is     1174.4 secs

     total energy              =   -1926.27230899 Ry
     estimated scf accuracy    <       0.00000635 Ry

     iteration #  5     ecut=    60.00 Ry     beta= 0.30
     Davidson diagonalization with overlap
     ethr =  5.34E-09,  avg # of iterations =  2.0

     total cpu time spent up to now is     1198.8 secs

     total energy              =   -1926.27230927 Ry
     estimated scf accuracy    <       0.00000887 Ry

     iteration #  6     ecut=    60.00 Ry     beta= 0.30
     Davidson diagonalization with overlap
     ethr =  5.34E-09,  avg # of iterations =  1.1

     total cpu time spent up to now is     1219.2 secs

     total energy              =   -1926.27230985 Ry
     estimated scf accuracy    <       0.00000067 Ry

     iteration #  7     ecut=    60.00 Ry     beta= 0.30
     Davidson diagonalization with overlap
     ethr =  5.62E-10,  avg # of iterations =  2.0

     total cpu time spent up to now is     1243.6 secs

     total energy              =   -1926.27230992 Ry
     estimated scf accuracy    <       0.00000044 Ry

     iteration #  8     ecut=    60.00 Ry     beta= 0.30
     Davidson diagonalization with overlap
     ethr =  3.66E-10,  avg # of iterations =  1.2

     total cpu time spent up to now is     1264.8 secs

     total energy              =   -1926.27230993 Ry
     estimated scf accuracy    <       0.00000021 Ry

     iteration #  9     ecut=    60.00 Ry     beta= 0.30
     Davidson diagonalization with overlap
     ethr =  1.74E-10,  avg # of iterations =  1.7

     total cpu time spent up to now is     1289.4 secs

     total energy              =   -1926.27230995 Ry
     estimated scf accuracy    <       0.00000001 Ry

     iteration # 10     ecut=    60.00 Ry     beta= 0.30
     Davidson diagonalization with overlap
     ethr =  1.08E-11,  avg # of iterations =  4.1

     total cpu time spent up to now is     1334.7 secs

     total energy              =   -1926.27230997 Ry
     estimated scf accuracy    <          4.5E-09 Ry

     iteration # 11     ecut=    60.00 Ry     beta= 0.30
     Davidson diagonalization with overlap
     ethr =  3.81E-12,  avg # of iterations =  1.3

     total cpu time spent up to now is     1356.7 secs

     total energy              =   -1926.27230997 Ry
     estimated scf accuracy    <          1.6E-09 Ry

     iteration # 12     ecut=    60.00 Ry     beta= 0.30
     Davidson diagonalization with overlap
     ethr =  1.36E-12,  avg # of iterations =  2.0

     total cpu time spent up to now is     1380.1 secs

     total energy              =   -1926.27230997 Ry
     estimated scf accuracy    <          3.3E-10 Ry

     iteration # 13     ecut=    60.00 Ry     beta= 0.30
     Davidson diagonalization with overlap
     ethr =  2.78E-13,  avg # of iterations =  1.1

     total cpu time spent up to now is     1400.1 secs

     End of self-consistent calculation

     Number of k-points >= 100: set verbosity='high' to print the bands.

     the Fermi energy is     6.9214 ev

!    total energy              =   -1926.27230997 Ry
     estimated scf accuracy    <          1.4E-11 Ry
     smearing contrib. (-TS)   =      -0.00034529 Ry
     internal energy E=F+TS    =   -1926.27196468 Ry

     The total energy is F=E-TS. E is the sum of the following terms:
     one-electron contribution =   -1698.78002589 Ry
     hartree contribution      =     884.10484683 Ry
     xc contribution           =    -198.33444718 Ry
     ewald contribution        =    -693.84187800 Ry
     DFT-D3 Dispersion         =      -0.36695772 Ry
     one-center paw contrib.   =    -219.05350273 Ry

     convergence has been achieved in  13 iterations

     Forces acting on atoms (cartesian axes, Ry/au):

     atom    1 type  1   force =     0.00029199   -0.00115344   -0.00033483
     atom    2 type  2   force =    -0.00025363    0.00095830    0.00098737
     atom    3 type  2   force =    -0.00020550   -0.00066497   -0.00062282
     atom    4 type  2   force =     0.00047439    0.00045171   -0.00002894
     atom    5 type  2   force =     0.00041772    0.00027353   -0.00000465
     atom    6 type  2   force =    -0.00053426   -0.00011979   -0.00036861
     atom    7 type  2   force =     0.00048023   -0.00016386    0.00011026
     atom    8 type  2   force =    -0.00074567   -0.00039739    0.00059971
     atom    9 type  3   force =    -0.00020932    0.00022615   -0.00009459
     atom   10 type  3   force =    -0.00038235   -0.00046774    0.00033386
     atom   11 type  3   force =    -0.00000982   -0.00014328   -0.00024774
     atom   12 type  3   force =     0.00017487    0.00019888    0.00103369
     atom   13 type  4   force =     0.00010822    0.00001416    0.00050853
     atom   14 type  4   force =    -0.00020145   -0.00006625    0.00019333
     atom   15 type  4   force =     0.00014805    0.00046975   -0.00046022
     atom   16 type  4   force =     0.00018278    0.00014746    0.00062069
     atom   17 type  4   force =    -0.00012487   -0.00045558    0.00005460
     atom   18 type  4   force =     0.00029474    0.00032400    0.00044370
     atom   19 type  4   force =    -0.00062533   -0.00030727   -0.00015293
     atom   20 type  4   force =    -0.00058619    0.00120584   -0.00075186
     atom   21 type  4   force =    -0.00113044    0.00085425    0.00009828
     atom   22 type  4   force =     0.00102538    0.00035192   -0.00017304
     atom   23 type  4   force =    -0.00025428   -0.00131651   -0.00028402
     atom   24 type  4   force =     0.00176852   -0.00030538   -0.00038537
     atom   25 type  4   force =    -0.00067206   -0.00070245    0.00008830
     atom   26 type  4   force =     0.00029977    0.00020728   -0.00127103
     atom   27 type  4   force =    -0.00057918    0.00010255    0.00010680
     atom   28 type  4   force =     0.00084771    0.00047811    0.00000153

     Total force =     0.005082     Total SCF correction =     0.000018


     Computing stress (Cartesian axis) and pressure

          total   stress  (Ry/bohr**3)                   (kbar)     P=       -0.05
  -0.00000082   0.00000186  -0.00000074           -0.12        0.27       -0.11
   0.00000186   0.00000002  -0.00000300            0.27        0.00       -0.44
  -0.00000074  -0.00000300  -0.00000018           -0.11       -0.44       -0.03

     Energy error            =      8.1E-05 Ry
     Gradient error          =      1.8E-03 Ry/Bohr
     Cell gradient error     =      4.4E-01 kbar

     number of scf cycles    =   3
     number of bfgs steps    =   2

     enthalpy           old  =   -1926.2722288737 Ry
     enthalpy           new  =   -1926.2723099666 Ry

     CASE: enthalpy          _new < enthalpy          _old

     new trust radius        =       0.0067301890 bohr
     new conv_thr            =            8.1E-11 Ry

     new unit-cell volume =   1655.25190 a.u.^3 (   245.28303 Ang^3 )
     density =      3.24934 g/cm^3

CELL_PARAMETERS (angstrom)
   7.533797820  -0.020848133  -0.042131208
  -5.052172399   5.800388085   0.169406358
  -2.283504479   1.186413252   5.668137603

ATOMIC_POSITIONS (angstrom)
Co              -4.2025223753        5.3488744385        5.5264492709
Mg              -3.0086950385        4.9089444863        2.6864207123
Mg               3.2717394803        2.0391679897        3.0560803148
Mg               4.4317114571        1.5174047135        0.1782788612
Mg               0.8245126119        6.5807559093        4.4391694408
Mg              -0.5709584486        0.3366363938        1.4204516478
Mg              -0.6031248545        3.8282696154        4.2739412526
Mg               0.6174319672        3.1968926018        1.4260788912
Ni              -1.7356660274        6.1539718818        5.2112654668
Ni              -1.8055662380        2.5347224396        2.2929435908
Ni               2.0458336109        4.3607541720        3.4788436967
Ni               1.9018732591        0.8541620861        0.5617517838
H               -0.4747193241        5.3744829233        5.6691608271
H               -0.3819816670        2.1233853395        2.7666300207
H                0.6278662497        4.8350580027        3.0348311429
H                0.5857959158        1.5037894984        0.1234090773
H                5.0538238967        1.1251726399        2.1294685844
H                3.8321927824        1.8112651090        5.0519899395
H               -3.2100554705        5.0450467074        0.4725257273
H               -4.8793909685        5.7831941582        4.0789569888
H               -3.0889980036        6.1412953775        4.4172058075
H               -2.5928476521        3.3291332928        1.1112431890
H                3.2160016575        3.9676795077        4.5745867258
H                2.8890982371        0.7644114647        1.7260416566
H                0.4959449301        2.4166195578        4.9703266595
H                2.5719061082        3.6907708292        2.1914262133
H               -2.4151575867        3.2046106122        3.5475152277
H               -0.6223553350        4.7468730977        0.7187858123



     Writing config-only to output data dir ./outdir/mg2nih4_co.save/ :
     XML data file
     NEW-OLD atomic charge density approx. for the potential
     New effective cutoffs (rho, wfc):  481.45   60.19

     Check: negative core charge=   -0.000003

     total cpu time spent up to now is     1415.7 secs

     Self-consistent Calculation

     iteration #  1     ecut=    60.00 Ry     beta= 0.30
     Davidson diagonalization with overlap
     ethr =  1.00E-06,  avg # of iterations =  3.0

     total cpu time spent up to now is     1453.2 secs

     total energy              =   -1926.27233648 Ry
     estimated scf accuracy    <       0.00017040 Ry

     iteration #  2     ecut=    60.00 Ry     beta= 0.30
     Davidson diagonalization with overlap
     ethr =  1.43E-07,  avg # of iterations =  3.0

     total cpu time spent up to now is     1482.7 secs

     total energy              =   -1926.27228341 Ry
     estimated scf accuracy    <       0.00165084 Ry

     iteration #  3     ecut=    60.00 Ry     beta= 0.30
     Davidson diagonalization with overlap
     ethr =  1.43E-07,  avg # of iterations =  3.0

     total cpu time spent up to now is     1510.6 secs

     total energy              =   -1926.27237459 Ry
     estimated scf accuracy    <       0.00016894 Ry

     iteration #  4     ecut=    60.00 Ry     beta= 0.30
     Davidson diagonalization with overlap
     ethr =  1.42E-07,  avg # of iterations =  1.0

     total cpu time spent up to now is     1529.4 secs

     total energy              =   -1926.27238538 Ry
     estimated scf accuracy    <       0.00001528 Ry

     iteration #  5     ecut=    60.00 Ry     beta= 0.30
     Davidson diagonalization with overlap
     ethr =  1.28E-08,  avg # of iterations =  2.0

     total cpu time spent up to now is     1553.7 secs

     total energy              =   -1926.27238607 Ry
     estimated scf accuracy    <       0.00001575 Ry

     iteration #  6     ecut=    60.00 Ry     beta= 0.30
     Davidson diagonalization with overlap
     ethr =  1.28E-08,  avg # of iterations =  1.0

     total cpu time spent up to now is     1572.6 secs

     total energy              =   -1926.27238716 Ry
     estimated scf accuracy    <       0.00000129 Ry

     iteration #  7     ecut=    60.00 Ry     beta= 0.30
     Davidson diagonalization with overlap
     ethr =  1.09E-09,  avg # of iterations =  2.0

     total cpu time spent up to now is     1597.0 secs

     total energy              =   -1926.27238729 Ry
     estimated scf accuracy    <       0.00000086 Ry

     iteration #  8     ecut=    60.00 Ry     beta= 0.30
     Davidson diagonalization with overlap
     ethr =  7.25E-10,  avg # of iterations =  1.2

     total cpu time spent up to now is     1618.2 secs

     total energy              =   -1926.27238731 Ry
     estimated scf accuracy    <       0.00000038 Ry

     iteration #  9     ecut=    60.00 Ry     beta= 0.30
     Davidson diagonalization with overlap
     ethr =  3.18E-10,  avg # of iterations =  2.0

     total cpu time spent up to now is     1641.5 secs

     total energy              =   -1926.27238735 Ry
     estimated scf accuracy    <       0.00000003 Ry

     iteration # 10     ecut=    60.00 Ry     beta= 0.30
     Davidson diagonalization with overlap
     ethr =  2.59E-11,  avg # of iterations =  4.1

     total cpu time spent up to now is     1685.9 secs

     total energy              =   -1926.27238738 Ry
     estimated scf accuracy    <          6.3E-09 Ry

     iteration # 11     ecut=    60.00 Ry     beta= 0.30
     Davidson diagonalization with overlap
     ethr =  5.27E-12,  avg # of iterations =  2.0

     total cpu time spent up to now is     1709.4 secs

     total energy              =   -1926.27238738 Ry
     estimated scf accuracy    <          3.8E-09 Ry

     iteration # 12     ecut=    60.00 Ry     beta= 0.30
     Davidson diagonalization with overlap
     ethr =  3.22E-12,  avg # of iterations =  1.0

     total cpu time spent up to now is     1728.9 secs

     total energy              =   -1926.27238738 Ry
     estimated scf accuracy    <          3.9E-10 Ry

     iteration # 13     ecut=    60.00 Ry     beta= 0.30
     Davidson diagonalization with overlap
     ethr =  3.30E-13,  avg # of iterations =  2.0

     total cpu time spent up to now is     1752.7 secs

     End of self-consistent calculation

     Number of k-points >= 100: set verbosity='high' to print the bands.

     the Fermi energy is     6.9284 ev

!    total energy              =   -1926.27238738 Ry
     estimated scf accuracy    <          3.9E-11 Ry
     smearing contrib. (-TS)   =      -0.00034718 Ry
     internal energy E=F+TS    =   -1926.27204020 Ry

     The total energy is F=E-TS. E is the sum of the following terms:
     one-electron contribution =   -1698.16661894 Ry
     hartree contribution      =     883.83097995 Ry
     xc contribution           =    -198.33920736 Ry
     ewald contribution        =    -694.17572884 Ry
     DFT-D3 Dispersion         =      -0.36726938 Ry
     one-center paw contrib.   =    -219.05419563 Ry

     convergence has been achieved in  13 iterations

     Forces acting on atoms (cartesian axes, Ry/au):

     atom    1 type  1   force =     0.00007522    0.00030463   -0.00040933
     atom    2 type  2   force =    -0.00019881    0.00046052    0.00095194
     atom    3 type  2   force =    -0.00034708   -0.00006097   -0.00033809
     atom    4 type  2   force =    -0.00011059    0.00046251   -0.00029535
     atom    5 type  2   force =     0.00006850    0.00026866    0.00014564
     atom    6 type  2   force =    -0.00028759   -0.00038465   -0.00016202
     atom    7 type  2   force =     0.00034202    0.00001989    0.00016825
     atom    8 type  2   force =    -0.00052400   -0.00005394    0.00023700
     atom    9 type  3   force =     0.00012787    0.00005217   -0.00035506
     atom   10 type  3   force =    -0.00001443    0.00016081   -0.00056283
     atom   11 type  3   force =     0.00030412    0.00012138   -0.00044512
     atom   12 type  3   force =    -0.00011790   -0.00020947    0.00039087
     atom   13 type  4   force =    -0.00016440    0.00018561    0.00038996
     atom   14 type  4   force =     0.00011992   -0.00026245    0.00041817
     atom   15 type  4   force =    -0.00025810    0.00043837   -0.00052842
     atom   16 type  4   force =     0.00002585    0.00014506    0.00054954
     atom   17 type  4   force =    -0.00029080   -0.00082118    0.00000384
     atom   18 type  4   force =     0.00024615   -0.00003780    0.00027457
     atom   19 type  4   force =    -0.00026980   -0.00014981   -0.00001293
     atom   20 type  4   force =    -0.00018530    0.00023844   -0.00044587
     atom   21 type  4   force =    -0.00067958    0.00092275    0.00032524
     atom   22 type  4   force =     0.00088344   -0.00001007    0.00035854
     atom   23 type  4   force =    -0.00020505   -0.00136942   -0.00052834
     atom   24 type  4   force =     0.00195905   -0.00070185   -0.00031668
     atom   25 type  4   force =    -0.00027684   -0.00073397    0.00025974
     atom   26 type  4   force =     0.00024299    0.00026169   -0.00089429
     atom   27 type  4   force =    -0.00085294    0.00047060    0.00076332
     atom   28 type  4   force =     0.00038808    0.00028248    0.00005774

     Total force =     0.004331     Total SCF correction =     0.000015


     Computing stress (Cartesian axis) and pressure

          total   stress  (Ry/bohr**3)                   (kbar)     P=        0.53
   0.00000449   0.00000113  -0.00000285            0.66        0.17       -0.42
   0.00000113   0.00000148  -0.00000077            0.17        0.22       -0.11
  -0.00000285  -0.00000077   0.00000494           -0.42       -0.11        0.73

     Energy error            =      7.7E-05 Ry
     Gradient error          =      2.0E-03 Ry/Bohr
     Cell gradient error     =      7.3E-01 kbar

     number of scf cycles    =   4
     number of bfgs steps    =   3

     enthalpy           old  =   -1926.2723099666 Ry
     enthalpy           new  =   -1926.2723873798 Ry

     CASE: enthalpy          _new < enthalpy          _old

     new trust radius        =       0.0082427614 bohr
     new conv_thr            =            7.7E-11 Ry

     new unit-cell volume =   1654.26782 a.u.^3 (   245.13720 Ang^3 )
     density =      3.25127 g/cm^3

CELL_PARAMETERS (angstrom)
   7.531817820  -0.019246842  -0.042776765
  -5.049643035   5.798452547   0.167769951
  -2.283152419   1.183764002   5.666834136

ATOMIC_POSITIONS (angstrom)
Co              -4.2000772395        5.3425071517        5.5230478983
Mg              -3.0077254724        4.9089783086        2.6868108457
Mg               3.2705835133        2.0369324760        3.0530220407
Mg               4.4319620114        1.5191382324        0.1772345657
Mg               0.8262699958        6.5790949937        4.4358973666
Mg              -0.5721342317        0.3356821071        1.4192279625
Mg              -0.6013846175        3.8256920500        4.2720891962
Mg               0.6160191030        3.1951478933        1.4260237521
Ni              -1.7349916258        6.1514545152        5.2080461202
Ni              -1.8057529005        2.5319441584        2.2929853776
Ni               2.0458433283        4.3590077222        3.4757274911
Ni               1.9020804706        0.8546873462        0.5636864704
H               -0.4737501130        5.3716714912        5.6674264757
H               -0.3823084729        2.1219147988        2.7658055772
H                0.6289413804        4.8344980397        3.0314391567
H                0.5864248248        1.5039898609        0.1243335268
H                5.0523532452        1.1244430473        2.1283635793
H                3.8318042756        1.8107419380        5.0510942787
H               -3.2096474196        5.0427665197        0.4705700351
H               -4.8786442944        5.7827359320        4.0747743526
H               -3.0899207843        6.1402942659        4.4147829048
H               -2.5890932821        3.3286295948        1.1095996320
H                3.2149158454        3.9631519234        4.5713526261
H                2.8924885781        0.7635141671        1.7240690304
H                0.4942053942        2.4129073286        4.9688107846
H                2.5724742618        3.6906027993        2.1865637000
H               -2.4153923570        3.2025001659        3.5458824161
H               -0.6192302994        4.7469470852        0.7169153515



     Writing config-only to output data dir ./outdir/mg2nih4_co.save/ :
     XML data file
     NEW-OLD atomic charge density approx. for the potential
     New effective cutoffs (rho, wfc):  481.91   60.26

     Check: negative core charge=   -0.000003

     total cpu time spent up to now is     1768.6 secs

     Self-consistent Calculation

     iteration #  1     ecut=    60.00 Ry     beta= 0.30
     Davidson diagonalization with overlap
     ethr =  1.00E-06,  avg # of iterations =  3.0

     total cpu time spent up to now is     1806.8 secs

     total energy              =   -1926.27239369 Ry
     estimated scf accuracy    <       0.00014958 Ry

     iteration #  2     ecut=    60.00 Ry     beta= 0.30
     Davidson diagonalization with overlap
     ethr =  1.26E-07,  avg # of iterations =  3.0

     total cpu time spent up to now is     1837.3 secs

     total energy              =   -1926.27234256 Ry
     estimated scf accuracy    <       0.00157761 Ry

     iteration #  3     ecut=    60.00 Ry     beta= 0.30
     Davidson diagonalization with overlap
     ethr =  1.26E-07,  avg # of iterations =  3.0

     total cpu time spent up to now is     1866.1 secs

     total energy              =   -1926.27242768 Ry
     estimated scf accuracy    <       0.00011718 Ry

     iteration #  4     ecut=    60.00 Ry     beta= 0.30
     Davidson diagonalization with overlap
     ethr =  9.85E-08,  avg # of iterations =  1.0

     total cpu time spent up to now is     1885.3 secs

     total energy              =   -1926.27243548 Ry
     estimated scf accuracy    <       0.00001693 Ry

     iteration #  5     ecut=    60.00 Ry     beta= 0.30
     Davidson diagonalization with overlap
     ethr =  1.42E-08,  avg # of iterations =  2.0

     total cpu time spent up to now is     1909.8 secs

     total energy              =   -1926.27243632 Ry
     estimated scf accuracy    <       0.00001200 Ry

     iteration #  6     ecut=    60.00 Ry     beta= 0.30
     Davidson diagonalization with overlap
     ethr =  1.01E-08,  avg # of iterations =  1.0

     total cpu time spent up to now is     1929.0 secs

     total energy              =   -1926.27243721 Ry
     estimated scf accuracy    <       0.00000130 Ry

     iteration #  7     ecut=    60.00 Ry     beta= 0.30
     Davidson diagonalization with overlap
     ethr =  1.09E-09,  avg # of iterations =  2.0

     total cpu time spent up to now is     1954.0 secs

     total energy              =   -1926.27243731 Ry
     estimated scf accuracy    <       0.00000074 Ry

     iteration #  8     ecut=    60.00 Ry     beta= 0.30
     Davidson diagonalization with overlap
     ethr =  6.24E-10,  avg # of iterations =  1.2

     total cpu time spent up to now is     1975.8 secs

     total energy              =   -1926.27243733 Ry
     estimated scf accuracy    <       0.00000031 Ry

     iteration #  9     ecut=    60.00 Ry     beta= 0.30
     Davidson diagonalization with overlap
     ethr =  2.63E-10,  avg # of iterations =  2.0

     total cpu time spent up to now is     1999.7 secs

     total energy              =   -1926.27243737 Ry
     estimated scf accuracy    <       0.00000003 Ry

     iteration # 10     ecut=    60.00 Ry     beta= 0.30
     Davidson diagonalization with overlap
     ethr =  2.65E-11,  avg # of iterations =  4.0

     total cpu time spent up to now is     2043.0 secs

     total energy              =   -1926.27243739 Ry
     estimated scf accuracy    <          4.3E-09 Ry

     iteration # 11     ecut=    60.00 Ry     beta= 0.30
     Davidson diagonalization with overlap
     ethr =  3.65E-12,  avg # of iterations =  2.0

     total cpu time spent up to now is     2066.5 secs

     total energy              =   -1926.27243740 Ry
     estimated scf accuracy    <          4.2E-09 Ry

     iteration # 12     ecut=    60.00 Ry     beta= 0.30
     Davidson diagonalization with overlap
     ethr =  3.56E-12,  avg # of iterations =  1.0

     total cpu time spent up to now is     2085.4 secs

     total energy              =   -1926.27243740 Ry
     estimated scf accuracy    <          2.6E-10 Ry

     iteration # 13     ecut=    60.00 Ry     beta= 0.30
     Davidson diagonalization with overlap
     ethr =  2.20E-13,  avg # of iterations =  2.0

     total cpu time spent up to now is     2109.8 secs

     End of self-consistent calculation

     Number of k-points >= 100: set verbosity='high' to print the bands.

     the Fermi energy is     6.9324 ev

!    total energy              =   -1926.27243740 Ry
     estimated scf accuracy    <          5.6E-11 Ry
     smearing contrib. (-TS)   =      -0.00035005 Ry
     internal energy E=F+TS    =   -1926.27208735 Ry

     The total energy is F=E-TS. E is the sum of the following terms:
     one-electron contribution =   -1697.65667507 Ry
     hartree contribution      =     883.59803594 Ry
     xc contribution           =    -198.34105857 Ry
     ewald contribution        =    -694.45028718 Ry
     DFT-D3 Dispersion         =      -0.36748184 Ry
     one-center paw contrib.   =    -219.05462064 Ry

     convergence has been achieved in  13 iterations

     Forces acting on atoms (cartesian axes, Ry/au):

     atom    1 type  1   force =    -0.00011737    0.00151108   -0.00044097
     atom    2 type  2   force =    -0.00013556    0.00000288    0.00087755
     atom    3 type  2   force =    -0.00042678    0.00051757   -0.00005764
     atom    4 type  2   force =    -0.00065140    0.00044257   -0.00052922
     atom    5 type  2   force =    -0.00028146    0.00024442    0.00024372
     atom    6 type  2   force =    -0.00003065   -0.00058583    0.00003562
     atom    7 type  2   force =     0.00021012    0.00017949    0.00020858
     atom    8 type  2   force =    -0.00030608    0.00028266   -0.00014130
     atom    9 type  3   force =     0.00031315   -0.00012229   -0.00054388
     atom   10 type  3   force =     0.00023261    0.00060877   -0.00093870
     atom   11 type  3   force =     0.00048284    0.00032558   -0.00067298
     atom   12 type  3   force =    -0.00023731   -0.00055341   -0.00012602
     atom   13 type  4   force =    -0.00040395    0.00032018    0.00026180
     atom   14 type  4   force =     0.00030213   -0.00039352    0.00057621
     atom   15 type  4   force =    -0.00051041    0.00032364   -0.00051884
     atom   16 type  4   force =    -0.00010418    0.00012160    0.00048728
     atom   17 type  4   force =    -0.00032193   -0.00090437   -0.00003552
     atom   18 type  4   force =     0.00018243   -0.00037940    0.00008384
     atom   19 type  4   force =     0.00009888   -0.00002413    0.00011649
     atom   20 type  4   force =     0.00020939   -0.00067797   -0.00014706
     atom   21 type  4   force =    -0.00020867    0.00098259    0.00055669
     atom   22 type  4   force =     0.00071041   -0.00025852    0.00072996
     atom   23 type  4   force =    -0.00019412   -0.00117925   -0.00071028
     atom   24 type  4   force =     0.00196230   -0.00109809   -0.00041031
     atom   25 type  4   force =     0.00003265   -0.00075824    0.00047487
     atom   26 type  4   force =     0.00014249    0.00036567   -0.00043726
     atom   27 type  4   force =    -0.00089848    0.00062798    0.00105152
     atom   28 type  4   force =    -0.00005105    0.00007835    0.00000583

     Total force =     0.004989     Total SCF correction =     0.000016


     Computing stress (Cartesian axis) and pressure

          total   stress  (Ry/bohr**3)                   (kbar)     P=        0.76
   0.00000708   0.00000035  -0.00000445            1.04        0.05       -0.65
   0.00000035   0.00000118   0.00000092            0.05        0.17        0.14
  -0.00000445   0.00000092   0.00000717           -0.65        0.14        1.06

     Energy error            =      5.0E-05 Ry
     Gradient error          =      2.0E-03 Ry/Bohr
     Cell gradient error     =      1.1E+00 kbar

     number of scf cycles    =   5
     number of bfgs steps    =   4

     enthalpy           old  =   -1926.2723873798 Ry
     enthalpy           new  =   -1926.2724373955 Ry

     CASE: enthalpy          _new < enthalpy          _old

     new trust radius        =       0.0092487545 bohr
     new conv_thr            =            5.0E-11 Ry

     new unit-cell volume =   1653.92232 a.u.^3 (   245.08600 Ang^3 )
     density =      3.25195 g/cm^3

CELL_PARAMETERS (angstrom)
   7.531297072  -0.017869148  -0.044266929
  -5.048278843   5.796751520   0.167211279
  -2.283904133   1.181670142   5.666906610

ATOMIC_POSITIONS (angstrom)
Co              -4.1994062793        5.3381814611        5.5214363875
Mg              -3.0077512036        4.9089735408        2.6885356614
Mg               3.2695007292        2.0354944550        3.0505609844
Mg               4.4323982104        1.5208471441        0.1755458120
Mg               0.8271407569        6.5778916349        4.4340279484
Mg              -0.5733694891        0.3345686484        1.4185350801
Mg              -0.6004262274        3.8237163186        4.2714731318
Mg               0.6146090099        3.1938955927        1.4260691498
Ni              -1.7351648704        6.1493282611        5.2061966104
Ni              -1.8063391258        2.5299773737        2.2932624082
Ni               2.0460072406        4.3578008918        3.4730533688
Ni               1.9023913721        0.8547994424        0.5650912442
H               -0.4739531548        5.3696006014        5.6671553816
H               -0.3828382479        2.1205125598        2.7659591028
H                0.6293158311        4.8342093749        3.0288280420
H                0.5869694605        1.5042077034        0.1253745967
H                5.0514765573        1.1234656981        2.1271348877
H                3.8315212284        1.8101744025        5.0506892787
H               -3.2097193790        5.0407962867        0.4696166761
H               -4.8790742248        5.7818890662        4.0725930523
H               -3.0917346063        6.1400640513        4.4143224756
H               -2.5860755057        3.3280476786        1.1092150542
H                3.2138058431        3.9588659983        4.5686187468
H                2.8966205832        0.7621377832        1.7220199756
H                0.4922333098        2.4094623356        4.9686123691
H                2.5731336616        3.6907419549        2.1824292775
H               -2.4168292171        3.2010896124        3.5459414807
H               -0.6168449060        4.7469953139        0.7156152467



     Writing config-only to output data dir ./outdir/mg2nih4_co.save/ :
     XML data file
     NEW-OLD atomic charge density approx. for the potential
     New effective cutoffs (rho, wfc):  482.20   60.29

     Check: negative core charge=   -0.000003

     total cpu time spent up to now is     2125.6 secs

     Self-consistent Calculation

     iteration #  1     ecut=    60.00 Ry     beta= 0.30
     Davidson diagonalization with overlap
     ethr =  1.00E-06,  avg # of iterations =  3.0

     Threshold (ethr) on eigenvalues was too large:
     Diagonalizing with lowered threshold

     Davidson diagonalization with overlap
     ethr =  6.67E-08,  avg # of iterations =  1.0

     total cpu time spent up to now is     2180.8 secs

     total energy              =   -1926.27246038 Ry
     estimated scf accuracy    <       0.00007942 Ry

     iteration #  2     ecut=    60.00 Ry     beta= 0.30
     Davidson diagonalization with overlap
     ethr =  6.67E-08,  avg # of iterations =  3.0

     total cpu time spent up to now is     2210.5 secs

     total energy              =   -1926.27243176 Ry
     estimated scf accuracy    <       0.00085206 Ry

     iteration #  3     ecut=    60.00 Ry     beta= 0.30
     Davidson diagonalization with overlap
     ethr =  6.67E-08,  avg # of iterations =  3.0

     total cpu time spent up to now is     2239.0 secs

     total energy              =   -1926.27247729 Ry
     estimated scf accuracy    <       0.00004797 Ry

     iteration #  4     ecut=    60.00 Ry     beta= 0.30
     Davidson diagonalization with overlap
     ethr =  4.03E-08,  avg # of iterations =  1.7

     total cpu time spent up to now is     2264.1 secs

     total energy              =   -1926.27248036 Ry
     estimated scf accuracy    <       0.00001261 Ry

     iteration #  5     ecut=    60.00 Ry     beta= 0.30
     Davidson diagonalization with overlap
     ethr =  1.06E-08,  avg # of iterations =  2.0

     total cpu time spent up to now is     2287.8 secs

     total energy              =   -1926.27248110 Ry
     estimated scf accuracy    <       0.00000418 Ry

     iteration #  6     ecut=    60.00 Ry     beta= 0.30
     Davidson diagonalization with overlap
     ethr =  3.51E-09,  avg # of iterations =  1.1

     total cpu time spent up to now is     2309.2 secs

     total energy              =   -1926.27248145 Ry
     estimated scf accuracy    <       0.00000105 Ry

     iteration #  7     ecut=    60.00 Ry     beta= 0.30
     Davidson diagonalization with overlap
     ethr =  8.84E-10,  avg # of iterations =  1.8

     total cpu time spent up to now is     2333.1 secs

     total energy              =   -1926.27248152 Ry
     estimated scf accuracy    <       0.00000019 Ry

     iteration #  8     ecut=    60.00 Ry     beta= 0.30
     Davidson diagonalization with overlap
     ethr =  1.63E-10,  avg # of iterations =  2.0

     total cpu time spent up to now is     2357.4 secs

     total energy              =   -1926.27248153 Ry
     estimated scf accuracy    <       0.00000015 Ry

     iteration #  9     ecut=    60.00 Ry     beta= 0.30
     Davidson diagonalization with overlap
     ethr =  1.24E-10,  avg # of iterations =  1.6

     total cpu time spent up to now is     2381.9 secs

     total energy              =   -1926.27248154 Ry
     estimated scf accuracy    <       0.00000001 Ry

     iteration # 10     ecut=    60.00 Ry     beta= 0.30
     Davidson diagonalization with overlap
     ethr =  9.56E-12,  avg # of iterations =  4.2

     total cpu time spent up to now is     2429.6 secs

     total energy              =   -1926.27248156 Ry
     estimated scf accuracy    <          1.1E-09 Ry

     iteration # 11     ecut=    60.00 Ry     beta= 0.30
     Davidson diagonalization with overlap
     ethr =  9.60E-13,  avg # of iterations =  2.0

     total cpu time spent up to now is     2453.5 secs

     total energy              =   -1926.27248156 Ry
     estimated scf accuracy    <          1.8E-09 Ry

     iteration # 12     ecut=    60.00 Ry     beta= 0.30
     Davidson diagonalization with overlap
     ethr =  9.60E-13,  avg # of iterations =  1.5

     total cpu time spent up to now is     2477.4 secs

     total energy              =   -1926.27248156 Ry
     estimated scf accuracy    <          1.4E-10 Ry

     iteration # 13     ecut=    60.00 Ry     beta= 0.30
     Davidson diagonalization with overlap
     ethr =  1.18E-13,  avg # of iterations =  2.0

     total cpu time spent up to now is     2502.3 secs

     End of self-consistent calculation

     Number of k-points >= 100: set verbosity='high' to print the bands.

     the Fermi energy is     6.9331 ev

!    total energy              =   -1926.27248156 Ry
     estimated scf accuracy    <          2.4E-11 Ry
     smearing contrib. (-TS)   =      -0.00035298 Ry
     internal energy E=F+TS    =   -1926.27212857 Ry

     The total energy is F=E-TS. E is the sum of the following terms:
     one-electron contribution =   -1697.36772285 Ry
     hartree contribution      =     883.46082119 Ry
     xc contribution           =    -198.33998297 Ry
     ewald contribution        =    -694.60298686 Ry
     DFT-D3 Dispersion         =      -0.36755889 Ry
     one-center paw contrib.   =    -219.05469820 Ry

     convergence has been achieved in  13 iterations

     Forces acting on atoms (cartesian axes, Ry/au):

     atom    1 type  1   force =    -0.00023869    0.00203087   -0.00039221
     atom    2 type  2   force =    -0.00007379   -0.00027092    0.00077865
     atom    3 type  2   force =    -0.00042138    0.00087330    0.00010915
     atom    4 type  2   force =    -0.00095976    0.00039643   -0.00064184
     atom    5 type  2   force =    -0.00052258    0.00019760    0.00024819
     atom    6 type  2   force =     0.00016367   -0.00063721    0.00016788
     atom    7 type  2   force =     0.00013099    0.00025804    0.00021639
     atom    8 type  2   force =    -0.00016412    0.00049485   -0.00041230
     atom    9 type  3   force =     0.00029997   -0.00025189   -0.00058874
     atom   10 type  3   force =     0.00029876    0.00073254   -0.00072204
     atom   11 type  3   force =     0.00044113    0.00038379   -0.00079892
     atom   12 type  3   force =    -0.00018716   -0.00069646   -0.00035282
     atom   13 type  4   force =    -0.00051540    0.00036284    0.00016400
     atom   14 type  4   force =     0.00030800   -0.00041790    0.00062071
     atom   15 type  4   force =    -0.00054820    0.00015671   -0.00043246
     atom   16 type  4   force =    -0.00016274    0.00007471    0.00044872
     atom   17 type  4   force =    -0.00021029   -0.00067691   -0.00005714
     atom   18 type  4   force =     0.00012596   -0.00057075   -0.00007620
     atom   19 type  4   force =     0.00036156    0.00001526    0.00019334
     atom   20 type  4   force =     0.00047914   -0.00122856    0.00005306
     atom   21 type  4   force =     0.00010882    0.00102142    0.00068795
     atom   22 type  4   force =     0.00055316   -0.00030090    0.00080647
     atom   23 type  4   force =    -0.00021805   -0.00075460   -0.00075799
     atom   24 type  4   force =     0.00178532   -0.00136956   -0.00060073
     atom   25 type  4   force =     0.00015949   -0.00075747    0.00063593
     atom   26 type  4   force =     0.00003984    0.00047859   -0.00007340
     atom   27 type  4   force =    -0.00069827    0.00052454    0.00091191
     atom   28 type  4   force =    -0.00033538   -0.00006833   -0.00013557

     Total force =     0.005375     Total SCF correction =     0.000010


     Computing stress (Cartesian axis) and pressure

          total   stress  (Ry/bohr**3)                   (kbar)     P=        0.64
   0.00000678  -0.00000024  -0.00000491            1.00       -0.04       -0.72
  -0.00000024  -0.00000013   0.00000153           -0.04       -0.02        0.22
  -0.00000491   0.00000153   0.00000643           -0.72        0.22        0.95

     Energy error            =      4.4E-05 Ry
     Gradient error          =      2.0E-03 Ry/Bohr
     Cell gradient error     =      1.0E+00 kbar

     number of scf cycles    =   6
     number of bfgs steps    =   5

     enthalpy           old  =   -1926.2724373955 Ry
     enthalpy           new  =   -1926.2724815556 Ry

     CASE: enthalpy          _new < enthalpy          _old

     new trust radius        =       0.0138716677 bohr
     new conv_thr            =            4.4E-11 Ry

     new unit-cell volume =   1653.84952 a.u.^3 (   245.07521 Ang^3 )
     density =      3.25209 g/cm^3

CELL_PARAMETERS (angstrom)
   7.531681525  -0.016230194  -0.047108985
  -5.047352463   5.794446653   0.167404339
  -2.285901389   1.179238748   5.668029782

ATOMIC_POSITIONS (angstrom)
Co              -4.2000607487        5.3339570752        5.5206313296
Mg              -3.0086313466        4.9087129655        2.6920158354
Mg               3.2679574673        2.0342317355        3.0475930972
Mg               4.4329330250        1.5230907251        0.1725660924
Mg               0.8273613423        6.5763698490        4.4324988125
Mg              -0.5750556630        0.3328707109        1.4180427226
Mg              -0.5998391680        3.8214029457        4.2715652762
Mg               0.6126315990        3.1925549753        1.4260627095
Ni              -1.7362426672        6.1464690735        5.2046585444
Ni              -1.8075041537        2.5278910630        2.2940084343
Ni               2.0461974996        4.3564294775        3.4695466350
Ni               1.9029127377        0.8545078433        0.5665162930
H               -0.4753689263        5.3672067034        5.6678492980
H               -0.3838068719        2.1185567079        2.7669589835
H                0.6291567829        4.8337929060        3.0258240660
H                0.5876065102        1.5044418418        0.1269288027
H                5.0507225240        1.1219592329        2.1252176727
H                3.8310750742        1.8091846972        5.0503005723
H               -3.2101184126        5.0381816548        0.4692053466
H               -4.8805609393        5.7800295429        4.0712713924
H               -3.0949510473        6.1403069329        4.4153317638
H               -2.5825509948        3.3271114347        1.1097476442
H                3.2120780189        3.9531893283        4.5650755479
H                2.9028891498        0.7595994488        1.7188965745
H                0.4892428524        2.4048005070        4.9694055514
H                2.5739814750        3.6911266981        2.1773681255
H               -2.4197484423        3.1995666160        3.5472660251
H               -0.6143192474        4.7468302040        0.7141987557



     Writing config-only to output data dir ./outdir/mg2nih4_co.save/ :
     XML data file
     NEW-OLD atomic charge density approx. for the potential
     New effective cutoffs (rho, wfc):  482.47   60.32

     Check: negative core charge=   -0.000003

     total cpu time spent up to now is     2518.2 secs

     Self-consistent Calculation

     iteration #  1     ecut=    60.00 Ry     beta= 0.30
     Davidson diagonalization with overlap
     ethr =  1.00E-06,  avg # of iterations =  3.0

     Threshold (ethr) on eigenvalues was too large:
     Diagonalizing with lowered threshold

     Davidson diagonalization with overlap
     ethr =  8.86E-08,  avg # of iterations =  1.0

     total cpu time spent up to now is     2572.9 secs

     total energy              =   -1926.27251968 Ry
     estimated scf accuracy    <       0.00010518 Ry

     iteration #  2     ecut=    60.00 Ry     beta= 0.30
     Davidson diagonalization with overlap
     ethr =  8.84E-08,  avg # of iterations =  3.0

     total cpu time spent up to now is     2601.6 secs

     total energy              =   -1926.27248449 Ry
     estimated scf accuracy    <       0.00099199 Ry

     iteration #  3     ecut=    60.00 Ry     beta= 0.30
     Davidson diagonalization with overlap
     ethr =  8.84E-08,  avg # of iterations =  3.0

     total cpu time spent up to now is     2629.5 secs

     total energy              =   -1926.27253908 Ry
     estimated scf accuracy    <       0.00006077 Ry

     iteration #  4     ecut=    60.00 Ry     beta= 0.30
     Davidson diagonalization with overlap
     ethr =  5.11E-08,  avg # of iterations =  1.3

     total cpu time spent up to now is     2651.6 secs

     total energy              =   -1926.27254228 Ry
     estimated scf accuracy    <       0.00001941 Ry

     iteration #  5     ecut=    60.00 Ry     beta= 0.30
     Davidson diagonalization with overlap
     ethr =  1.63E-08,  avg # of iterations =  2.0

     total cpu time spent up to now is     2675.0 secs

     total energy              =   -1926.27254359 Ry
     estimated scf accuracy    <       0.00000300 Ry

     iteration #  6     ecut=    60.00 Ry     beta= 0.30
     Davidson diagonalization with overlap
     ethr =  2.52E-09,  avg # of iterations =  2.0

     total cpu time spent up to now is     2699.3 secs

     total energy              =   -1926.27254375 Ry
     estimated scf accuracy    <       0.00000372 Ry

     iteration #  7     ecut=    60.00 Ry     beta= 0.30
     Davidson diagonalization with overlap
     ethr =  2.52E-09,  avg # of iterations =  1.0

     total cpu time spent up to now is     2718.2 secs

     total energy              =   -1926.27254399 Ry
     estimated scf accuracy    <       0.00000014 Ry

     iteration #  8     ecut=    60.00 Ry     beta= 0.30
     Davidson diagonalization with overlap
     ethr =  1.22E-10,  avg # of iterations =  4.1

     total cpu time spent up to now is     2755.0 secs

     total energy              =   -1926.27254403 Ry
     estimated scf accuracy    <       0.00000023 Ry

     iteration #  9     ecut=    60.00 Ry     beta= 0.30
     Davidson diagonalization with overlap
     ethr =  1.22E-10,  avg # of iterations =  1.4

     total cpu time spent up to now is     2777.8 secs

     total energy              =   -1926.27254405 Ry
     estimated scf accuracy    <       0.00000002 Ry

     iteration # 10     ecut=    60.00 Ry     beta= 0.30
     Davidson diagonalization with overlap
     ethr =  1.99E-11,  avg # of iterations =  2.0

     total cpu time spent up to now is     2802.3 secs

     total energy              =   -1926.27254405 Ry
     estimated scf accuracy    <          4.4E-09 Ry

     iteration # 11     ecut=    60.00 Ry     beta= 0.30
     Davidson diagonalization with overlap
     ethr =  3.68E-12,  avg # of iterations =  2.0

     total cpu time spent up to now is     2826.2 secs

     total energy              =   -1926.27254405 Ry
     estimated scf accuracy    <          2.1E-09 Ry

     iteration # 12     ecut=    60.00 Ry     beta= 0.30
     Davidson diagonalization with overlap
     ethr =  1.76E-12,  avg # of iterations =  1.2

     total cpu time spent up to now is     2846.5 secs

     total energy              =   -1926.27254405 Ry
     estimated scf accuracy    <          4.1E-10 Ry

     iteration # 13     ecut=    60.00 Ry     beta= 0.30
     Davidson diagonalization with overlap
     ethr =  3.41E-13,  avg # of iterations =  2.0

     total cpu time spent up to now is     2870.9 secs

     End of self-consistent calculation

     Number of k-points >= 100: set verbosity='high' to print the bands.

     the Fermi energy is     6.9319 ev

!    total energy              =   -1926.27254405 Ry
     estimated scf accuracy    <          2.7E-11 Ry
     smearing contrib. (-TS)   =      -0.00035661 Ry
     internal energy E=F+TS    =   -1926.27218744 Ry

     The total energy is F=E-TS. E is the sum of the following terms:
     one-electron contribution =   -1697.13727056 Ry
     hartree contribution      =     883.34568618 Ry
     xc contribution           =    -198.33690101 Ry
     ewald contribution        =    -694.72154934 Ry
     DFT-D3 Dispersion         =      -0.36757901 Ry
     one-center paw contrib.   =    -219.05457370 Ry

     convergence has been achieved in  13 iterations

     Forces acting on atoms (cartesian axes, Ry/au):

     atom    1 type  1   force =    -0.00034049    0.00209844   -0.00024651
     atom    2 type  2   force =     0.00001162   -0.00046886    0.00062592
     atom    3 type  2   force =    -0.00035470    0.00111633    0.00020186
     atom    4 type  2   force =    -0.00113558    0.00031855   -0.00066750
     atom    5 type  2   force =    -0.00073277    0.00011053    0.00017391
     atom    6 type  2   force =     0.00036227   -0.00056003    0.00028888
     atom    7 type  2   force =     0.00007847    0.00028121    0.00019937
     atom    8 type  2   force =    -0.00005423    0.00064681   -0.00065411
     atom    9 type  3   force =     0.00015160   -0.00037598   -0.00052907
     atom   10 type  3   force =     0.00027423    0.00064039   -0.00009489
     atom   11 type  3   force =     0.00020516    0.00032576   -0.00081207
     atom   12 type  3   force =    -0.00003788   -0.00069346   -0.00040205
     atom   13 type  4   force =    -0.00053929    0.00033422    0.00006296
     atom   14 type  4   force =     0.00020566   -0.00036385    0.00058951
     atom   15 type  4   force =    -0.00045622   -0.00009312   -0.00026603
     atom   16 type  4   force =    -0.00017464   -0.00001377    0.00041327
     atom   17 type  4   force =     0.00002564   -0.00017338   -0.00008064
     atom   18 type  4   force =     0.00005935   -0.00067428   -0.00025818
     atom   19 type  4   force =     0.00059786   -0.00001202    0.00024591
     atom   20 type  4   force =     0.00071736   -0.00159892    0.00022623
     atom   21 type  4   force =     0.00035783    0.00105741    0.00074191
     atom   22 type  4   force =     0.00036396   -0.00019052    0.00066961
     atom   23 type  4   force =    -0.00026764   -0.00001199   -0.00070239
     atom   24 type  4   force =     0.00143307   -0.00160285   -0.00086536
     atom   25 type  4   force =     0.00017494   -0.00072256    0.00075774
     atom   26 type  4   force =    -0.00007910    0.00061721    0.00027626
     atom   27 type  4   force =    -0.00027405    0.00021363    0.00047467
     atom   28 type  4   force =    -0.00057242   -0.00020491   -0.00036923

     Total force =     0.005406     Total SCF correction =     0.000011


     Computing stress (Cartesian axis) and pressure

          total   stress  (Ry/bohr**3)                   (kbar)     P=        0.29
   0.00000450  -0.00000081  -0.00000450            0.66       -0.12       -0.66
  -0.00000081  -0.00000211   0.00000146           -0.12       -0.31        0.21
  -0.00000450   0.00000146   0.00000357           -0.66        0.21        0.53

     Energy error            =      6.2E-05 Ry
     Gradient error          =      2.1E-03 Ry/Bohr
     Cell gradient error     =      6.6E-01 kbar

     number of scf cycles    =   7
     number of bfgs steps    =   6

     enthalpy           old  =   -1926.2724815556 Ry
     enthalpy           new  =   -1926.2725440511 Ry

     CASE: enthalpy          _new < enthalpy          _old

     new trust radius        =       0.0208079680 bohr
     new conv_thr            =            6.2E-11 Ry

     new unit-cell volume =   1653.94195 a.u.^3 (   245.08891 Ang^3 )
     density =      3.25191 g/cm^3

CELL_PARAMETERS (angstrom)
   7.533060877  -0.014292572  -0.051857410
  -5.046909669   5.791091712   0.168590417
  -2.289582829   1.176244156   5.670326430

ATOMIC_POSITIONS (angstrom)
Co              -4.2025335748        5.3296566207        5.5206739908
Mg              -3.0106222272        4.9078288027        2.6978120099
Mg               3.2656199394        2.0331951352        3.0437223223
Mg               4.4333215300        1.5259925251        0.1676967896
Mg               0.8264483222        6.5740407040        4.4311118349
Mg              -0.5772706467        0.3303424382        1.4178130524
Mg              -0.5997711829        3.8184221905        4.2724022055
Mg               0.6097899498        3.1910130703        1.4257616177
Ni              -1.7386717554        6.1422060145        5.2032236512
Ni              -1.8094573415        2.5254683522        2.2955945956
Ni               2.0461738025        4.3545486180        3.4646026717
Ni               1.9037189875        0.8535836048        0.5679742923
H               -0.4785539495        5.3640716138        5.6695433445
H               -0.3854499512        2.1157096777        2.7690213423
H                0.6281991651        4.8328480219        3.0220958699
H                0.5883366543        1.5045832699        0.1292388846
H                5.0500581977        1.1198165252        2.1221863550
H                3.8302279108        1.8073810571        5.0495678897
H               -3.2107995366        5.0344209699        0.4695125037
H               -4.8832869414        5.7763280888        4.0709361494
H               -3.1000466578        6.1410957295        4.4181807049
H               -2.5782478293        3.3256350729        1.1114192047
H                3.2092610300        3.9456366346        4.5600846714
H                2.9121003945        0.7551049065        1.7139499142
H                0.4847299945        2.3981909487        4.9714117579
H                2.5749277152        3.6917794758        2.1709256124
H               -2.4245339932        3.1975890596        3.5499841647
H               -0.6117106927        4.7461170308        0.7123847004



     Writing config-only to output data dir ./outdir/mg2nih4_co.save/ :
     XML data file
     NEW-OLD atomic charge density approx. for the potential
     New effective cutoffs (rho, wfc):  482.82   60.37

     Check: negative core charge=   -0.000003

     total cpu time spent up to now is     2886.6 secs

     Self-consistent Calculation

     iteration #  1     ecut=    60.00 Ry     beta= 0.30
     Davidson diagonalization with overlap
     ethr =  1.00E-06,  avg # of iterations =  3.0

     total cpu time spent up to now is     2924.4 secs

     total energy              =   -1926.27258594 Ry
     estimated scf accuracy    <       0.00017646 Ry

     iteration #  2     ecut=    60.00 Ry     beta= 0.30
     Davidson diagonalization with overlap
     ethr =  1.48E-07,  avg # of iterations =  3.0

     total cpu time spent up to now is     2953.0 secs

     total energy              =   -1926.27253594 Ry
     estimated scf accuracy    <       0.00130598 Ry

     iteration #  3     ecut=    60.00 Ry     beta= 0.30
     Davidson diagonalization with overlap
     ethr =  1.48E-07,  avg # of iterations =  3.0

     total cpu time spent up to now is     2980.8 secs

     total energy              =   -1926.27261232 Ry
     estimated scf accuracy    <       0.00012778 Ry

     iteration #  4     ecut=    60.00 Ry     beta= 0.30
     Davidson diagonalization with overlap
     ethr =  1.07E-07,  avg # of iterations =  1.0

     total cpu time spent up to now is     2999.7 secs

     total energy              =   -1926.27261811 Ry
     estimated scf accuracy    <       0.00003434 Ry

     iteration #  5     ecut=    60.00 Ry     beta= 0.30
     Davidson diagonalization with overlap
     ethr =  2.89E-08,  avg # of iterations =  1.9

     total cpu time spent up to now is     3024.6 secs

     total energy              =   -1926.27262069 Ry
     estimated scf accuracy    <       0.00000360 Ry

     iteration #  6     ecut=    60.00 Ry     beta= 0.30
     Davidson diagonalization with overlap
     ethr =  3.02E-09,  avg # of iterations =  2.0

     total cpu time spent up to now is     3049.3 secs

     total energy              =   -1926.27262054 Ry
     estimated scf accuracy    <       0.00000953 Ry

     iteration #  7     ecut=    60.00 Ry     beta= 0.30
     Davidson diagonalization with overlap
     ethr =  3.02E-09,  avg # of iterations =  2.0

     total cpu time spent up to now is     3072.8 secs

     total energy              =   -1926.27262123 Ry
     estimated scf accuracy    <       0.00000032 Ry

     iteration #  8     ecut=    60.00 Ry     beta= 0.30
     Davidson diagonalization with overlap
     ethr =  2.67E-10,  avg # of iterations =  2.6

     total cpu time spent up to now is     3102.9 secs

     total energy              =   -1926.27262129 Ry
     estimated scf accuracy    <       0.00000008 Ry

     iteration #  9     ecut=    60.00 Ry     beta= 0.30
     Davidson diagonalization with overlap
     ethr =  6.69E-11,  avg # of iterations =  4.7

     total cpu time spent up to now is     3148.1 secs

     total energy              =   -1926.27262131 Ry
     estimated scf accuracy    <       0.00000009 Ry

     iteration # 10     ecut=    60.00 Ry     beta= 0.30
     Davidson diagonalization with overlap
     ethr =  6.69E-11,  avg # of iterations =  1.0

     total cpu time spent up to now is     3167.0 secs

     total energy              =   -1926.27262132 Ry
     estimated scf accuracy    <          3.0E-09 Ry

     iteration # 11     ecut=    60.00 Ry     beta= 0.30
     Davidson diagonalization with overlap
     ethr =  2.55E-12,  avg # of iterations =  2.9

     total cpu time spent up to now is     3197.6 secs

     total energy              =   -1926.27262132 Ry
     estimated scf accuracy    <          1.7E-09 Ry

     iteration # 12     ecut=    60.00 Ry     beta= 0.30
     Davidson diagonalization with overlap
     ethr =  1.41E-12,  avg # of iterations =  1.3

     total cpu time spent up to now is     3219.2 secs

     total energy              =   -1926.27262132 Ry
     estimated scf accuracy    <          8.5E-10 Ry

     iteration # 13     ecut=    60.00 Ry     beta= 0.30
     Davidson diagonalization with overlap
     ethr =  7.14E-13,  avg # of iterations =  1.0

     total cpu time spent up to now is     3238.4 secs

     total energy              =   -1926.27262132 Ry
     estimated scf accuracy    <          8.0E-11 Ry

     iteration # 14     ecut=    60.00 Ry     beta= 0.30
     Davidson diagonalization with overlap
     ethr =  1.00E-13,  avg # of iterations =  1.6

     total cpu time spent up to now is     3262.0 secs

     End of self-consistent calculation

     Number of k-points >= 100: set verbosity='high' to print the bands.

     the Fermi energy is     6.9297 ev

!    total energy              =   -1926.27262132 Ry
     estimated scf accuracy    <          4.8E-12 Ry
     smearing contrib. (-TS)   =      -0.00036061 Ry
     internal energy E=F+TS    =   -1926.27226071 Ry

     The total energy is F=E-TS. E is the sum of the following terms:
     one-electron contribution =   -1696.94566073 Ry
     hartree contribution      =     883.24443666 Ry
     xc contribution           =    -198.33233133 Ry
     ewald contribution        =    -694.81687266 Ry
     DFT-D3 Dispersion         =      -0.36756496 Ry
     one-center paw contrib.   =    -219.05426768 Ry

     convergence has been achieved in  14 iterations

     Forces acting on atoms (cartesian axes, Ry/au):

     atom    1 type  1   force =    -0.00040575    0.00156344    0.00004341
     atom    2 type  2   force =     0.00013074   -0.00055053    0.00040556
     atom    3 type  2   force =    -0.00022629    0.00114437    0.00015210
     atom    4 type  2   force =    -0.00108042    0.00020810   -0.00055339
     atom    5 type  2   force =    -0.00086854   -0.00003358    0.00000126
     atom    6 type  2   force =     0.00055037   -0.00029581    0.00039177
     atom    7 type  2   force =     0.00007029    0.00021161    0.00015059
     atom    8 type  2   force =    -0.00000645    0.00068381   -0.00081350
     atom    9 type  3   force =    -0.00012830   -0.00046411   -0.00034374
     atom   10 type  3   force =     0.00018786    0.00030665    0.00083742
     atom   11 type  3   force =    -0.00027136    0.00010615   -0.00059878
     atom   12 type  3   force =     0.00017316   -0.00048560   -0.00021647
     atom   13 type  4   force =    -0.00043090    0.00020385   -0.00003705
     atom   14 type  4   force =     0.00001707   -0.00021341    0.00046610
     atom   15 type  4   force =    -0.00024832   -0.00042351   -0.00001742
     atom   16 type  4   force =    -0.00012297   -0.00016152    0.00037341
     atom   17 type  4   force =     0.00036955    0.00058494   -0.00012024
     atom   18 type  4   force =    -0.00001745   -0.00063504   -0.00045861
     atom   19 type  4   force =     0.00076066   -0.00012780    0.00025849
     atom   20 type  4   force =     0.00088537   -0.00165745    0.00034774
     atom   21 type  4   force =     0.00046181    0.00108740    0.00065369
     atom   22 type  4   force =     0.00014215    0.00009576    0.00028381
     atom   23 type  4   force =    -0.00033111    0.00107300   -0.00050934
     atom   24 type  4   force =     0.00089655   -0.00174614   -0.00113080
     atom   25 type  4   force =     0.00004677   -0.00062707    0.00076622
     atom   26 type  4   force =    -0.00019319    0.00076433    0.00053696
     atom   27 type  4   force =     0.00036629   -0.00029787   -0.00019642
     atom   28 type  4   force =    -0.00072760   -0.00031397   -0.00067277

     Total force =     0.005347     Total SCF correction =     0.000013


     Computing stress (Cartesian axis) and pressure

          total   stress  (Ry/bohr**3)                   (kbar)     P=       -0.20
   0.00000068  -0.00000126  -0.00000291            0.10       -0.19       -0.43
  -0.00000126  -0.00000383   0.00000059           -0.19       -0.56        0.09
  -0.00000291   0.00000059  -0.00000086           -0.43        0.09       -0.13

     Energy error            =      7.7E-05 Ry
     Gradient error          =      1.7E-03 Ry/Bohr
     Cell gradient error     =      5.6E-01 kbar

     number of scf cycles    =   8
     number of bfgs steps    =   7

     enthalpy           old  =   -1926.2725440511 Ry
     enthalpy           new  =   -1926.2726213210 Ry

     CASE: enthalpy          _new < enthalpy          _old

     new trust radius        =       0.0242346040 bohr
     new conv_thr            =            7.7E-11 Ry

     new unit-cell volume =   1654.04044 a.u.^3 (   245.10351 Ang^3 )
     density =      3.25172 g/cm^3

CELL_PARAMETERS (angstrom)
   7.535104598  -0.012670146  -0.057618066
  -5.047177907   5.787291967   0.170602606
  -2.294274199   1.173346971   5.673141259

ATOMIC_POSITIONS (angstrom)
Co              -4.2066671750        5.3264303775        5.5215709075
Mg              -3.0133695464        4.9061599335        2.7046821157
Mg               3.2628296988        2.0327966611        3.0396327516
Mg               4.4331063580        1.5287734743        0.1617817041
Mg               0.8240213648        6.5710345124        4.4299478264
Mg              -0.5793200945        0.3275403598        1.4180274827
Mg              -0.6003906179        3.8153102257        4.2736971052
Mg               0.6066015869        3.1896725384        1.4248673142
Ni              -1.7422646477        6.1370676497        5.2019988017
Ni              -1.8117944055        2.5231993522        2.2980396016
Ni               2.0455164671        4.3522800571        3.4590799069
Ni               1.9046548616        0.8520627935        0.5690688392
H               -0.4831520580        5.3606723122        5.6716362209
H               -0.3875245912        2.1124797670        2.7717326839
H                0.6264060219        4.8311159690        3.0184048929
H                0.5889276113        1.5044101965        0.1318866751
H                5.0497393556        1.1177047435        2.1184661344
H                3.8289765473        1.8048034535        5.0481829944
H               -3.2114492511        5.0301119150        0.4706055107
H               -4.8865195380        5.7709274971        4.0717680999
H               -3.1059835419        6.1424319471        4.4223073828
H               -2.5742301491        3.3239694059        1.1138609359
H                3.2056580165        3.9382974704        4.5544118485
H                2.9223352481        0.7489266803        1.7077494392
H                0.4795021545        2.3907980074        4.9742260718
H                2.5755387838        3.6926101399        2.1646009997
H               -2.4300003108        3.1952930519        3.5532598282
H               -0.6100132581        4.7446826051        0.7102671004



     Writing config-only to output data dir ./outdir/mg2nih4_co.save/ :
     XML data file
     NEW-OLD atomic charge density approx. for the potential
     New effective cutoffs (rho, wfc):  483.33   60.43

     Check: negative core charge=   -0.000003

     total cpu time spent up to now is     3277.8 secs

     Self-consistent Calculation

     iteration #  1     ecut=    60.00 Ry     beta= 0.30
     Davidson diagonalization with overlap
     ethr =  1.00E-06,  avg # of iterations =  3.1

     total cpu time spent up to now is     3316.6 secs

     total energy              =   -1926.27265467 Ry
     estimated scf accuracy    <       0.00019869 Ry

     iteration #  2     ecut=    60.00 Ry     beta= 0.30
     Davidson diagonalization with overlap
     ethr =  1.67E-07,  avg # of iterations =  3.0

     total cpu time spent up to now is     3345.1 secs

     total energy              =   -1926.27260851 Ry
     estimated scf accuracy    <       0.00106932 Ry

     iteration #  3     ecut=    60.00 Ry     beta= 0.30
     Davidson diagonalization with overlap
     ethr =  1.67E-07,  avg # of iterations =  3.0

     total cpu time spent up to now is     3372.9 secs

     total energy              =   -1926.27267549 Ry
     estimated scf accuracy    <       0.00020469 Ry

     iteration #  4     ecut=    60.00 Ry     beta= 0.30
     Davidson diagonalization with overlap
     ethr =  1.67E-07,  avg # of iterations =  1.0

     total cpu time spent up to now is     3391.8 secs

     total energy              =   -1926.27268419 Ry
     estimated scf accuracy    <       0.00004488 Ry

     iteration #  5     ecut=    60.00 Ry     beta= 0.30
     Davidson diagonalization with overlap
     ethr =  3.77E-08,  avg # of iterations =  2.0

     total cpu time spent up to now is     3416.1 secs

     total energy              =   -1926.27268761 Ry
     estimated scf accuracy    <       0.00000535 Ry

     iteration #  6     ecut=    60.00 Ry     beta= 0.30
     Davidson diagonalization with overlap
     ethr =  4.50E-09,  avg # of iterations =  2.0

     total cpu time spent up to now is     3440.4 secs

     total energy              =   -1926.27268766 Ry
     estimated scf accuracy    <       0.00001071 Ry

     iteration #  7     ecut=    60.00 Ry     beta= 0.30
     Davidson diagonalization with overlap
     ethr =  4.50E-09,  avg # of iterations =  2.0

     total cpu time spent up to now is     3463.8 secs

     total energy              =   -1926.27268842 Ry
     estimated scf accuracy    <       0.00000030 Ry

     iteration #  8     ecut=    60.00 Ry     beta= 0.30
     Davidson diagonalization with overlap
     ethr =  2.56E-10,  avg # of iterations =  4.0

     total cpu time spent up to now is     3500.8 secs

     total energy              =   -1926.27268852 Ry
     estimated scf accuracy    <       0.00000031 Ry

     iteration #  9     ecut=    60.00 Ry     beta= 0.30
     Davidson diagonalization with overlap
     ethr =  2.56E-10,  avg # of iterations =  1.0

     total cpu time spent up to now is     3519.6 secs

     total energy              =   -1926.27268853 Ry
     estimated scf accuracy    <       0.00000006 Ry

     iteration # 10     ecut=    60.00 Ry     beta= 0.30
     Davidson diagonalization with overlap
     ethr =  5.29E-11,  avg # of iterations =  2.0

     total cpu time spent up to now is     3543.1 secs

     total energy              =   -1926.27268854 Ry
     estimated scf accuracy    <          5.8E-09 Ry

     iteration # 11     ecut=    60.00 Ry     beta= 0.30
     Davidson diagonalization with overlap
     ethr =  4.89E-12,  avg # of iterations =  2.0

     total cpu time spent up to now is     3566.6 secs

     total energy              =   -1926.27268854 Ry
     estimated scf accuracy    <          4.3E-09 Ry

     iteration # 12     ecut=    60.00 Ry     beta= 0.30
     Davidson diagonalization with overlap
     ethr =  3.62E-12,  avg # of iterations =  1.2

     total cpu time spent up to now is     3587.7 secs

     total energy              =   -1926.27268854 Ry
     estimated scf accuracy    <          8.5E-10 Ry

     iteration # 13     ecut=    60.00 Ry     beta= 0.30
     Davidson diagonalization with overlap
     ethr =  7.16E-13,  avg # of iterations =  1.9

     total cpu time spent up to now is     3611.6 secs

     End of self-consistent calculation

     Number of k-points >= 100: set verbosity='high' to print the bands.

     the Fermi energy is     6.9280 ev

!    total energy              =   -1926.27268854 Ry
     estimated scf accuracy    <          6.8E-11 Ry
     smearing contrib. (-TS)   =      -0.00036315 Ry
     internal energy E=F+TS    =   -1926.27232539 Ry

     The total energy is F=E-TS. E is the sum of the following terms:
     one-electron contribution =   -1696.83234841 Ry
     hartree contribution      =     883.18001985 Ry
     xc contribution           =    -198.32842732 Ry
     ewald contribution        =    -694.87012753 Ry
     DFT-D3 Dispersion         =      -0.36754832 Ry
     one-center paw contrib.   =    -219.05389367 Ry

     convergence has been achieved in  13 iterations

     Forces acting on atoms (cartesian axes, Ry/au):

     atom    1 type  1   force =    -0.00037232    0.00044526    0.00039663
     atom    2 type  2   force =     0.00025005   -0.00044333    0.00017876
     atom    3 type  2   force =    -0.00008703    0.00080637   -0.00011305
     atom    4 type  2   force =    -0.00067630    0.00010777   -0.00027737
     atom    5 type  2   force =    -0.00081539   -0.00020504   -0.00022328
     atom    6 type  2   force =     0.00063770    0.00013334    0.00043137
     atom    7 type  2   force =     0.00012927    0.00001901    0.00008139
     atom    8 type  2   force =    -0.00007548    0.00052414   -0.00076181
     atom    9 type  3   force =    -0.00042205   -0.00043163   -0.00007594
     atom   10 type  3   force =     0.00010541   -0.00015279    0.00154840
     atom   11 type  3   force =    -0.00084321   -0.00023326   -0.00008830
     atom   12 type  3   force =     0.00031566   -0.00008672    0.00020664
     atom   13 type  4   force =    -0.00018638   -0.00001284   -0.00010114
     atom   14 type  4   force =    -0.00015009    0.00000337    0.00027137
     atom   15 type  4   force =    -0.00003505   -0.00070856    0.00022351
     atom   16 type  4   force =    -0.00000523   -0.00033991    0.00032726
     atom   17 type  4   force =     0.00066130    0.00126882   -0.00018620
     atom   18 type  4   force =    -0.00008356   -0.00040697   -0.00060461
     atom   19 type  4   force =     0.00072386   -0.00030113    0.00020669
     atom   20 type  4   force =     0.00086413   -0.00121862    0.00034456
     atom   21 type  4   force =     0.00028551    0.00109092    0.00037358
     atom   22 type  4   force =    -0.00003337    0.00045838   -0.00022168
     atom   23 type  4   force =    -0.00036443    0.00211017   -0.00019679
     atom   24 type  4   force =     0.00036103   -0.00167138   -0.00118931
     atom   25 type  4   force =    -0.00021544   -0.00046698    0.00055942
     atom   26 type  4   force =    -0.00023533    0.00084708    0.00053058
     atom   27 type  4   force =     0.00096741   -0.00080045   -0.00074982
     atom   28 type  4   force =    -0.00070068   -0.00033502   -0.00089086

     Total force =     0.005507     Total SCF correction =     0.000018


     Computing stress (Cartesian axis) and pressure

          total   stress  (Ry/bohr**3)                   (kbar)     P=       -0.59
  -0.00000316  -0.00000127  -0.00000040           -0.47       -0.19       -0.06
  -0.00000127  -0.00000393  -0.00000084           -0.19       -0.58       -0.12
  -0.00000040  -0.00000084  -0.00000503           -0.06       -0.12       -0.74

     Energy error            =      6.7E-05 Ry
     Gradient error          =      2.1E-03 Ry/Bohr
     Cell gradient error     =      7.4E-01 kbar

     number of scf cycles    =   9
     number of bfgs steps    =   8

     enthalpy           old  =   -1926.2726213210 Ry
     enthalpy           new  =   -1926.2726885414 Ry

     CASE: enthalpy          _new < enthalpy          _old

     new trust radius        =       0.0172919651 bohr
     new conv_thr            =            6.7E-11 Ry

     new unit-cell volume =   1653.89195 a.u.^3 (   245.08150 Ang^3 )
     density =      3.25201 g/cm^3

CELL_PARAMETERS (angstrom)
   7.536434581  -0.012053928  -0.061518916
  -5.047693284   5.784750864   0.172103310
  -2.297512297   1.171617003   5.674676524

ATOMIC_POSITIONS (angstrom)
Co              -4.2101131151        5.3250372402        5.5223042591
Mg              -3.0152788860        4.9044497600        2.7090780724
Mg               3.2607696135        2.0329796439        3.0367803510
Mg               4.4322814128        1.5302355939        0.1576508936
Mg               0.8213056472        6.5684970106        4.4288799498
Mg              -0.5801487271        0.3258381625        1.4184806159
Mg              -0.6011129809        3.8132094494        4.2743880994
Mg               0.6044104984        3.1890394572        1.4235891617
Ni              -1.7452199645        6.1331773006        5.2009257000
Ni              -1.8132757053        2.5218200288        2.3002154802
Ni               2.0442519895        4.3503655360        3.4553266318
Ni               1.9052656345        0.8507783924        0.5695829665
H               -0.4867441709        5.3582511587        5.6725695353
H               -0.3890171771        2.1102839983        2.7735651903
H                0.6247234076        4.8291569861        3.0160782691
H                0.5891535397        1.5039103122        0.1337129191
H                5.0498219476        1.1167935304        2.1156639277
H                3.8278446530        1.8025188663        5.0464035454
H               -3.2115526704        5.0270531646        0.4716220532
H               -4.8883122762        5.7662785807        4.0726453824
H               -3.1098921748        6.1437731048        4.4251050408
H               -2.5720449645        3.3230208416        1.1154713711
H                3.2028178524        3.9347637375        4.5503047572
H                2.9289481935        0.7436076525        1.7029100412
H                0.4758910024        2.3857008389        4.9761101648
H                2.5754845445        3.6933238319        2.1609188575
H               -2.4331724320        3.1933590790        3.5549826545
H               -0.6098786811        4.7431718983        0.7083869549



     Writing config-only to output data dir ./outdir/mg2nih4_co.save/ :
     XML data file
     NEW-OLD atomic charge density approx. for the potential
     New effective cutoffs (rho, wfc):  483.71   60.48

     Check: negative core charge=   -0.000003

     total cpu time spent up to now is     3627.2 secs

     Self-consistent Calculation

     iteration #  1     ecut=    60.00 Ry     beta= 0.30
     Davidson diagonalization with overlap
     ethr =  1.00E-06,  avg # of iterations =  3.0

     Threshold (ethr) on eigenvalues was too large:
     Diagonalizing with lowered threshold

     Davidson diagonalization with overlap
     ethr =  7.44E-08,  avg # of iterations =  1.1

     total cpu time spent up to now is     3682.4 secs

     total energy              =   -1926.27272492 Ry
     estimated scf accuracy    <       0.00008839 Ry

     iteration #  2     ecut=    60.00 Ry     beta= 0.30
     Davidson diagonalization with overlap
     ethr =  7.43E-08,  avg # of iterations =  2.6

     total cpu time spent up to now is     3712.0 secs

     total energy              =   -1926.27270915 Ry
     estimated scf accuracy    <       0.00030855 Ry

     iteration #  3     ecut=    60.00 Ry     beta= 0.30
     Davidson diagonalization with overlap
     ethr =  7.43E-08,  avg # of iterations =  3.0

     total cpu time spent up to now is     3739.9 secs

     total energy              =   -1926.27272884 Ry
     estimated scf accuracy    <       0.00014148 Ry

     iteration #  4     ecut=    60.00 Ry     beta= 0.30
     Davidson diagonalization with overlap
     ethr =  7.43E-08,  avg # of iterations =  1.0

     total cpu time spent up to now is     3759.1 secs

     total energy              =   -1926.27273514 Ry
     estimated scf accuracy    <       0.00002635 Ry

     iteration #  5     ecut=    60.00 Ry     beta= 0.30
     Davidson diagonalization with overlap
     ethr =  2.21E-08,  avg # of iterations =  2.0

     total cpu time spent up to now is     3782.7 secs

     total energy              =   -1926.27273713 Ry
     estimated scf accuracy    <       0.00000317 Ry

     iteration #  6     ecut=    60.00 Ry     beta= 0.30
     Davidson diagonalization with overlap
     ethr =  2.66E-09,  avg # of iterations =  2.0

     total cpu time spent up to now is     3806.9 secs

     total energy              =   -1926.27273732 Ry
     estimated scf accuracy    <       0.00000391 Ry

     iteration #  7     ecut=    60.00 Ry     beta= 0.30
     Davidson diagonalization with overlap
     ethr =  2.66E-09,  avg # of iterations =  1.0

     total cpu time spent up to now is     3825.8 secs

     total energy              =   -1926.27273759 Ry
     estimated scf accuracy    <       0.00000014 Ry

     iteration #  8     ecut=    60.00 Ry     beta= 0.30
     Davidson diagonalization with overlap
     ethr =  1.20E-10,  avg # of iterations =  4.0

     total cpu time spent up to now is     3862.4 secs

     total energy              =   -1926.27273763 Ry
     estimated scf accuracy    <       0.00000015 Ry

     iteration #  9     ecut=    60.00 Ry     beta= 0.30
     Davidson diagonalization with overlap
     ethr =  1.20E-10,  avg # of iterations =  1.0

     total cpu time spent up to now is     3881.2 secs

     total energy              =   -1926.27273764 Ry
     estimated scf accuracy    <       0.00000003 Ry

     iteration # 10     ecut=    60.00 Ry     beta= 0.30
     Davidson diagonalization with overlap
     ethr =  2.91E-11,  avg # of iterations =  2.0

     total cpu time spent up to now is     3904.6 secs

     total energy              =   -1926.27273764 Ry
     estimated scf accuracy    <          3.3E-09 Ry

     iteration # 11     ecut=    60.00 Ry     beta= 0.30
     Davidson diagonalization with overlap
     ethr =  2.74E-12,  avg # of iterations =  2.0

     total cpu time spent up to now is     3929.0 secs

     total energy              =   -1926.27273764 Ry
     estimated scf accuracy    <          5.9E-09 Ry

     iteration # 12     ecut=    60.00 Ry     beta= 0.30
     Davidson diagonalization with overlap
     ethr =  2.74E-12,  avg # of iterations =  1.7

     total cpu time spent up to now is     3953.2 secs

     total energy              =   -1926.27273764 Ry
     estimated scf accuracy    <          5.4E-10 Ry

     iteration # 13     ecut=    60.00 Ry     beta= 0.30
     Davidson diagonalization with overlap
     ethr =  4.54E-13,  avg # of iterations =  2.0

     total cpu time spent up to now is     3977.1 secs

     total energy              =   -1926.27273764 Ry
     estimated scf accuracy    <          7.2E-11 Ry

     iteration # 14     ecut=    60.00 Ry     beta= 0.30
     Davidson diagonalization with overlap
     ethr =  1.00E-13,  avg # of iterations =  1.0

     total cpu time spent up to now is     3995.9 secs

     End of self-consistent calculation

     Number of k-points >= 100: set verbosity='high' to print the bands.

     the Fermi energy is     6.9288 ev

!    total energy              =   -1926.27273764 Ry
     estimated scf accuracy    <          5.3E-12 Ry
     smearing contrib. (-TS)   =      -0.00036281 Ry
     internal energy E=F+TS    =   -1926.27237484 Ry

     The total energy is F=E-TS. E is the sum of the following terms:
     one-electron contribution =   -1696.77955666 Ry
     hartree contribution      =     883.15173583 Ry
     xc contribution           =    -198.32800928 Ry
     ewald contribution        =    -694.89525081 Ry
     DFT-D3 Dispersion         =      -0.36758081 Ry
     one-center paw contrib.   =    -219.05371311 Ry

     convergence has been achieved in  14 iterations

     Forces acting on atoms (cartesian axes, Ry/au):

     atom    1 type  1   force =    -0.00026625   -0.00049754    0.00058084
     atom    2 type  2   force =     0.00030129   -0.00025842    0.00006979
     atom    3 type  2   force =    -0.00004000    0.00030516   -0.00043786
     atom    4 type  2   force =    -0.00015868    0.00007424   -0.00001336
     atom    5 type  2   force =    -0.00060652   -0.00031363   -0.00034616
     atom    6 type  2   force =     0.00058778    0.00046874    0.00040778
     atom    7 type  2   force =     0.00021111   -0.00019377    0.00004276
     atom    8 type  2   force =    -0.00020517    0.00027432   -0.00053653
     atom    9 type  3   force =    -0.00049876   -0.00028345    0.00007720
     atom   10 type  3   force =     0.00011654   -0.00037188    0.00143302
     atom   11 type  3   force =    -0.00112837   -0.00045484    0.00041961
     atom   12 type  3   force =     0.00026233    0.00022578    0.00055776
     atom   13 type  4   force =     0.00002576   -0.00017737   -0.00011144
     atom   14 type  4   force =    -0.00014709    0.00015360    0.00012808
     atom   15 type  4   force =    -0.00000829   -0.00078432    0.00031355
     atom   16 type  4   force =     0.00009030   -0.00045177    0.00027779
     atom   17 type  4   force =     0.00069270    0.00140580   -0.00025821
     atom   18 type  4   force =    -0.00011524   -0.00014599   -0.00063303
     atom   19 type  4   force =     0.00050933   -0.00039609    0.00013373
     atom   20 type  4   force =     0.00067310   -0.00058112    0.00023808
     atom   21 type  4   force =    -0.00005553    0.00105942    0.00006358
     atom   22 type  4   force =    -0.00007914    0.00062735   -0.00046528
     atom   23 type  4   force =    -0.00032031    0.00246848    0.00007460
     atom   24 type  4   force =     0.00016172   -0.00142918   -0.00094921
     atom   25 type  4   force =    -0.00042921   -0.00032146    0.00024414
     atom   26 type  4   force =    -0.00018267    0.00082069    0.00029438
     atom   27 type  4   force =     0.00114246   -0.00095397   -0.00075433
     atom   28 type  4   force =    -0.00053320   -0.00026878   -0.00085130

     Total force =     0.005370     Total SCF correction =     0.000006


     Computing stress (Cartesian axis) and pressure

          total   stress  (Ry/bohr**3)                   (kbar)     P=       -0.56
  -0.00000403  -0.00000082   0.00000140           -0.59       -0.12        0.21
  -0.00000082  -0.00000170  -0.00000174           -0.12       -0.25       -0.26
   0.00000140  -0.00000174  -0.00000575            0.21       -0.26       -0.85

     Energy error            =      4.9E-05 Ry
     Gradient error          =      2.5E-03 Ry/Bohr
     Cell gradient error     =      8.5E-01 kbar

     number of scf cycles    =  10
     number of bfgs steps    =   9

     enthalpy           old  =   -1926.2726885414 Ry
     enthalpy           new  =   -1926.2727376439 Ry

     CASE: enthalpy          _new < enthalpy          _old

     new trust radius        =       0.0190240505 bohr
     new conv_thr            =            4.9E-11 Ry

     new unit-cell volume =   1653.46921 a.u.^3 (   245.01886 Ang^3 )
     density =      3.25284 g/cm^3

CELL_PARAMETERS (angstrom)
   7.537396061  -0.011752685  -0.065126754
  -5.048196154   5.782408717   0.173225563
  -2.300472211   1.169822415   5.675438200

ATOMIC_POSITIONS (angstrom)
Co              -4.2136367050        5.3236264020        5.5225681903
Mg              -3.0168745105        4.9024065282        2.7128677277
Mg               3.2585276316        2.0333008337        3.0333745286
Mg               4.4309522361        1.5315298201        0.1535863170
Mg               0.8178912704        6.5655142378        4.4269117435
Mg              -0.5803641985        0.3244620180        1.4191275605
Mg              -0.6016999360        3.8108910991        4.2744903358
Mg               0.6020510883        3.1886258204        1.4215679507
Ni              -1.7484088072        6.1289456058        5.1990226960
Ni              -1.8144567921        2.5203629491        2.3027070060
Ni               2.0420282901        4.3479624108        3.4515177990
Ni               1.9058349984        0.8494867757        0.5702955586
H               -0.4903455426        5.3555674372        5.6725267231
H               -0.3904562851        2.1081039424        2.7751382222
H                0.6227695871        4.8264406429        3.0135485468
H                0.5893086355        1.5030086922        0.1356409313
H                5.0501735213        1.1165927837        2.1125402175
H                3.8265234175        1.7997486862        5.0435737545
H               -3.2112027334        5.0238581728        0.4724584218
H               -4.8893189004        5.7610292202        4.0730003079
H               -3.1136428268        6.1458702255        4.4271375673
H               -2.5700048895        3.3225122113        1.1165392737
H                3.1996422979        3.9329482954        4.5457252734
H                2.9355072967        0.7369902358        1.6973557515
H                0.4721478670        2.3802597471        4.9775376848
H                2.5750787128        3.6944710528        2.1573324492
H               -2.4353897639        3.1907978547        3.5557646802
H               -0.6104472103        4.7413845627        0.7056608962



     Writing config-only to output data dir ./outdir/mg2nih4_co.save/ :
     XML data file
     NEW-OLD atomic charge density approx. for the potential
     New effective cutoffs (rho, wfc):  484.14   60.54

     Check: negative core charge=   -0.000003

     total cpu time spent up to now is     4011.6 secs

     Self-consistent Calculation

     iteration #  1     ecut=    60.00 Ry     beta= 0.30
     Davidson diagonalization with overlap
     ethr =  1.00E-06,  avg # of iterations =  3.0

     Threshold (ethr) on eigenvalues was too large:
     Diagonalizing with lowered threshold

     Davidson diagonalization with overlap
     ethr =  8.33E-08,  avg # of iterations =  1.1

     total cpu time spent up to now is     4067.6 secs

     total energy              =   -1926.27277999 Ry
     estimated scf accuracy    <       0.00009908 Ry

     iteration #  2     ecut=    60.00 Ry     beta= 0.30
     Davidson diagonalization with overlap
     ethr =  8.33E-08,  avg # of iterations =  2.3

     total cpu time spent up to now is     4094.4 secs

     total energy              =   -1926.27276453 Ry
     estimated scf accuracy    <       0.00029897 Ry

     iteration #  3     ecut=    60.00 Ry     beta= 0.30
     Davidson diagonalization with overlap
     ethr =  8.33E-08,  avg # of iterations =  3.0

     total cpu time spent up to now is     4122.2 secs

     total energy              =   -1926.27278259 Ry
     estimated scf accuracy    <       0.00017827 Ry

     iteration #  4     ecut=    60.00 Ry     beta= 0.30
     Davidson diagonalization with overlap
     ethr =  8.33E-08,  avg # of iterations =  1.8

     total cpu time spent up to now is     4147.5 secs

     total energy              =   -1926.27279095 Ry
     estimated scf accuracy    <       0.00003444 Ry

     iteration #  5     ecut=    60.00 Ry     beta= 0.30
     Davidson diagonalization with overlap
     ethr =  2.89E-08,  avg # of iterations =  1.7

     total cpu time spent up to now is     4171.5 secs

     total energy              =   -1926.27279331 Ry
     estimated scf accuracy    <       0.00000417 Ry

     iteration #  6     ecut=    60.00 Ry     beta= 0.30
     Davidson diagonalization with overlap
     ethr =  3.51E-09,  avg # of iterations =  2.0

     total cpu time spent up to now is     4195.9 secs

     total energy              =   -1926.27279364 Ry
     estimated scf accuracy    <       0.00000392 Ry

     iteration #  7     ecut=    60.00 Ry     beta= 0.30
     Davidson diagonalization with overlap
     ethr =  3.29E-09,  avg # of iterations =  1.0

     total cpu time spent up to now is     4214.7 secs

     total energy              =   -1926.27279390 Ry
     estimated scf accuracy    <       0.00000021 Ry

     iteration #  8     ecut=    60.00 Ry     beta= 0.30
     Davidson diagonalization with overlap
     ethr =  1.79E-10,  avg # of iterations =  3.3

     total cpu time spent up to now is     4249.5 secs

     total energy              =   -1926.27279393 Ry
     estimated scf accuracy    <       0.00000029 Ry

     iteration #  9     ecut=    60.00 Ry     beta= 0.30
     Davidson diagonalization with overlap
     ethr =  1.79E-10,  avg # of iterations =  1.4

     total cpu time spent up to now is     4271.9 secs

     total energy              =   -1926.27279396 Ry
     estimated scf accuracy    <       0.00000003 Ry

     iteration # 10     ecut=    60.00 Ry     beta= 0.30
     Davidson diagonalization with overlap
     ethr =  2.44E-11,  avg # of iterations =  4.0

     total cpu time spent up to now is     4310.2 secs

     total energy              =   -1926.27279397 Ry
     estimated scf accuracy    <          4.7E-09 Ry

     iteration # 11     ecut=    60.00 Ry     beta= 0.30
     Davidson diagonalization with overlap
     ethr =  3.98E-12,  avg # of iterations =  2.1

     total cpu time spent up to now is     4334.1 secs

     total energy              =   -1926.27279397 Ry
     estimated scf accuracy    <          4.8E-09 Ry

     iteration # 12     ecut=    60.00 Ry     beta= 0.30
     Davidson diagonalization with overlap
     ethr =  3.98E-12,  avg # of iterations =  1.0

     total cpu time spent up to now is     4353.0 secs

     total energy              =   -1926.27279397 Ry
     estimated scf accuracy    <          5.9E-10 Ry

     iteration # 13     ecut=    60.00 Ry     beta= 0.30
     Davidson diagonalization with overlap
     ethr =  4.93E-13,  avg # of iterations =  2.0

     total cpu time spent up to now is     4376.8 secs

     total energy              =   -1926.27279397 Ry
     estimated scf accuracy    <          5.0E-11 Ry

     iteration # 14     ecut=    60.00 Ry     beta= 0.30
     Davidson diagonalization with overlap
     ethr =  1.00E-13,  avg # of iterations =  1.2

     total cpu time spent up to now is     4396.9 secs

     End of self-consistent calculation

     Number of k-points >= 100: set verbosity='high' to print the bands.

     the Fermi energy is     6.9316 ev

!    total energy              =   -1926.27279397 Ry
     estimated scf accuracy    <          6.7E-12 Ry
     smearing contrib. (-TS)   =      -0.00036028 Ry
     internal energy E=F+TS    =   -1926.27243369 Ry

     The total energy is F=E-TS. E is the sum of the following terms:
     one-electron contribution =   -1696.69885922 Ry
     hartree contribution      =     883.11430593 Ry
     xc contribution           =    -198.32978691 Ry
     ewald contribution        =    -694.93680144 Ry
     DFT-D3 Dispersion         =      -0.36766993 Ry
     one-center paw contrib.   =    -219.05362213 Ry

     convergence has been achieved in  14 iterations

     Forces acting on atoms (cartesian axes, Ry/au):

     atom    1 type  1   force =    -0.00009061   -0.00128437    0.00063031
     atom    2 type  2   force =     0.00030777   -0.00005662    0.00002058
     atom    3 type  2   force =    -0.00007239   -0.00034763   -0.00083575
     atom    4 type  2   force =     0.00047985    0.00007319    0.00024001
     atom    5 type  2   force =    -0.00026500   -0.00039619   -0.00038409
     atom    6 type  2   force =     0.00044771    0.00075357    0.00036052
     atom    7 type  2   force =     0.00029975   -0.00045009    0.00003274
     atom    8 type  2   force =    -0.00036232   -0.00004035   -0.00018133
     atom    9 type  3   force =    -0.00041151   -0.00001355    0.00014097
     atom   10 type  3   force =     0.00021138   -0.00037409    0.00062746
     atom   11 type  3   force =    -0.00117140   -0.00055001    0.00093309
     atom   12 type  3   force =     0.00008312    0.00043588    0.00085058
     atom   13 type  4   force =     0.00019284   -0.00030476   -0.00011718
     atom   14 type  4   force =     0.00000291    0.00027536    0.00000027
     atom   15 type  4   force =    -0.00016080   -0.00073078    0.00031109
     atom   16 type  4   force =     0.00015818   -0.00053514    0.00019262
     atom   17 type  4   force =     0.00052317    0.00112905   -0.00036082
     atom   18 type  4   force =    -0.00014708    0.00013095   -0.00060904
     atom   19 type  4   force =     0.00015179   -0.00039042    0.00005001
     atom   20 type  4   force =     0.00034176    0.00019844    0.00007060
     atom   21 type  4   force =    -0.00050622    0.00097980   -0.00027855
     atom   22 type  4   force =    -0.00006522    0.00062504   -0.00047593
     atom   23 type  4   force =    -0.00018603    0.00234849    0.00036726
     atom   24 type  4   force =     0.00014934   -0.00104501   -0.00045429
     atom   25 type  4   force =    -0.00059516   -0.00015421   -0.00017054
     atom   26 type  4   force =    -0.00007058    0.00072644   -0.00005446
     atom   27 type  4   force =     0.00102305   -0.00085127   -0.00031468
     atom   28 type  4   force =    -0.00026829   -0.00015174   -0.00059144

     Total force =     0.005007     Total SCF correction =     0.000006


     Computing stress (Cartesian axis) and pressure

          total   stress  (Ry/bohr**3)                   (kbar)     P=       -0.25
  -0.00000306  -0.00000002   0.00000267           -0.45       -0.00        0.39
  -0.00000002   0.00000219  -0.00000209           -0.00        0.32       -0.31
   0.00000267  -0.00000209  -0.00000427            0.39       -0.31       -0.63

     Energy error            =      5.6E-05 Ry
     Gradient error          =      2.3E-03 Ry/Bohr
     Cell gradient error     =      6.3E-01 kbar

     number of scf cycles    =  11
     number of bfgs steps    =  10

     enthalpy           old  =   -1926.2727376439 Ry
     enthalpy           new  =   -1926.2727939696 Ry

     CASE: enthalpy          _new < enthalpy          _old

     new trust radius        =       0.0210578512 bohr
     new conv_thr            =            5.6E-11 Ry

     new unit-cell volume =   1652.83419 a.u.^3 (   244.92476 Ang^3 )
     density =      3.25409 g/cm^3

CELL_PARAMETERS (angstrom)
   7.537712761  -0.011453027  -0.068111540
  -5.048252123   5.780594108   0.173450474
  -2.302774094   1.167694454   5.675147565

ATOMIC_POSITIONS (angstrom)
Co              -4.2164522006        5.3213843820        5.5218080353
Mg              -3.0177415781        4.9005414215        2.7157716667
Mg               3.2561451690        2.0333550867        3.0289361150
Mg               4.4295832428        1.5330648143        0.1498701073
Mg               0.8144990173        6.5624803344        4.4235872580
Mg              -0.5800213866        0.3235793722        1.4198280546
Mg              -0.6016053011        3.8082287173        4.2737133595
Mg               0.5994176694        3.1884083670        1.4189624682
Ni              -1.7513402785        6.1248457779        5.1958339158
Ni              -1.8150882807        2.5187249352        2.3049762226
Ni               2.0389582643        4.3452618950        3.4477797606
Ni               1.9063350448        0.8485146564        0.5717214405
H               -0.4933316372        5.3527165801        5.6711690009
H               -0.3915954010        2.1060918213        2.7762047970
H                0.6208011807        4.8233343526        3.0104904165
H                0.5895383537        1.5017842162        0.1377026029
H                5.0506948090        1.1172055011        2.1091224544
H                3.8251846689        1.7968098550        5.0396978628
H               -3.2103861377        5.0207633407        0.4726312597
H               -4.8892421667        5.7560631647        4.0719915386
H               -3.1172113994        6.1491585468        4.4276533666
H               -2.5676279735        3.3227319952        1.1166604584
H                3.1963926227        3.9330406123        4.5407008356
H                2.9423224583        0.7292635298        1.6912973197
H                0.4682640541        2.3744231809        4.9780647031
H                2.5745872617        3.6964706380        2.1532842587
H               -2.4363197668        3.1875927252        3.5554538921
H               -0.6111487011        4.7398576665        0.7018978011



     Writing config-only to output data dir ./outdir/mg2nih4_co.save/ :
     XML data file
     NEW-OLD atomic charge density approx. for the potential
     New effective cutoffs (rho, wfc):  484.61   60.61

     Check: negative core charge=   -0.000003

     total cpu time spent up to now is     4412.5 secs

     Self-consistent Calculation

     iteration #  1     ecut=    60.00 Ry     beta= 0.30
     Davidson diagonalization with overlap
     ethr =  1.00E-06,  avg # of iterations =  3.1

     Threshold (ethr) on eigenvalues was too large:
     Diagonalizing with lowered threshold

     Davidson diagonalization with overlap
     ethr =  9.46E-08,  avg # of iterations =  1.0

     total cpu time spent up to now is     4468.2 secs

     total energy              =   -1926.27283382 Ry
     estimated scf accuracy    <       0.00011251 Ry

     iteration #  2     ecut=    60.00 Ry     beta= 0.30
     Davidson diagonalization with overlap
     ethr =  9.45E-08,  avg # of iterations =  2.2

     total cpu time spent up to now is     4494.6 secs

     total energy              =   -1926.27281560 Ry
     estimated scf accuracy    <       0.00037054 Ry

     iteration #  3     ecut=    60.00 Ry     beta= 0.30
     Davidson diagonalization with overlap
     ethr =  9.45E-08,  avg # of iterations =  3.0

     total cpu time spent up to now is     4522.4 secs

     total energy              =   -1926.27283738 Ry
     estimated scf accuracy    <       0.00018557 Ry

     iteration #  4     ecut=    60.00 Ry     beta= 0.30
     Davidson diagonalization with overlap
     ethr =  9.45E-08,  avg # of iterations =  1.7

     total cpu time spent up to now is     4548.1 secs

     total energy              =   -1926.27284596 Ry
     estimated scf accuracy    <       0.00004416 Ry

     iteration #  5     ecut=    60.00 Ry     beta= 0.30
     Davidson diagonalization with overlap
     ethr =  3.71E-08,  avg # of iterations =  1.5

     total cpu time spent up to now is     4572.0 secs

     total energy              =   -1926.27284867 Ry
     estimated scf accuracy    <       0.00000834 Ry

     iteration #  6     ecut=    60.00 Ry     beta= 0.30
     Davidson diagonalization with overlap
     ethr =  7.00E-09,  avg # of iterations =  2.0

     total cpu time spent up to now is     4595.3 secs

     total energy              =   -1926.27284946 Ry
     estimated scf accuracy    <       0.00000320 Ry

     iteration #  7     ecut=    60.00 Ry     beta= 0.30
     Davidson diagonalization with overlap
     ethr =  2.69E-09,  avg # of iterations =  1.0

     total cpu time spent up to now is     4614.1 secs

     total energy              =   -1926.27284966 Ry
     estimated scf accuracy    <       0.00000024 Ry

     iteration #  8     ecut=    60.00 Ry     beta= 0.30
     Davidson diagonalization with overlap
     ethr =  2.04E-10,  avg # of iterations =  4.1

     total cpu time spent up to now is     4649.6 secs

     total energy              =   -1926.27284970 Ry
     estimated scf accuracy    <       0.00000034 Ry

     iteration #  9     ecut=    60.00 Ry     beta= 0.30
     Davidson diagonalization with overlap
     ethr =  2.04E-10,  avg # of iterations =  1.5

     total cpu time spent up to now is     4673.0 secs

     total energy              =   -1926.27284973 Ry
     estimated scf accuracy    <       0.00000003 Ry

     iteration # 10     ecut=    60.00 Ry     beta= 0.30
     Davidson diagonalization with overlap
     ethr =  2.20E-11,  avg # of iterations =  2.6

     total cpu time spent up to now is     4701.1 secs

     total energy              =   -1926.27284973 Ry
     estimated scf accuracy    <          4.2E-09 Ry

     iteration # 11     ecut=    60.00 Ry     beta= 0.30
     Davidson diagonalization with overlap
     ethr =  3.54E-12,  avg # of iterations =  2.3

     total cpu time spent up to now is     4727.6 secs

     total energy              =   -1926.27284973 Ry
     estimated scf accuracy    <          1.2E-09 Ry

     iteration # 12     ecut=    60.00 Ry     beta= 0.30
     Davidson diagonalization with overlap
     ethr =  1.00E-12,  avg # of iterations =  2.5

     total cpu time spent up to now is     4753.9 secs

     total energy              =   -1926.27284973 Ry
     estimated scf accuracy    <          1.1E-09 Ry

     iteration # 13     ecut=    60.00 Ry     beta= 0.30
     Davidson diagonalization with overlap
     ethr =  9.33E-13,  avg # of iterations =  1.0

     total cpu time spent up to now is     4772.9 secs

     End of self-consistent calculation

     Number of k-points >= 100: set verbosity='high' to print the bands.

     the Fermi energy is     6.9359 ev

!    total energy              =   -1926.27284973 Ry
     estimated scf accuracy    <          1.7E-11 Ry
     smearing contrib. (-TS)   =      -0.00035583 Ry
     internal energy E=F+TS    =   -1926.27249391 Ry

     The total energy is F=E-TS. E is the sum of the following terms:
     one-electron contribution =   -1696.55408129 Ry
     hartree contribution      =     883.04916870 Ry
     xc contribution           =    -198.33278512 Ry
     ewald contribution        =    -695.01340618 Ry
     DFT-D3 Dispersion         =      -0.36780404 Ry
     one-center paw contrib.   =    -219.05358597 Ry

     convergence has been achieved in  13 iterations

     Forces acting on atoms (cartesian axes, Ry/au):

     atom    1 type  1   force =     0.00010985   -0.00149059    0.00049078
     atom    2 type  2   force =     0.00025804    0.00003619    0.00004120
     atom    3 type  2   force =    -0.00019976   -0.00093631   -0.00118528
     atom    4 type  2   force =     0.00102289    0.00008725    0.00035420
     atom    5 type  2   force =     0.00011631   -0.00042816   -0.00028866
     atom    6 type  2   force =     0.00026142    0.00086429    0.00032319
     atom    7 type  2   force =     0.00034150   -0.00067390    0.00007157
     atom    8 type  2   force =    -0.00045493   -0.00029227    0.00017989
     atom    9 type  3   force =    -0.00017270    0.00031879    0.00006061
     atom   10 type  3   force =     0.00036753   -0.00010441   -0.00067509
     atom   11 type  3   force =    -0.00087716   -0.00041118    0.00122043
     atom   12 type  3   force =    -0.00011312    0.00039569    0.00092930
     atom   13 type  4   force =     0.00020810   -0.00033658   -0.00015427
     atom   14 type  4   force =     0.00027344    0.00033872   -0.00008679
     atom   15 type  4   force =    -0.00049297   -0.00056944    0.00022257
     atom   16 type  4   force =     0.00015177   -0.00056817    0.00006487
     atom   17 type  4   force =     0.00018685    0.00048118   -0.00047897
     atom   18 type  4   force =    -0.00018851    0.00030888   -0.00056677
     atom   19 type  4   force =    -0.00024286   -0.00021519   -0.00000813
     atom   20 type  4   force =    -0.00004925    0.00082092   -0.00008255
     atom   21 type  4   force =    -0.00087165    0.00083876   -0.00051130
     atom   22 type  4   force =    -0.00004195    0.00040278   -0.00018468
     atom   23 type  4   force =     0.00004493    0.00168884    0.00061317
     atom   24 type  4   force =     0.00027638   -0.00062069    0.00016702
     atom   25 type  4   force =    -0.00061143    0.00000183   -0.00052905
     atom   26 type  4   force =     0.00005203    0.00060392   -0.00031265
     atom   27 type  4   force =     0.00063851   -0.00050635    0.00046829
     atom   28 type  4   force =     0.00000670   -0.00003480   -0.00014289

     Total force =     0.004805     Total SCF correction =     0.000014


     Computing stress (Cartesian axis) and pressure

          total   stress  (Ry/bohr**3)                   (kbar)     P=        0.21
  -0.00000081   0.00000090   0.00000273           -0.12        0.13        0.40
   0.00000090   0.00000635  -0.00000148            0.13        0.93       -0.22
   0.00000273  -0.00000148  -0.00000117            0.40       -0.22       -0.17

     Energy error            =      5.6E-05 Ry
     Gradient error          =      1.7E-03 Ry/Bohr
     Cell gradient error     =      9.3E-01 kbar

     number of scf cycles    =  12
     number of bfgs steps    =  11

     enthalpy           old  =   -1926.2727939696 Ry
     enthalpy           new  =   -1926.2728497319 Ry

     CASE: enthalpy          _new < enthalpy          _old

     new trust radius        =       0.0184783484 bohr
     new conv_thr            =            5.6E-11 Ry

     new unit-cell volume =   1652.34403 a.u.^3 (   244.85212 Ang^3 )
     density =      3.25505 g/cm^3

CELL_PARAMETERS (angstrom)
   7.537387109  -0.010891291  -0.069899833
  -5.047644512   5.779940791   0.172741239
  -2.303942233   1.165647152   5.674125584

ATOMIC_POSITIONS (angstrom)
Co              -4.2176100127        5.3186938004        5.5202400896
Mg              -3.0176254461        4.8997353511        2.7174629676
Mg               3.2541241055        2.0329334816        3.0242085841
Mg               4.4289967081        1.5349045635        0.1473036960
Mg               0.8124546485        6.5606269715        4.4198325925
Mg              -0.5794353009        0.3233908851        1.4203887989
Mg              -0.6006274119        3.8058839438        4.2724345916
Mg               0.5970336050        3.1884817516        1.4167110759
Ni              -1.7530921288        6.1224083625        5.1921781104
Ni              -1.8149756459        2.5174256349        2.3059966881
Ni               2.0361080103        4.3433561635        3.4450649187
Ni               1.9066901500        0.8481980172        0.5737841507
H               -0.4948714598        5.3506782914        5.6690634390
H               -0.3920361894        2.1048552755        2.7765960096
H                0.6192969312        4.8210954856        3.0075244664
H                0.5898929931        1.5006674483        0.1394686581
H                5.0511287990        1.1183290606        2.1061392380
H                3.8242097588        1.7947693853        5.0359063216
H               -3.2094640539        5.0187801814        0.4720502663
H               -4.8883108810        5.7532756718        4.0697786275
H               -3.1200220240        6.1532779474        4.4266224251
H               -2.5651217386        3.3236974428        1.1160039425
H                3.1940334419        3.9347167338        4.5365663737
H                2.9483026673        0.7225225747        1.6863725569
H                0.4650172866        2.3696026113        4.9776002151
H                2.5744008750        3.6992442419        2.1493505758
H               -2.4360079233        3.1847698204        3.5546916533
H               -0.6112846760        4.7394320256        0.6981968070



     Writing config-only to output data dir ./outdir/mg2nih4_co.save/ :
     XML data file
     NEW-OLD atomic charge density approx. for the potential
     New effective cutoffs (rho, wfc):  484.97   60.67

     Check: negative core charge=   -0.000003

     total cpu time spent up to now is     4788.5 secs

     Self-consistent Calculation

     iteration #  1     ecut=    60.00 Ry     beta= 0.30
     Davidson diagonalization with overlap
     ethr =  1.00E-06,  avg # of iterations =  3.1

     Threshold (ethr) on eigenvalues was too large:
     Diagonalizing with lowered threshold

     Davidson diagonalization with overlap
     ethr =  6.88E-08,  avg # of iterations =  1.2

     total cpu time spent up to now is     4845.6 secs

     total energy              =   -1926.27288652 Ry
     estimated scf accuracy    <       0.00008172 Ry

     iteration #  2     ecut=    60.00 Ry     beta= 0.30
     Davidson diagonalization with overlap
     ethr =  6.87E-08,  avg # of iterations =  2.1

     total cpu time spent up to now is     4870.4 secs

     total energy              =   -1926.27287335 Ry
     estimated scf accuracy    <       0.00026127 Ry

     iteration #  3     ecut=    60.00 Ry     beta= 0.30
     Davidson diagonalization with overlap
     ethr =  6.87E-08,  avg # of iterations =  2.9

     total cpu time spent up to now is     4899.4 secs

     total energy              =   -1926.27288812 Ry
     estimated scf accuracy    <       0.00012330 Ry

     iteration #  4     ecut=    60.00 Ry     beta= 0.30
     Davidson diagonalization with overlap
     ethr =  6.87E-08,  avg # of iterations =  2.0

     total cpu time spent up to now is     4923.4 secs

     total energy              =   -1926.27289300 Ry
     estimated scf accuracy    <       0.00004814 Ry

     iteration #  5     ecut=    60.00 Ry     beta= 0.30
     Davidson diagonalization with overlap
     ethr =  4.05E-08,  avg # of iterations =  1.0

     total cpu time spent up to now is     4942.2 secs

     total energy              =   -1926.27289577 Ry
     estimated scf accuracy    <       0.00000819 Ry

     iteration #  6     ecut=    60.00 Ry     beta= 0.30
     Davidson diagonalization with overlap
     ethr =  6.88E-09,  avg # of iterations =  2.0

     total cpu time spent up to now is     4965.4 secs

     total energy              =   -1926.27289659 Ry
     estimated scf accuracy    <       0.00000177 Ry

     iteration #  7     ecut=    60.00 Ry     beta= 0.30
     Davidson diagonalization with overlap
     ethr =  1.49E-09,  avg # of iterations =  1.2

     total cpu time spent up to now is     4986.4 secs

     total energy              =   -1926.27289668 Ry
     estimated scf accuracy    <       0.00000044 Ry

     iteration #  8     ecut=    60.00 Ry     beta= 0.30
     Davidson diagonalization with overlap
     ethr =  3.66E-10,  avg # of iterations =  2.0

     total cpu time spent up to now is     5009.6 secs

     total energy              =   -1926.27289672 Ry
     estimated scf accuracy    <       0.00000019 Ry

     iteration #  9     ecut=    60.00 Ry     beta= 0.30
     Davidson diagonalization with overlap
     ethr =  1.60E-10,  avg # of iterations =  3.5

     total cpu time spent up to now is     5046.3 secs

     total energy              =   -1926.27289674 Ry
     estimated scf accuracy    <       0.00000002 Ry

     iteration # 10     ecut=    60.00 Ry     beta= 0.30
     Davidson diagonalization with overlap
     ethr =  1.74E-11,  avg # of iterations =  4.3

     total cpu time spent up to now is     5092.8 secs

     total energy              =   -1926.27289676 Ry
     estimated scf accuracy    <          2.8E-09 Ry

     iteration # 11     ecut=    60.00 Ry     beta= 0.30
     Davidson diagonalization with overlap
     ethr =  2.32E-12,  avg # of iterations =  2.0

     total cpu time spent up to now is     5116.0 secs

     total energy              =   -1926.27289676 Ry
     estimated scf accuracy    <          2.6E-09 Ry

     iteration # 12     ecut=    60.00 Ry     beta= 0.30
     Davidson diagonalization with overlap
     ethr =  2.22E-12,  avg # of iterations =  1.2

     total cpu time spent up to now is     5136.6 secs

     total energy              =   -1926.27289676 Ry
     estimated scf accuracy    <          3.5E-10 Ry

     iteration # 13     ecut=    60.00 Ry     beta= 0.30
     Davidson diagonalization with overlap
     ethr =  2.95E-13,  avg # of iterations =  2.0

     total cpu time spent up to now is     5160.0 secs

     End of self-consistent calculation

     Number of k-points >= 100: set verbosity='high' to print the bands.

     the Fermi energy is     6.9392 ev

!    total energy              =   -1926.27289676 Ry
     estimated scf accuracy    <          2.0E-11 Ry
     smearing contrib. (-TS)   =      -0.00035123 Ry
     internal energy E=F+TS    =   -1926.27254553 Ry

     The total energy is F=E-TS. E is the sum of the following terms:
     one-electron contribution =   -1696.39864292 Ry
     hartree contribution      =     882.97753497 Ry
     xc contribution           =    -198.33450197 Ry
     ewald contribution        =    -695.09552067 Ry
     DFT-D3 Dispersion         =      -0.36790909 Ry
     one-center paw contrib.   =    -219.05350585 Ry

     convergence has been achieved in  13 iterations

     Forces acting on atoms (cartesian axes, Ry/au):

     atom    1 type  1   force =     0.00024068   -0.00094529    0.00023491
     atom    2 type  2   force =     0.00017029   -0.00006137    0.00011296
     atom    3 type  2   force =    -0.00036481   -0.00115545   -0.00131935
     atom    4 type  2   force =     0.00119064    0.00008668    0.00023052
     atom    5 type  2   force =     0.00035618   -0.00039320   -0.00009616
     atom    6 type  2   force =     0.00011915    0.00073096    0.00031368
     atom    7 type  2   force =     0.00029290   -0.00075023    0.00014848
     atom    8 type  2   force =    -0.00039389   -0.00033190    0.00034672
     atom    9 type  3   force =     0.00005675    0.00055036   -0.00012586
     atom   10 type  3   force =     0.00044845    0.00024902   -0.00164685
     atom   11 type  3   force =    -0.00037587   -0.00007241    0.00109211
     atom   12 type  3   force =    -0.00015078    0.00011048    0.00072148
     atom   13 type  4   force =     0.00004358   -0.00026009   -0.00023166
     atom   14 type  4   force =     0.00050564    0.00033518   -0.00012046
     atom   15 type  4   force =    -0.00082069   -0.00040080    0.00011756
     atom   16 type  4   force =     0.00007362   -0.00054355   -0.00006170
     atom   17 type  4   force =    -0.00011278   -0.00014946   -0.00055548
     atom   18 type  4   force =    -0.00022611    0.00030064   -0.00055151
     atom   19 type  4   force =    -0.00047664    0.00007447   -0.00001165
     atom   20 type  4   force =    -0.00033309    0.00096444   -0.00013065
     atom   21 type  4   force =    -0.00092844    0.00066818   -0.00049751
     atom   22 type  4   force =    -0.00008314    0.00008739    0.00023477
     atom   23 type  4   force =     0.00028941    0.00078549    0.00070930
     atom   24 type  4   force =     0.00039711   -0.00034593    0.00060318
     atom   25 type  4   force =    -0.00044045    0.00008210   -0.00061481
     atom   26 type  4   force =     0.00010981    0.00052278   -0.00027365
     atom   27 type  4   force =     0.00025097   -0.00015484    0.00109360
     atom   28 type  4   force =     0.00016148    0.00001634    0.00027802

     Total force =     0.004739     Total SCF correction =     0.000017


     Computing stress (Cartesian axis) and pressure

          total   stress  (Ry/bohr**3)                   (kbar)     P=        0.49
   0.00000074   0.00000144   0.00000153            0.11        0.21        0.23
   0.00000144   0.00000811  -0.00000016            0.21        1.19       -0.02
   0.00000153  -0.00000016   0.00000122            0.23       -0.02        0.18

     Energy error            =      4.7E-05 Ry
     Gradient error          =      1.6E-03 Ry/Bohr
     Cell gradient error     =      1.2E+00 kbar

     number of scf cycles    =  13
     number of bfgs steps    =  12

     enthalpy           old  =   -1926.2728497319 Ry
     enthalpy           new  =   -1926.2728967603 Ry

     CASE: enthalpy          _new < enthalpy          _old

     new trust radius        =       0.0199895956 bohr
     new conv_thr            =            4.7E-11 Ry

     new unit-cell volume =   1652.07151 a.u.^3 (   244.81174 Ang^3 )
     density =      3.25559 g/cm^3

CELL_PARAMETERS (angstrom)
   7.536616965  -0.009789503  -0.071408725
  -5.046312624   5.780242221   0.171556792
  -2.304681110   1.163436915   5.672743895

ATOMIC_POSITIONS (angstrom)
Co              -4.2176823351        5.3157127268        5.5181351314
Mg              -3.0168097804        4.8998736093        2.7190928169
Mg               3.2518287444        2.0320858242        3.0181928715
Mg               4.4292491139        1.5376053422        0.1449174740
Mg               0.8113339931        6.5598927964        4.4155359117
Mg              -0.5787498088        0.3236830211        1.4210284971
Mg              -0.5988177636        3.8035432655        4.2709475940
Mg               0.5943916436        3.1889608118        1.4146325929
Ni              -1.7541942950        6.1214725530        5.1878159948
Ni              -1.8142826077        2.5164910403        2.3058534555
Ni               2.0332414296        4.3423506598        3.4427519829
Ni               1.9070656583        0.8482663910        0.5767149440
H               -0.4957733062        5.3493810944        5.6664004731
H               -0.3919213381        2.1042017022        2.7767219234
H                0.6176522971        4.8196075696        3.0042331429
H                0.5904320352        1.4995194327        0.1413382759
H                5.0513961678        1.1198951261        2.1027746236
H                3.8232223447        1.7934420881        5.0316080686
H               -3.2084498506        5.0176724251        0.4710592052
H               -4.8868869341        5.7522100148        4.0666654534
H               -3.1230049022        6.1592201946        4.4247273085
H               -2.5619705425        3.3253971273        1.1151583796
H                3.1920670976        3.9376892651        4.5326357109
H                2.9550202140        0.7155738936        1.6816500864
H                0.4615510037        2.3649368640        4.9765089766
H                2.5745462775        3.7035198453        2.1447942019
H               -2.4350321111        3.1821215028        3.5542526458
H               -0.6106972134        4.7401286862        0.6943397157



     Writing config-only to output data dir ./outdir/mg2nih4_co.save/ :
     XML data file
     NEW-OLD atomic charge density approx. for the potential
     New effective cutoffs (rho, wfc):  485.29   60.72

     Check: negative core charge=   -0.000003

     total cpu time spent up to now is     5175.6 secs

     Self-consistent Calculation

     iteration #  1     ecut=    60.00 Ry     beta= 0.30
     Davidson diagonalization with overlap
     ethr =  1.00E-06,  avg # of iterations =  3.1

     Threshold (ethr) on eigenvalues was too large:
     Diagonalizing with lowered threshold

     Davidson diagonalization with overlap
     ethr =  7.94E-08,  avg # of iterations =  1.1

     total cpu time spent up to now is     5232.4 secs

     total energy              =   -1926.27293609 Ry
     estimated scf accuracy    <       0.00009416 Ry

     iteration #  2     ecut=    60.00 Ry     beta= 0.30
     Davidson diagonalization with overlap
     ethr =  7.91E-08,  avg # of iterations =  2.0

     total cpu time spent up to now is     5256.3 secs

     total energy              =   -1926.27292550 Ry
     estimated scf accuracy    <       0.00017469 Ry

     iteration #  3     ecut=    60.00 Ry     beta= 0.30
     Davidson diagonalization with overlap
     ethr =  7.91E-08,  avg # of iterations =  2.1

     total cpu time spent up to now is     5280.6 secs

     total energy              =   -1926.27293387 Ry
     estimated scf accuracy    <       0.00014392 Ry

     iteration #  4     ecut=    60.00 Ry     beta= 0.30
     Davidson diagonalization with overlap
     ethr =  7.91E-08,  avg # of iterations =  2.0

     total cpu time spent up to now is     5303.8 secs

     total energy              =   -1926.27293791 Ry
     estimated scf accuracy    <       0.00011017 Ry

     iteration #  5     ecut=    60.00 Ry     beta= 0.30
     Davidson diagonalization with overlap
     ethr =  7.91E-08,  avg # of iterations =  1.0

     total cpu time spent up to now is     5322.6 secs

     total energy              =   -1926.27294377 Ry
     estimated scf accuracy    <       0.00000590 Ry

     iteration #  6     ecut=    60.00 Ry     beta= 0.30
     Davidson diagonalization with overlap
     ethr =  4.96E-09,  avg # of iterations =  2.0

     total cpu time spent up to now is     5347.1 secs

     total energy              =   -1926.27294451 Ry
     estimated scf accuracy    <       0.00000277 Ry

     iteration #  7     ecut=    60.00 Ry     beta= 0.30
     Davidson diagonalization with overlap
     ethr =  2.33E-09,  avg # of iterations =  1.3

     total cpu time spent up to now is     5368.8 secs

     total energy              =   -1926.27294466 Ry
     estimated scf accuracy    <       0.00000046 Ry

     iteration #  8     ecut=    60.00 Ry     beta= 0.30
     Davidson diagonalization with overlap
     ethr =  3.85E-10,  avg # of iterations =  2.6

     total cpu time spent up to now is     5400.7 secs

     total energy              =   -1926.27294472 Ry
     estimated scf accuracy    <       0.00000032 Ry

     iteration #  9     ecut=    60.00 Ry     beta= 0.30
     Davidson diagonalization with overlap
     ethr =  2.70E-10,  avg # of iterations =  1.8

     total cpu time spent up to now is     5428.0 secs

     total energy              =   -1926.27294475 Ry
     estimated scf accuracy    <       0.00000002 Ry

     iteration # 10     ecut=    60.00 Ry     beta= 0.30
     Davidson diagonalization with overlap
     ethr =  2.03E-11,  avg # of iterations =  4.6

     total cpu time spent up to now is     5479.2 secs

     total energy              =   -1926.27294477 Ry
     estimated scf accuracy    <          3.5E-09 Ry

     iteration # 11     ecut=    60.00 Ry     beta= 0.30
     Davidson diagonalization with overlap
     ethr =  2.92E-12,  avg # of iterations =  2.0

     total cpu time spent up to now is     5502.8 secs

     total energy              =   -1926.27294477 Ry
     estimated scf accuracy    <          3.0E-09 Ry

     iteration # 12     ecut=    60.00 Ry     beta= 0.30
     Davidson diagonalization with overlap
     ethr =  2.52E-12,  avg # of iterations =  1.1

     total cpu time spent up to now is     5523.3 secs

     total energy              =   -1926.27294477 Ry
     estimated scf accuracy    <          6.2E-10 Ry

     iteration # 13     ecut=    60.00 Ry     beta= 0.30
     Davidson diagonalization with overlap
     ethr =  5.25E-13,  avg # of iterations =  2.0

     total cpu time spent up to now is     5547.4 secs

     End of self-consistent calculation

     Number of k-points >= 100: set verbosity='high' to print the bands.

     the Fermi energy is     6.9410 ev

!    total energy              =   -1926.27294477 Ry
     estimated scf accuracy    <          3.5E-11 Ry
     smearing contrib. (-TS)   =      -0.00034635 Ry
     internal energy E=F+TS    =   -1926.27259842 Ry

     The total energy is F=E-TS. E is the sum of the following terms:
     one-electron contribution =   -1696.25659430 Ry
     hartree contribution      =     882.90910489 Ry
     xc contribution           =    -198.33404956 Ry
     ewald contribution        =    -695.16980155 Ry
     DFT-D3 Dispersion         =      -0.36797055 Ry
     one-center paw contrib.   =    -219.05328735 Ry

     convergence has been achieved in  13 iterations

     Forces acting on atoms (cartesian axes, Ry/au):

     atom    1 type  1   force =     0.00031571    0.00016997   -0.00005702
     atom    2 type  2   force =     0.00004870   -0.00031755    0.00021915
     atom    3 type  2   force =    -0.00054472   -0.00103154   -0.00126003
     atom    4 type  2   force =     0.00102779    0.00005678   -0.00011901
     atom    5 type  2   force =     0.00045962   -0.00029539    0.00016091
     atom    6 type  2   force =     0.00001294    0.00039615    0.00030563
     atom    7 type  2   force =     0.00015397   -0.00068114    0.00025388
     atom    8 type  2   force =    -0.00016926   -0.00017796    0.00032072
     atom    9 type  3   force =     0.00020442    0.00066387   -0.00034753
     atom   10 type  3   force =     0.00036915    0.00054545   -0.00198269
     atom   11 type  3   force =     0.00023783    0.00040570    0.00058250
     atom   12 type  3   force =     0.00000970   -0.00031947    0.00027664
     atom   13 type  4   force =    -0.00024735   -0.00011763   -0.00034834
     atom   14 type  4   force =     0.00064247    0.00029900   -0.00014087
     atom   15 type  4   force =    -0.00105912   -0.00025544    0.00003770
     atom   16 type  4   force =    -0.00004297   -0.00047843   -0.00018395
     atom   17 type  4   force =    -0.00029928   -0.00061054   -0.00057701
     atom   18 type  4   force =    -0.00024702    0.00016282   -0.00057388
     atom   19 type  4   force =    -0.00056343    0.00043675    0.00002759
     atom   20 type  4   force =    -0.00054073    0.00072829   -0.00009455
     atom   21 type  4   force =    -0.00071185    0.00044813   -0.00027359
     atom   22 type  4   force =    -0.00023542   -0.00022612    0.00064376
     atom   23 type  4   force =     0.00054884   -0.00026549    0.00068500
     atom   24 type  4   force =     0.00041608   -0.00019579    0.00083625
     atom   25 type  4   force =    -0.00010266    0.00009416   -0.00043346
     atom   26 type  4   force =     0.00010678    0.00047569    0.00004372
     atom   27 type  4   force =    -0.00001863    0.00007523    0.00136183
     atom   28 type  4   force =     0.00022841    0.00001450    0.00063663

     Total force =     0.004674     Total SCF correction =     0.000014


     Computing stress (Cartesian axis) and pressure

          total   stress  (Ry/bohr**3)                   (kbar)     P=        0.48
   0.00000077   0.00000158  -0.00000050            0.11        0.23       -0.07
   0.00000158   0.00000709   0.00000156            0.23        1.04        0.23
  -0.00000050   0.00000156   0.00000201           -0.07        0.23        0.30

     Energy error            =      4.8E-05 Ry
     Gradient error          =      2.0E-03 Ry/Bohr
     Cell gradient error     =      1.0E+00 kbar

     number of scf cycles    =  14
     number of bfgs steps    =  13

     enthalpy           old  =   -1926.2728967603 Ry
     enthalpy           new  =   -1926.2729447675 Ry

     CASE: enthalpy          _new < enthalpy          _old

     new trust radius        =       0.0165185365 bohr
     new conv_thr            =            4.8E-11 Ry

     new unit-cell volume =   1652.10822 a.u.^3 (   244.81718 Ang^3 )
     density =      3.25552 g/cm^3

CELL_PARAMETERS (angstrom)
   7.535649596  -0.008420246  -0.072739311
  -5.044633790   5.781317894   0.170859173
  -2.305179349   1.161925080   5.671714512

ATOMIC_POSITIONS (angstrom)
Co              -4.2169988485        5.3142085820        5.5166030019
Mg              -3.0157407033        4.9007412251        2.7208691438
Mg               3.2495199245        2.0312796507        3.0123848189
Mg               4.4301755403        1.5404564597        0.1428714441
Mg               0.8111565043        6.5606232052        4.4123852318
Mg              -0.5782371119        0.3242738220        1.4217292181
Mg              -0.5969950274        3.8019938640        4.2700844906
Mg               0.5922283729        3.1898885753        1.4133577970
Ni              -1.7546164388        6.1225199337        5.1842906555
Ni              -1.8133493663        2.5164626794        2.3046796618
Ni               2.0312225892        4.3429282652        3.4413482514
Ni               1.9074431639        0.8484347220        0.5794224986
H               -0.4963804618        5.3494617289        5.6642344270
H               -0.3913316430        2.1044058691        2.7767709939
H                0.6158778591        4.8193489035        3.0017451867
H                0.5909358299        1.4985986477        0.1428151088
H                5.0512416705        1.1213860473        2.0996236526
H                3.8221427562        1.7933105942        5.0277816448
H               -3.2076583326        5.0178805266        0.4704627621
H               -4.8856954016        5.7530190330        4.0642577857
H               -3.1255556583        6.1655662107        4.4232701730
H               -2.5592039780        3.3272130716        1.1150075623
H                3.1908979367        3.9408970822        4.5300493670
H                2.9607135330        0.7102216372        1.6783506377
H                0.4586523344        2.3618407255        4.9754322885
H                2.5748516901        3.7083202885        2.1411384831
H               -2.4339780659        3.1805530021        3.5548808258
H               -0.6096082635        4.7416838525        0.6918341293



     Writing config-only to output data dir ./outdir/mg2nih4_co.save/ :
     XML data file
     NEW-OLD atomic charge density approx. for the potential
     New effective cutoffs (rho, wfc):  485.59   60.75

     Check: negative core charge=   -0.000003

     total cpu time spent up to now is     5563.2 secs

     Self-consistent Calculation

     iteration #  1     ecut=    60.00 Ry     beta= 0.30
     Davidson diagonalization with overlap
     ethr =  1.00E-06,  avg # of iterations =  3.0

     Threshold (ethr) on eigenvalues was too large:
     Diagonalizing with lowered threshold

     Davidson diagonalization with overlap
     ethr =  5.88E-08,  avg # of iterations =  1.3

     total cpu time spent up to now is     5623.2 secs

     total energy              =   -1926.27297956 Ry
     estimated scf accuracy    <       0.00006985 Ry

     iteration #  2     ecut=    60.00 Ry     beta= 0.30
     Davidson diagonalization with overlap
     ethr =  5.87E-08,  avg # of iterations =  2.0

     total cpu time spent up to now is     5647.9 secs

     total energy              =   -1926.27297488 Ry
     estimated scf accuracy    <       0.00006784 Ry

     iteration #  3     ecut=    60.00 Ry     beta= 0.30
     Davidson diagonalization with overlap
     ethr =  5.70E-08,  avg # of iterations =  2.0

     total cpu time spent up to now is     5672.5 secs

     total energy              =   -1926.27297787 Ry
     estimated scf accuracy    <       0.00008830 Ry

     iteration #  4     ecut=    60.00 Ry     beta= 0.30
     Davidson diagonalization with overlap
     ethr =  5.70E-08,  avg # of iterations =  2.0

     total cpu time spent up to now is     5696.7 secs

     total energy              =   -1926.27297959 Ry
     estimated scf accuracy    <       0.00009544 Ry

     iteration #  5     ecut=    60.00 Ry     beta= 0.30
     Davidson diagonalization with overlap
     ethr =  5.70E-08,  avg # of iterations =  1.0

     total cpu time spent up to now is     5716.6 secs

     total energy              =   -1926.27298442 Ry
     estimated scf accuracy    <       0.00000190 Ry

     iteration #  6     ecut=    60.00 Ry     beta= 0.30
     Davidson diagonalization with overlap
     ethr =  1.60E-09,  avg # of iterations =  3.0

     total cpu time spent up to now is     5747.1 secs

     total energy              =   -1926.27298450 Ry
     estimated scf accuracy    <       0.00000222 Ry

     iteration #  7     ecut=    60.00 Ry     beta= 0.30
     Davidson diagonalization with overlap
     ethr =  1.60E-09,  avg # of iterations =  1.9

     total cpu time spent up to now is     5772.3 secs

     total energy              =   -1926.27298468 Ry
     estimated scf accuracy    <       0.00000042 Ry

     iteration #  8     ecut=    60.00 Ry     beta= 0.30
     Davidson diagonalization with overlap
     ethr =  3.49E-10,  avg # of iterations =  2.0

     total cpu time spent up to now is     5796.8 secs

     total energy              =   -1926.27298471 Ry
     estimated scf accuracy    <       0.00000021 Ry

     iteration #  9     ecut=    60.00 Ry     beta= 0.30
     Davidson diagonalization with overlap
     ethr =  1.79E-10,  avg # of iterations =  2.8

     total cpu time spent up to now is     5829.4 secs

     total energy              =   -1926.27298473 Ry
     estimated scf accuracy    <       0.00000003 Ry

     iteration # 10     ecut=    60.00 Ry     beta= 0.30
     Davidson diagonalization with overlap
     ethr =  2.50E-11,  avg # of iterations =  4.3

     total cpu time spent up to now is     5871.6 secs

     total energy              =   -1926.27298475 Ry
     estimated scf accuracy    <          3.9E-09 Ry

     iteration # 11     ecut=    60.00 Ry     beta= 0.30
     Davidson diagonalization with overlap
     ethr =  3.31E-12,  avg # of iterations =  2.0

     total cpu time spent up to now is     5895.1 secs

     total energy              =   -1926.27298475 Ry
     estimated scf accuracy    <          6.1E-09 Ry

     iteration # 12     ecut=    60.00 Ry     beta= 0.30
     Davidson diagonalization with overlap
     ethr =  3.31E-12,  avg # of iterations =  1.5

     total cpu time spent up to now is     5918.6 secs

     total energy              =   -1926.27298475 Ry
     estimated scf accuracy    <          1.8E-10 Ry

     iteration # 13     ecut=    60.00 Ry     beta= 0.30
     Davidson diagonalization with overlap
     ethr =  1.54E-13,  avg # of iterations =  2.5

     total cpu time spent up to now is     5948.3 secs

     total energy              =   -1926.27298475 Ry
     estimated scf accuracy    <          4.9E-11 Ry

     iteration # 14     ecut=    60.00 Ry     beta= 0.30
     Davidson diagonalization with overlap
     ethr =  1.00E-13,  avg # of iterations =  1.0

     total cpu time spent up to now is     5968.3 secs

     End of self-consistent calculation

     Number of k-points >= 100: set verbosity='high' to print the bands.

     the Fermi energy is     6.9408 ev

!    total energy              =   -1926.27298475 Ry
     estimated scf accuracy    <          5.9E-12 Ry
     smearing contrib. (-TS)   =      -0.00034271 Ry
     internal energy E=F+TS    =   -1926.27264204 Ry

     The total energy is F=E-TS. E is the sum of the following terms:
     one-electron contribution =   -1696.20784374 Ry
     hartree contribution      =     882.88269202 Ry
     xc contribution           =    -198.33149075 Ry
     ewald contribution        =    -695.19504088 Ry
     DFT-D3 Dispersion         =      -0.36796814 Ry
     one-center paw contrib.   =    -219.05299054 Ry

     convergence has been achieved in  14 iterations

     Forces acting on atoms (cartesian axes, Ry/au):

     atom    1 type  1   force =     0.00030773    0.00116129   -0.00021062
     atom    2 type  2   force =    -0.00005806   -0.00057881    0.00031038
     atom    3 type  2   force =    -0.00064891   -0.00064445   -0.00104678
     atom    4 type  2   force =     0.00065626    0.00001104   -0.00053223
     atom    5 type  2   force =     0.00039216   -0.00016666    0.00035012
     atom    6 type  2   force =    -0.00003257    0.00003697    0.00026368
     atom    7 type  2   force =    -0.00000909   -0.00049163    0.00033287
     atom    8 type  2   force =     0.00012472    0.00007128    0.00013378
     atom    9 type  3   force =     0.00017054    0.00060096   -0.00045257
     atom   10 type  3   force =     0.00011042    0.00053463   -0.00137033
     atom   11 type  3   force =     0.00061756    0.00075887   -0.00000935
     atom   12 type  3   force =     0.00028884   -0.00061356   -0.00014736
     atom   13 type  4   force =    -0.00047684   -0.00000791   -0.00044405
     atom   14 type  4   force =     0.00059470    0.00026654   -0.00017068
     atom   15 type  4   force =    -0.00104122   -0.00019496    0.00003843
     atom   16 type  4   force =    -0.00011676   -0.00040363   -0.00024744
     atom   17 type  4   force =    -0.00025142   -0.00063124   -0.00052088
     atom   18 type  4   force =    -0.00021680    0.00001572   -0.00062271
     atom   19 type  4   force =    -0.00050043    0.00067972    0.00008249
     atom   20 type  4   force =    -0.00062456    0.00033475   -0.00003205
     atom   21 type  4   force =    -0.00038391    0.00025598    0.00001595
     atom   22 type  4   force =    -0.00045705   -0.00032422    0.00075021
     atom   23 type  4   force =     0.00072153   -0.00096415    0.00057485
     atom   24 type  4   force =     0.00028547   -0.00020399    0.00078560
     atom   25 type  4   force =     0.00025416    0.00003495   -0.00009438
     atom   26 type  4   force =     0.00007242    0.00045306    0.00042702
     atom   27 type  4   force =    -0.00000989    0.00001874    0.00105701
     atom   28 type  4   force =     0.00023101   -0.00000929    0.00077906

     Total force =     0.004476     Total SCF correction =     0.000007


     Computing stress (Cartesian axis) and pressure

          total   stress  (Ry/bohr**3)                   (kbar)     P=        0.20
  -0.00000069   0.00000128  -0.00000217           -0.10        0.19       -0.32
   0.00000128   0.00000391   0.00000267            0.19        0.58        0.39
  -0.00000217   0.00000267   0.00000087           -0.32        0.39        0.13

     Energy error            =      4.0E-05 Ry
     Gradient error          =      1.4E-03 Ry/Bohr
     Cell gradient error     =      5.8E-01 kbar

     number of scf cycles    =  15
     number of bfgs steps    =  14

     enthalpy           old  =   -1926.2729447675 Ry
     enthalpy           new  =   -1926.2729847524 Ry

     CASE: enthalpy          _new < enthalpy          _old

     new trust radius        =       0.0157086445 bohr
     new conv_thr            =            4.0E-11 Ry

     new unit-cell volume =   1652.28635 a.u.^3 (   244.84358 Ang^3 )
     density =      3.25517 g/cm^3

CELL_PARAMETERS (angstrom)
   7.534350183  -0.006796630  -0.074529527
  -5.042541972   5.782901192   0.171113543
  -2.305878232   1.161100531   5.671043351

ATOMIC_POSITIONS (angstrom)
Co              -4.2160443906        5.3146929510        5.5158608505
Mg              -3.0145871799        4.9018737989        2.7234544194
Mg               3.2465600934        2.0307324631        3.0060635069
Mg               4.4314134187        1.5435663175        0.1403570256
Mg               0.8112210588        6.5625133777        4.4102599921
Mg              -0.5778179355        0.3250475685        1.4226797102
Mg              -0.5953972015        3.8010362961        4.2699550733
Mg               0.5903182032        3.1914175214        1.4125093886
Ni              -1.7549155568        6.1252239787        5.1813715573
Ni              -1.8123560158        2.5172805486        2.3030210219
Ni               2.0295918187        4.3450537807        3.4403299680
Ni               1.9079498567        0.8484088945        0.5818280755
H               -0.4974431359        5.3507579900        5.6623987237
H               -0.3904118887        2.1053712829        2.7768910989
H                0.6133875254        4.8198729818        2.9999083368
H                0.5913565809        1.4976335781        0.1441059192
H                5.0505888388        1.1229863968        2.0960007625
H                3.8204776700        1.7941164659        5.0235759824
H               -3.2069333364        5.0191758712        0.4706750678
H               -4.8848315707        5.7550016460        4.0628916991
H               -3.1281241005        6.1728596319        4.4227226363
H               -2.5568075295        3.3291507519        1.1159008944
H                3.1900533768        3.9443995926        4.5282638762
H                2.9659667612        0.7053971228        1.6757092767
H                0.4558485193        2.3597855330        4.9745559857
H                2.5750681613        3.7140383554        2.1382394996
H               -2.4328916689        3.1796680045        3.5566956942
H               -0.6082206559        4.7438086077        0.6905570784



     Writing config-only to output data dir ./outdir/mg2nih4_co.save/ :
     XML data file
     NEW-OLD atomic charge density approx. for the potential
     New effective cutoffs (rho, wfc):  485.88   60.77

     Check: negative core charge=   -0.000003

     total cpu time spent up to now is     5984.9 secs

     Self-consistent Calculation

     iteration #  1     ecut=    60.00 Ry     beta= 0.30
     Davidson diagonalization with overlap
     ethr =  1.00E-06,  avg # of iterations =  3.0

     Threshold (ethr) on eigenvalues was too large:
     Diagonalizing with lowered threshold

     Davidson diagonalization with overlap
     ethr =  6.91E-08,  avg # of iterations =  1.1

     total cpu time spent up to now is     6042.0 secs

     total energy              =   -1926.27301504 Ry
     estimated scf accuracy    <       0.00008212 Ry

     iteration #  2     ecut=    60.00 Ry     beta= 0.30
     Davidson diagonalization with overlap
     ethr =  6.90E-08,  avg # of iterations =  2.2

     total cpu time spent up to now is     6068.2 secs

     total energy              =   -1926.27299855 Ry
     estimated scf accuracy    <       0.00031565 Ry

     iteration #  3     ecut=    60.00 Ry     beta= 0.30
     Davidson diagonalization with overlap
     ethr =  6.90E-08,  avg # of iterations =  3.0

     total cpu time spent up to now is     6096.9 secs

     total energy              =   -1926.27301874 Ry
     estimated scf accuracy    <       0.00010037 Ry

     iteration #  4     ecut=    60.00 Ry     beta= 0.30
     Davidson diagonalization with overlap
     ethr =  6.90E-08,  avg # of iterations =  1.1

     total cpu time spent up to now is     6117.2 secs

     total energy              =   -1926.27302124 Ry
     estimated scf accuracy    <       0.00004408 Ry

     iteration #  5     ecut=    60.00 Ry     beta= 0.30
     Davidson diagonalization with overlap
     ethr =  3.70E-08,  avg # of iterations =  1.0

     total cpu time spent up to now is     6136.1 secs

     total energy              =   -1926.27302451 Ry
     estimated scf accuracy    <       0.00000193 Ry

     iteration #  6     ecut=    60.00 Ry     beta= 0.30
     Davidson diagonalization with overlap
     ethr =  1.62E-09,  avg # of iterations =  2.5

     total cpu time spent up to now is     6166.0 secs

     total energy              =   -1926.27302460 Ry
     estimated scf accuracy    <       0.00000208 Ry

     iteration #  7     ecut=    60.00 Ry     beta= 0.30
     Davidson diagonalization with overlap
     ethr =  1.62E-09,  avg # of iterations =  1.7

     total cpu time spent up to now is     6191.1 secs

     total energy              =   -1926.27302473 Ry
     estimated scf accuracy    <       0.00000037 Ry

     iteration #  8     ecut=    60.00 Ry     beta= 0.30
     Davidson diagonalization with overlap
     ethr =  3.09E-10,  avg # of iterations =  2.0

     total cpu time spent up to now is     6215.8 secs

     total energy              =   -1926.27302477 Ry
     estimated scf accuracy    <       0.00000037 Ry

     iteration #  9     ecut=    60.00 Ry     beta= 0.30
     Davidson diagonalization with overlap
     ethr =  3.09E-10,  avg # of iterations =  1.1

     total cpu time spent up to now is     6236.1 secs

     total energy              =   -1926.27302479 Ry
     estimated scf accuracy    <       0.00000005 Ry

     iteration # 10     ecut=    60.00 Ry     beta= 0.30
     Davidson diagonalization with overlap
     ethr =  4.10E-11,  avg # of iterations =  4.0

     total cpu time spent up to now is     6275.1 secs

     total energy              =   -1926.27302482 Ry
     estimated scf accuracy    <          7.9E-09 Ry

     iteration # 11     ecut=    60.00 Ry     beta= 0.30
     Davidson diagonalization with overlap
     ethr =  6.67E-12,  avg # of iterations =  2.0

     total cpu time spent up to now is     6300.0 secs

     total energy              =   -1926.27302482 Ry
     estimated scf accuracy    <          3.0E-09 Ry

     iteration # 12     ecut=    60.00 Ry     beta= 0.30
     Davidson diagonalization with overlap
     ethr =  2.51E-12,  avg # of iterations =  1.8

     total cpu time spent up to now is     6323.7 secs

     total energy              =   -1926.27302482 Ry
     estimated scf accuracy    <          6.9E-10 Ry

     iteration # 13     ecut=    60.00 Ry     beta= 0.30
     Davidson diagonalization with overlap
     ethr =  5.78E-13,  avg # of iterations =  1.3

     total cpu time spent up to now is     6345.2 secs

     total energy              =   -1926.27302482 Ry
     estimated scf accuracy    <          5.1E-11 Ry

     iteration # 14     ecut=    60.00 Ry     beta= 0.30
     Davidson diagonalization with overlap
     ethr =  1.00E-13,  avg # of iterations =  1.0

     total cpu time spent up to now is     6364.5 secs

     End of self-consistent calculation

     Number of k-points >= 100: set verbosity='high' to print the bands.

     the Fermi energy is     6.9400 ev

!    total energy              =   -1926.27302482 Ry
     estimated scf accuracy    <          5.5E-12 Ry
     smearing contrib. (-TS)   =      -0.00033950 Ry
     internal energy E=F+TS    =   -1926.27268532 Ry

     The total energy is F=E-TS. E is the sum of the following terms:
     one-electron contribution =   -1696.24583288 Ry
     hartree contribution      =     882.89754197 Ry
     xc contribution           =    -198.32785031 Ry
     ewald contribution        =    -695.17593441 Ry
     DFT-D3 Dispersion         =      -0.36793753 Ry
     one-center paw contrib.   =    -219.05267216 Ry

     convergence has been achieved in  14 iterations

     Forces acting on atoms (cartesian axes, Ry/au):

     atom    1 type  1   force =     0.00022114    0.00170507   -0.00020821
     atom    2 type  2   force =    -0.00014972   -0.00076466    0.00038131
     atom    3 type  2   force =    -0.00067278   -0.00012109   -0.00074174
     atom    4 type  2   force =     0.00021800   -0.00002935   -0.00092136
     atom    5 type  2   force =     0.00020490   -0.00001159    0.00045052
     atom    6 type  2   force =    -0.00005316   -0.00026994    0.00016159
     atom    7 type  2   force =    -0.00015945   -0.00022334    0.00037277
     atom    8 type  2   force =     0.00042801    0.00032146   -0.00011862
     atom    9 type  3   force =     0.00000124    0.00039830   -0.00041265
     atom   10 type  3   force =    -0.00025510    0.00021324   -0.00010260
     atom   11 type  3   force =     0.00072912    0.00090656   -0.00050142
     atom   12 type  3   force =     0.00057845   -0.00066896   -0.00044425
     atom   13 type  4   force =    -0.00056690    0.00003170   -0.00049762
     atom   14 type  4   force =     0.00040220    0.00025050   -0.00022723
     atom   15 type  4   force =    -0.00078020   -0.00018716    0.00011195
     atom   16 type  4   force =    -0.00011843   -0.00032343   -0.00025460
     atom   17 type  4   force =    -0.00002371   -0.00031295   -0.00040064
     atom   18 type  4   force =    -0.00012127   -0.00006970   -0.00067586
     atom   19 type  4   force =    -0.00036871    0.00076641    0.00013655
     atom   20 type  4   force =    -0.00064388   -0.00001488   -0.00000102
     atom   21 type  4   force =    -0.00008941    0.00009029    0.00027577
     atom   22 type  4   force =    -0.00071200   -0.00018631    0.00052223
     atom   23 type  4   force =     0.00081613   -0.00126691    0.00042819
     atom   24 type  4   force =     0.00004210   -0.00030703    0.00056183
     atom   25 type  4   force =     0.00059144   -0.00007204    0.00028311
     atom   26 type  4   force =     0.00005616    0.00041548    0.00071868
     atom   27 type  4   force =     0.00018713   -0.00025979    0.00034681
     atom   28 type  4   force =     0.00023868   -0.00000988    0.00075648

     Total force =     0.004347     Total SCF correction =     0.000010


     Computing stress (Cartesian axis) and pressure

          total   stress  (Ry/bohr**3)                   (kbar)     P=       -0.23
  -0.00000286   0.00000068  -0.00000315           -0.42        0.10       -0.46
   0.00000068  -0.00000036   0.00000298            0.10       -0.05        0.44
  -0.00000315   0.00000298  -0.00000147           -0.46        0.44       -0.22

     Energy error            =      4.0E-05 Ry
     Gradient error          =      1.7E-03 Ry/Bohr
     Cell gradient error     =      4.6E-01 kbar

     number of scf cycles    =  16
     number of bfgs steps    =  15

     enthalpy           old  =   -1926.2729847524 Ry
     enthalpy           new  =   -1926.2730248180 Ry

     CASE: enthalpy          _new < enthalpy          _old

     new trust radius        =       0.0158113411 bohr
     new conv_thr            =            4.0E-11 Ry

     new unit-cell volume =   1652.33834 a.u.^3 (   244.85128 Ang^3 )
     density =      3.25507 g/cm^3

CELL_PARAMETERS (angstrom)
   7.532510649  -0.005065301  -0.077127176
  -5.040019398   5.784578071   0.172632138
  -2.307000522   1.160985080   5.670601251

ATOMIC_POSITIONS (angstrom)
Co              -4.2151724259        5.3173466334        5.5160041939
Mg              -3.0135031601        4.9026871353        2.7271000063
Mg               3.2425445927        2.0306340786        2.9989798930
Mg               4.4324962938        1.5467530848        0.1368410702
Mg               0.8109208814        6.5650666364        4.4090773817
Mg              -0.5774417492        0.3258621143        1.4238978999
Mg              -0.5943219921        3.8005120795        4.2705349701
Mg               0.5886618970        3.1935180234        1.4117716923
Ni              -1.7555195849        6.1289982813        5.1789452151
Ni              -1.8115400827        2.5186541702        2.3016038897
Ni               2.0279996775        4.3484462962        3.4392872797
Ni               1.9086505993        0.8480033834        0.5837004354
H               -0.4994361455        5.3528967595        5.6606641335
H               -0.3893422588        2.1069558850        2.7770437643
H                0.6099069429        4.8206480898        2.9986932770
H                0.5916346953        1.4964121114        0.1452579018
H                5.0493776970        1.1248055418        2.0915544966
H                3.8178922440        1.7955857354        5.0183917325
H               -3.2061599504        5.0212166719        0.4719843931
H               -4.8843704857        5.7574266171        4.0627545336
H               -3.1308508222        6.1808923303        4.4233289522
H               -2.5549990871        3.3311221989        1.1178780330
H                3.1892166323        3.9479673428        4.5268964808
H                2.9707067576        0.7005246381        1.6732906613
H                0.4530354825        2.3584326718        4.9739572028
H                2.5749413158        3.7205196101        2.1361471267
H               -2.4317145937        3.1790251860        3.5594033386
H               -0.6067431633        4.7460565933        0.6904970097



     Writing config-only to output data dir ./outdir/mg2nih4_co.save/ :
     XML data file
     NEW-OLD atomic charge density approx. for the potential
     New effective cutoffs (rho, wfc):  486.23   60.80

     Check: negative core charge=   -0.000003

     total cpu time spent up to now is     6380.3 secs

     Self-consistent Calculation

     iteration #  1     ecut=    60.00 Ry     beta= 0.30
     Davidson diagonalization with overlap
     ethr =  1.00E-06,  avg # of iterations =  3.0

     Threshold (ethr) on eigenvalues was too large:
     Diagonalizing with lowered threshold

     Davidson diagonalization with overlap
     ethr =  9.30E-08,  avg # of iterations =  1.0

     total cpu time spent up to now is     6435.5 secs

     total energy              =   -1926.27304773 Ry
     estimated scf accuracy    <       0.00011080 Ry

     iteration #  2     ecut=    60.00 Ry     beta= 0.30
     Davidson diagonalization with overlap
     ethr =  9.31E-08,  avg # of iterations =  3.0

     total cpu time spent up to now is     6465.3 secs

     total energy              =   -1926.27301583 Ry
     estimated scf accuracy    <       0.00078120 Ry

     iteration #  3     ecut=    60.00 Ry     beta= 0.30
     Davidson diagonalization with overlap
     ethr =  9.31E-08,  avg # of iterations =  3.0

     total cpu time spent up to now is     6493.2 secs

     total energy              =   -1926.27306310 Ry
     estimated scf accuracy    <       0.00006770 Ry

     iteration #  4     ecut=    60.00 Ry     beta= 0.30
     Davidson diagonalization with overlap
     ethr =  5.69E-08,  avg # of iterations =  1.0

     total cpu time spent up to now is     6512.2 secs

     total energy              =   -1926.27306453 Ry
     estimated scf accuracy    <       0.00001940 Ry

     iteration #  5     ecut=    60.00 Ry     beta= 0.30
     Davidson diagonalization with overlap
     ethr =  1.63E-08,  avg # of iterations =  1.6

     total cpu time spent up to now is     6536.5 secs

     total energy              =   -1926.27306622 Ry
     estimated scf accuracy    <       0.00000313 Ry

     iteration #  6     ecut=    60.00 Ry     beta= 0.30
     Davidson diagonalization with overlap
     ethr =  2.63E-09,  avg # of iterations =  2.0

     total cpu time spent up to now is     6559.9 secs

     total energy              =   -1926.27306639 Ry
     estimated scf accuracy    <       0.00000053 Ry

     iteration #  7     ecut=    60.00 Ry     beta= 0.30
     Davidson diagonalization with overlap
     ethr =  4.43E-10,  avg # of iterations =  2.0

     total cpu time spent up to now is     6584.7 secs

     total energy              =   -1926.27306642 Ry
     estimated scf accuracy    <       0.00000077 Ry

     iteration #  8     ecut=    60.00 Ry     beta= 0.30
     Davidson diagonalization with overlap
     ethr =  4.43E-10,  avg # of iterations =  1.1

     total cpu time spent up to now is     6605.2 secs

     total energy              =   -1926.27306648 Ry
     estimated scf accuracy    <       0.00000004 Ry

     iteration #  9     ecut=    60.00 Ry     beta= 0.30
     Davidson diagonalization with overlap
     ethr =  3.51E-11,  avg # of iterations =  4.0

     total cpu time spent up to now is     6648.0 secs

     total energy              =   -1926.27306650 Ry
     estimated scf accuracy    <       0.00000003 Ry

     iteration # 10     ecut=    60.00 Ry     beta= 0.30
     Davidson diagonalization with overlap
     ethr =  2.26E-11,  avg # of iterations =  1.0

     total cpu time spent up to now is     6667.1 secs

     total energy              =   -1926.27306651 Ry
     estimated scf accuracy    <          5.9E-09 Ry

     iteration # 11     ecut=    60.00 Ry     beta= 0.30
     Davidson diagonalization with overlap
     ethr =  4.97E-12,  avg # of iterations =  2.0

     total cpu time spent up to now is     6691.3 secs

     total energy              =   -1926.27306651 Ry
     estimated scf accuracy    <          3.5E-09 Ry

     iteration # 12     ecut=    60.00 Ry     beta= 0.30
     Davidson diagonalization with overlap
     ethr =  2.91E-12,  avg # of iterations =  1.6

     total cpu time spent up to now is     6716.7 secs

     total energy              =   -1926.27306651 Ry
     estimated scf accuracy    <          4.8E-10 Ry

     iteration # 13     ecut=    60.00 Ry     beta= 0.30
     Davidson diagonalization with overlap
     ethr =  4.04E-13,  avg # of iterations =  2.0

     total cpu time spent up to now is     6741.0 secs

     total energy              =   -1926.27306651 Ry
     estimated scf accuracy    <          1.0E-10 Ry

     iteration # 14     ecut=    60.00 Ry     beta= 0.30
     Davidson diagonalization with overlap
     ethr =  1.00E-13,  avg # of iterations =  1.2

     total cpu time spent up to now is     6762.0 secs

     End of self-consistent calculation

     Number of k-points >= 100: set verbosity='high' to print the bands.

     the Fermi energy is     6.9401 ev

!    total energy              =   -1926.27306651 Ry
     estimated scf accuracy    <          6.7E-12 Ry
     smearing contrib. (-TS)   =      -0.00033601 Ry
     internal energy E=F+TS    =   -1926.27273050 Ry

     The total energy is F=E-TS. E is the sum of the following terms:
     one-electron contribution =   -1696.32567152 Ry
     hartree contribution      =     882.93630273 Ry
     xc contribution           =    -198.32486451 Ry
     ewald contribution        =    -695.13809540 Ry
     DFT-D3 Dispersion         =      -0.36793471 Ry
     one-center paw contrib.   =    -219.05246708 Ry

     convergence has been achieved in  14 iterations

     Forces acting on atoms (cartesian axes, Ry/au):

     atom    1 type  1   force =     0.00007334    0.00157041   -0.00006336
     atom    2 type  2   force =    -0.00021807   -0.00079796    0.00041880
     atom    3 type  2   force =    -0.00061490    0.00038602   -0.00041899
     atom    4 type  2   force =    -0.00013846   -0.00003642   -0.00116426
     atom    5 type  2   force =    -0.00004814    0.00015295    0.00044225
     atom    6 type  2   force =    -0.00007410   -0.00044187   -0.00000003
     atom    7 type  2   force =    -0.00024761    0.00006170    0.00035749
     atom    8 type  2   force =     0.00065070    0.00046877   -0.00032489
     atom    9 type  3   force =    -0.00022783    0.00011725   -0.00021707
     atom   10 type  3   force =    -0.00058804   -0.00030215    0.00128308
     atom   11 type  3   force =     0.00057756    0.00077582   -0.00071136
     atom   12 type  3   force =     0.00074643   -0.00042533   -0.00051689
     atom   13 type  4   force =    -0.00045598   -0.00001983   -0.00048941
     atom   14 type  4   force =     0.00015424    0.00024697   -0.00030454
     atom   15 type  4   force =    -0.00034677   -0.00019142    0.00022892
     atom   16 type  4   force =    -0.00004104   -0.00023658   -0.00021530
     atom   17 type  4   force =     0.00026897    0.00013459   -0.00024938
     atom   18 type  4   force =     0.00003810   -0.00005331   -0.00070794
     atom   19 type  4   force =    -0.00023963    0.00066642    0.00017381
     atom   20 type  4   force =    -0.00063294   -0.00015627   -0.00003851
     atom   21 type  4   force =     0.00004209   -0.00003520    0.00041682
     atom   22 type  4   force =    -0.00093169    0.00013577    0.00003115
     atom   23 type  4   force =     0.00083383   -0.00114064    0.00027771
     atom   24 type  4   force =    -0.00023554   -0.00044992    0.00029186
     atom   25 type  4   force =     0.00085222   -0.00019428    0.00055822
     atom   26 type  4   force =     0.00009992    0.00034022    0.00076768
     atom   27 type  4   force =     0.00041412   -0.00061990   -0.00045463
     atom   28 type  4   force =     0.00028924    0.00004416    0.00062878

     Total force =     0.004527     Total SCF correction =     0.000007


     Computing stress (Cartesian axis) and pressure

          total   stress  (Ry/bohr**3)                   (kbar)     P=       -0.56
  -0.00000414  -0.00000000  -0.00000321           -0.61       -0.00       -0.47
  -0.00000000  -0.00000391   0.00000245           -0.00       -0.57        0.36
  -0.00000321   0.00000245  -0.00000344           -0.47        0.36       -0.51

     Energy error            =      4.2E-05 Ry
     Gradient error          =      1.6E-03 Ry/Bohr
     Cell gradient error     =      6.1E-01 kbar

     number of scf cycles    =  17
     number of bfgs steps    =  16

     enthalpy           old  =   -1926.2730248180 Ry
     enthalpy           new  =   -1926.2730665068 Ry

     CASE: enthalpy          _new < enthalpy          _old

     new trust radius        =       0.0174903770 bohr
     new conv_thr            =            4.2E-11 Ry

     new unit-cell volume =   1652.05008 a.u.^3 (   244.80857 Ang^3 )
     density =      3.25563 g/cm^3

CELL_PARAMETERS (angstrom)
   7.529923372  -0.003267159  -0.080811183
  -5.036965366   5.786102479   0.175517485
  -2.308701161   1.161460606   5.670151698

ATOMIC_POSITIONS (angstrom)
Co              -4.2145969997        5.3219387043        5.5169610518
Mg              -3.0125538517        4.9027674213        2.7320281303
Mg               3.2370378407        2.0310741301        2.9905564690
Mg               4.4331813552        1.5500461419        0.1317687387
Mg               0.8097861360        6.5679420015        4.4084968086
Mg              -0.5770577654        0.3266568952        1.4253676019
Mg              -0.5938602484        3.8001947851        4.2716870200
Mg               0.5871871801        3.1961920655        1.4108019217
Ni              -1.7568094257        6.1333913678        5.1766889060
Ni              -1.8110797250        2.5201804037        2.3010712153
Ni               2.0260234406        4.3528231539        3.4378594811
Ni               1.9096473408        0.8472175010        0.5850877413
H               -0.5026397479        5.3554883496        5.6586020594
H               -0.3882190458        2.1090853059        2.7770865440
H                0.6052173605        4.8212113251        2.9979296026
H                0.5917972556        1.4947020216        0.1463669406
H                5.0476370159        1.1270585374        2.0858383040
H                3.8141621027        1.7975216144        5.0114549056
H               -3.2052621844        5.0237375522        0.4745084792
H               -4.8843683547        5.7598999687        4.0636678173
H               -3.1340608720        6.1898177377        4.4250450384
H               -2.5538910210        3.3332838489        1.1207391857
H                3.1881916368        3.9516448341        4.5254999940
H                2.9751313289        0.6948035997        1.6706149289
H                0.4500795046        2.3572851175        4.9735665695
H                2.5743672921        3.7279031357        2.1346031728
H               -2.4302650239        3.1780515552        3.5626262817
H               -0.6051866921        4.7482239043        0.6914870777



     Writing config-only to output data dir ./outdir/mg2nih4_co.save/ :
     XML data file
     NEW-OLD atomic charge density approx. for the potential
     New effective cutoffs (rho, wfc):  486.70   60.86

     Check: negative core charge=   -0.000003

     total cpu time spent up to now is     6777.7 secs

     Self-consistent Calculation

     iteration #  1     ecut=    60.00 Ry     beta= 0.30
     Davidson diagonalization with overlap
     ethr =  1.00E-06,  avg # of iterations =  3.1

     total cpu time spent up to now is     6816.9 secs

     total energy              =   -1926.27308176 Ry
     estimated scf accuracy    <       0.00016122 Ry

     iteration #  2     ecut=    60.00 Ry     beta= 0.30
     Davidson diagonalization with overlap
     ethr =  1.35E-07,  avg # of iterations =  3.0

     total cpu time spent up to now is     6846.7 secs

     total energy              =   -1926.27303510 Ry
     estimated scf accuracy    <       0.00118138 Ry

     iteration #  3     ecut=    60.00 Ry     beta= 0.30
     Davidson diagonalization with overlap
     ethr =  1.35E-07,  avg # of iterations =  3.0

     total cpu time spent up to now is     6874.8 secs

     total energy              =   -1926.27310718 Ry
     estimated scf accuracy    <       0.00010019 Ry

     iteration #  4     ecut=    60.00 Ry     beta= 0.30
     Davidson diagonalization with overlap
     ethr =  8.42E-08,  avg # of iterations =  1.0

     total cpu time spent up to now is     6893.9 secs

     total energy              =   -1926.27310985 Ry
     estimated scf accuracy    <       0.00002514 Ry

     iteration #  5     ecut=    60.00 Ry     beta= 0.30
     Davidson diagonalization with overlap
     ethr =  2.11E-08,  avg # of iterations =  1.8

     total cpu time spent up to now is     6918.5 secs

     total energy              =   -1926.27311173 Ry
     estimated scf accuracy    <       0.00000490 Ry

     iteration #  6     ecut=    60.00 Ry     beta= 0.30
     Davidson diagonalization with overlap
     ethr =  4.12E-09,  avg # of iterations =  2.0

     total cpu time spent up to now is     6942.8 secs

     total energy              =   -1926.27311187 Ry
     estimated scf accuracy    <       0.00000654 Ry

     iteration #  7     ecut=    60.00 Ry     beta= 0.30
     Davidson diagonalization with overlap
     ethr =  4.12E-09,  avg # of iterations =  1.9

     total cpu time spent up to now is     6967.8 secs

     total energy              =   -1926.27311234 Ry
     estimated scf accuracy    <       0.00000032 Ry

     iteration #  8     ecut=    60.00 Ry     beta= 0.30
     Davidson diagonalization with overlap
     ethr =  2.65E-10,  avg # of iterations =  4.7

     total cpu time spent up to now is     7008.6 secs

     total energy              =   -1926.27311242 Ry
     estimated scf accuracy    <       0.00000035 Ry

     iteration #  9     ecut=    60.00 Ry     beta= 0.30
     Davidson diagonalization with overlap
     ethr =  2.65E-10,  avg # of iterations =  1.1

     total cpu time spent up to now is     7029.0 secs

     total energy              =   -1926.27311245 Ry
     estimated scf accuracy    <       0.00000005 Ry

     iteration # 10     ecut=    60.00 Ry     beta= 0.30
     Davidson diagonalization with overlap
     ethr =  4.43E-11,  avg # of iterations =  2.1

     total cpu time spent up to now is     7053.9 secs

     total energy              =   -1926.27311245 Ry
     estimated scf accuracy    <          6.9E-09 Ry

     iteration # 11     ecut=    60.00 Ry     beta= 0.30
     Davidson diagonalization with overlap
     ethr =  5.79E-12,  avg # of iterations =  2.2

     total cpu time spent up to now is     7080.1 secs

     total energy              =   -1926.27311246 Ry
     estimated scf accuracy    <          1.6E-09 Ry

     iteration # 12     ecut=    60.00 Ry     beta= 0.30
     Davidson diagonalization with overlap
     ethr =  1.32E-12,  avg # of iterations =  2.3

     total cpu time spent up to now is     7105.8 secs

     total energy              =   -1926.27311246 Ry
     estimated scf accuracy    <          1.2E-09 Ry

     iteration # 13     ecut=    60.00 Ry     beta= 0.30
     Davidson diagonalization with overlap
     ethr =  1.00E-12,  avg # of iterations =  1.0

     total cpu time spent up to now is     7124.9 secs

     total energy              =   -1926.27311246 Ry
     estimated scf accuracy    <          7.5E-11 Ry

     iteration # 14     ecut=    60.00 Ry     beta= 0.30
     Davidson diagonalization with overlap
     ethr =  1.00E-13,  avg # of iterations =  2.6

     total cpu time spent up to now is     7152.1 secs

     End of self-consistent calculation

     Number of k-points >= 100: set verbosity='high' to print the bands.

     the Fermi energy is     6.9424 ev

!    total energy              =   -1926.27311246 Ry
     estimated scf accuracy    <          9.4E-12 Ry
     smearing contrib. (-TS)   =      -0.00033138 Ry
     internal energy E=F+TS    =   -1926.27278107 Ry

     The total energy is F=E-TS. E is the sum of the following terms:
     one-electron contribution =   -1696.38947992 Ry
     hartree contribution      =     882.97396402 Ry
     xc contribution           =    -198.32369245 Ry
     ewald contribution        =    -695.11309729 Ry
     DFT-D3 Dispersion         =      -0.36800514 Ry
     one-center paw contrib.   =    -219.05247030 Ry

     convergence has been achieved in  14 iterations

     Forces acting on atoms (cartesian axes, Ry/au):

     atom    1 type  1   force =    -0.00011960    0.00077795    0.00016576
     atom    2 type  2   force =    -0.00026495   -0.00064576    0.00041545
     atom    3 type  2   force =    -0.00048147    0.00077147   -0.00012207
     atom    4 type  2   force =    -0.00032825    0.00001146   -0.00117320
     atom    5 type  2   force =    -0.00032693    0.00031769    0.00033001
     atom    6 type  2   force =    -0.00011179   -0.00044690   -0.00020073
     atom    7 type  2   force =    -0.00024124    0.00031383    0.00027798
     atom    8 type  2   force =     0.00072659    0.00045124   -0.00040184
     atom    9 type  3   force =    -0.00042840   -0.00016455    0.00008297
     atom   10 type  3   force =    -0.00076812   -0.00080004    0.00222584
     atom   11 type  3   force =     0.00024089    0.00036325   -0.00057067
     atom   12 type  3   force =     0.00070661    0.00007293   -0.00032882
     atom   13 type  4   force =    -0.00014701   -0.00014606   -0.00041948
     atom   14 type  4   force =    -0.00005878    0.00023984   -0.00038612
     atom   15 type  4   force =     0.00017220   -0.00016832    0.00035567
     atom   16 type  4   force =     0.00009897   -0.00012867   -0.00014879
     atom   17 type  4   force =     0.00049903    0.00047180   -0.00009929
     atom   18 type  4   force =     0.00024359    0.00003848   -0.00069895
     atom   19 type  4   force =    -0.00014522    0.00039335    0.00018628
     atom   20 type  4   force =    -0.00060693   -0.00004823   -0.00013978
     atom   21 type  4   force =    -0.00003105   -0.00012650    0.00041779
     atom   22 type  4   force =    -0.00104874    0.00051820   -0.00055507
     atom   23 type  4   force =     0.00078234   -0.00064633    0.00011726
     atom   24 type  4   force =    -0.00047267   -0.00059195    0.00008304
     atom   25 type  4   force =     0.00100354   -0.00030276    0.00065144
     atom   26 type  4   force =     0.00022024    0.00022619    0.00051872
     atom   27 type  4   force =     0.00050593   -0.00090960   -0.00103995
     atom   28 type  4   force =     0.00038122    0.00015801    0.00045657

     Total force =     0.004804     Total SCF correction =     0.000014


     Computing stress (Cartesian axis) and pressure

          total   stress  (Ry/bohr**3)                   (kbar)     P=       -0.66
  -0.00000360  -0.00000057  -0.00000249           -0.53       -0.08       -0.37
  -0.00000057  -0.00000574   0.00000127           -0.08       -0.85        0.19
  -0.00000249   0.00000127  -0.00000407           -0.37        0.19       -0.60

     Energy error            =      4.6E-05 Ry
     Gradient error          =      2.2E-03 Ry/Bohr
     Cell gradient error     =      8.5E-01 kbar

     number of scf cycles    =  18
     number of bfgs steps    =  17

     enthalpy           old  =   -1926.2730665068 Ry
     enthalpy           new  =   -1926.2731124557 Ry

     CASE: enthalpy          _new < enthalpy          _old

     new trust radius        =       0.0178761003 bohr
     new conv_thr            =            4.6E-11 Ry

     new unit-cell volume =   1651.32898 a.u.^3 (   244.70171 Ang^3 )
     density =      3.25706 g/cm^3

CELL_PARAMETERS (angstrom)
   7.526975235  -0.001672956  -0.085159174
  -5.033842790   5.786986834   0.179193791
  -2.310824407   1.162183569   5.669544838

ATOMIC_POSITIONS (angstrom)
Co              -4.2146072589        5.3269341624        5.5183885271
Mg              -3.0119911850        4.9018219433        2.7375681360
Mg               3.2306781586        2.0319645580        2.9816310673
Mg               4.4333371299        1.5530336475        0.1255369178
Mg               0.8076923576        6.5703509807        4.4081419222
Mg              -0.5767617071        0.3272417499        1.4267395324
Mg              -0.5940419460        3.7998483405        4.2730046302
Mg               0.5860341803        3.1988808760        1.4094939698
Ni              -1.7588906389        6.1371629897        5.1746138897
Ni              -1.8112279636        2.5211002165        2.3019786255
Ni               2.0236497434        4.3570047364        3.4359906609
Ni               1.9108770722        0.8463523299        0.5860083576
H               -0.5065754349        5.3575879814        5.6561173647
H               -0.3873042297        2.1112823901        2.7768201773
H                0.6000942911        4.8210738667        2.9974831859
H                0.5919269047        1.4926289621        0.1473539722
H                5.0457872445        1.1294738370        2.0794414424
H                3.8099118814        1.7994029064        5.0032740725
H               -3.2044186300        5.0259762253        0.4777643867
H               -4.8849827433        5.7617859860        4.0650453701
H               -3.1376766444        6.1982232367        4.4273658631
H               -2.5537013206        3.3354747859        1.1236225056
H                3.1870975124        3.9548026349        4.5238173392
H                2.9788639730        0.6884222425        1.6677143020
H                0.4473808291        2.3559099174        4.9733249123
H                2.5735321372        3.7350673944        2.1333355550
H               -2.4287216788        3.1762898746        3.5654375220
H               -0.6036494974        4.7498654783        0.6930981725



     Writing config-only to output data dir ./outdir/mg2nih4_co.save/ :
     XML data file
     NEW-OLD atomic charge density approx. for the potential
     New effective cutoffs (rho, wfc):  487.55   60.95

     Check: negative core charge=   -0.000003

     total cpu time spent up to now is     7167.7 secs

     Self-consistent Calculation

     iteration #  1     ecut=    60.00 Ry     beta= 0.30
     Davidson diagonalization with overlap
     ethr =  1.00E-06,  avg # of iterations =  3.1

     total cpu time spent up to now is     7206.3 secs

     total energy              =   -1926.27312657 Ry
     estimated scf accuracy    <       0.00017264 Ry

     iteration #  2     ecut=    60.00 Ry     beta= 0.30
     Davidson diagonalization with overlap
     ethr =  1.45E-07,  avg # of iterations =  2.4

     total cpu time spent up to now is     7235.5 secs

     total energy              =   -1926.27308860 Ry
     estimated scf accuracy    <       0.00085105 Ry

     iteration #  3     ecut=    60.00 Ry     beta= 0.30
     Davidson diagonalization with overlap
     ethr =  1.45E-07,  avg # of iterations =  3.0

     total cpu time spent up to now is     7263.2 secs

     total energy              =   -1926.27314465 Ry
     estimated scf accuracy    <       0.00020029 Ry

     iteration #  4     ecut=    60.00 Ry     beta= 0.30
     Davidson diagonalization with overlap
     ethr =  1.45E-07,  avg # of iterations =  1.9

     total cpu time spent up to now is     7288.4 secs

     total energy              =   -1926.27315291 Ry
     estimated scf accuracy    <       0.00004433 Ry

     iteration #  5     ecut=    60.00 Ry     beta= 0.30
     Davidson diagonalization with overlap
     ethr =  3.73E-08,  avg # of iterations =  1.9

     total cpu time spent up to now is     7312.8 secs

     total energy              =   -1926.27315610 Ry
     estimated scf accuracy    <       0.00000554 Ry

     iteration #  6     ecut=    60.00 Ry     beta= 0.30
     Davidson diagonalization with overlap
     ethr =  4.65E-09,  avg # of iterations =  2.0

     total cpu time spent up to now is     7337.1 secs

     total energy              =   -1926.27315634 Ry
     estimated scf accuracy    <       0.00000897 Ry

     iteration #  7     ecut=    60.00 Ry     beta= 0.30
     Davidson diagonalization with overlap
     ethr =  4.65E-09,  avg # of iterations =  1.9

     total cpu time spent up to now is     7362.2 secs

     total energy              =   -1926.27315693 Ry
     estimated scf accuracy    <       0.00000041 Ry

     iteration #  8     ecut=    60.00 Ry     beta= 0.30
     Davidson diagonalization with overlap
     ethr =  3.43E-10,  avg # of iterations =  4.3

     total cpu time spent up to now is     7399.9 secs

     total energy              =   -1926.27315702 Ry
     estimated scf accuracy    <       0.00000032 Ry

     iteration #  9     ecut=    60.00 Ry     beta= 0.30
     Davidson diagonalization with overlap
     ethr =  2.65E-10,  avg # of iterations =  1.1

     total cpu time spent up to now is     7420.1 secs

     total energy              =   -1926.27315705 Ry
     estimated scf accuracy    <       0.00000005 Ry

     iteration # 10     ecut=    60.00 Ry     beta= 0.30
     Davidson diagonalization with overlap
     ethr =  3.89E-11,  avg # of iterations =  3.0

     total cpu time spent up to now is     7450.7 secs

     total energy              =   -1926.27315706 Ry
     estimated scf accuracy    <          8.7E-09 Ry

     iteration # 11     ecut=    60.00 Ry     beta= 0.30
     Davidson diagonalization with overlap
     ethr =  7.27E-12,  avg # of iterations =  2.5

     total cpu time spent up to now is     7477.9 secs

     total energy              =   -1926.27315706 Ry
     estimated scf accuracy    <          2.5E-09 Ry

     iteration # 12     ecut=    60.00 Ry     beta= 0.30
     Davidson diagonalization with overlap
     ethr =  2.10E-12,  avg # of iterations =  2.2

     total cpu time spent up to now is     7503.2 secs

     total energy              =   -1926.27315706 Ry
     estimated scf accuracy    <          7.0E-10 Ry

     iteration # 13     ecut=    60.00 Ry     beta= 0.30
     Davidson diagonalization with overlap
     ethr =  5.87E-13,  avg # of iterations =  1.7

     total cpu time spent up to now is     7525.9 secs

     total energy              =   -1926.27315706 Ry
     estimated scf accuracy    <          8.4E-11 Ry

     iteration # 14     ecut=    60.00 Ry     beta= 0.30
     Davidson diagonalization with overlap
     ethr =  1.00E-13,  avg # of iterations =  2.6

     total cpu time spent up to now is     7552.5 secs

     End of self-consistent calculation

     Number of k-points >= 100: set verbosity='high' to print the bands.

     the Fermi energy is     6.9473 ev

!    total energy              =   -1926.27315706 Ry
     estimated scf accuracy    <          4.6E-12 Ry
     smearing contrib. (-TS)   =      -0.00032569 Ry
     internal energy E=F+TS    =   -1926.27283137 Ry

     The total energy is F=E-TS. E is the sum of the following terms:
     one-electron contribution =   -1696.35808985 Ry
     hartree contribution      =     882.97274703 Ry
     xc contribution           =    -198.32505163 Ry
     ewald contribution        =    -695.14153666 Ry
     DFT-D3 Dispersion         =      -0.36816737 Ry
     one-center paw contrib.   =    -219.05273287 Ry

     convergence has been achieved in  14 iterations

     Forces acting on atoms (cartesian axes, Ry/au):

     atom    1 type  1   force =    -0.00029936   -0.00029570    0.00037158
     atom    2 type  2   force =    -0.00028734   -0.00033971    0.00036577
     atom    3 type  2   force =    -0.00030256    0.00089668    0.00007165
     atom    4 type  2   force =    -0.00028800    0.00011326   -0.00089484
     atom    5 type  2   force =    -0.00055246    0.00044339    0.00015139
     atom    6 type  2   force =    -0.00016053   -0.00028964   -0.00036487
     atom    7 type  2   force =    -0.00012694    0.00044626    0.00014248
     atom    8 type  2   force =     0.00060509    0.00025373   -0.00029244
     atom    9 type  3   force =    -0.00048487   -0.00033927    0.00037103
     atom   10 type  3   force =    -0.00068180   -0.00096978    0.00211818
     atom   11 type  3   force =    -0.00010077   -0.00019643   -0.00014840
     atom   12 type  3   force =     0.00043647    0.00062014    0.00003755
     atom   13 type  4   force =     0.00024467   -0.00027814   -0.00031909
     atom   14 type  4   force =    -0.00013670    0.00021305   -0.00043784
     atom   15 type  4   force =     0.00059226   -0.00009896    0.00043884
     atom   16 type  4   force =     0.00024050    0.00000014   -0.00009343
     atom   17 type  4   force =     0.00051967    0.00044345   -0.00000600
     atom   18 type  4   force =     0.00042624    0.00012009   -0.00064014
     atom   19 type  4   force =    -0.00009688    0.00004742    0.00016961
     atom   20 type  4   force =    -0.00056230    0.00022469   -0.00024316
     atom   21 type  4   force =    -0.00025920   -0.00018541    0.00030992
     atom   22 type  4   force =    -0.00098621    0.00073705   -0.00092175
     atom   23 type  4   force =     0.00068246    0.00001377   -0.00005155
     atom   24 type  4   force =    -0.00057311   -0.00068096    0.00004503
     atom   25 type  4   force =     0.00098733   -0.00035196    0.00052906
     atom   26 type  4   force =     0.00038073    0.00012097    0.00005610
     atom   27 type  4   force =     0.00032568   -0.00095623   -0.00107268
     atom   28 type  4   force =     0.00045792    0.00028811    0.00030800

     Total force =     0.004644     Total SCF correction =     0.000013


     Computing stress (Cartesian axis) and pressure

          total   stress  (Ry/bohr**3)                   (kbar)     P=       -0.41
  -0.00000083  -0.00000078  -0.00000142           -0.12       -0.11       -0.21
  -0.00000078  -0.00000496  -0.00000001           -0.11       -0.73       -0.00
  -0.00000142  -0.00000001  -0.00000259           -0.21       -0.00       -0.38

     Energy error            =      4.5E-05 Ry
     Gradient error          =      2.1E-03 Ry/Bohr
     Cell gradient error     =      7.3E-01 kbar

     number of scf cycles    =  19
     number of bfgs steps    =  18

     enthalpy           old  =   -1926.2731124557 Ry
     enthalpy           new  =   -1926.2731570601 Ry

     CASE: enthalpy          _new < enthalpy          _old

     new trust radius        =       0.0150571266 bohr
     new conv_thr            =            4.5E-11 Ry

     new unit-cell volume =   1650.44489 a.u.^3 (   244.57070 Ang^3 )
     density =      3.25880 g/cm^3

CELL_PARAMETERS (angstrom)
   7.524647085  -0.000558775  -0.089127303
  -5.031503568   5.787063909   0.182526161
  -2.312926444   1.162726243   5.668880923

ATOMIC_POSITIONS (angstrom)
Co              -4.2153411704        5.3303142305        5.5198290718
Mg              -3.0120500467        4.9001935327        2.7424339941
Mg               3.2250514806        2.0330092305        2.9740195106
Mg               4.4332856931        1.5552572169        0.1195552966
Mg               0.8051445140        6.5717647925        4.4077507313
Mg              -0.5767016191        0.3275173468        1.4275917088
Mg              -0.5946159374        3.7994088925        4.2740296766
Mg               0.5853774355        3.2008411766        1.4081257638
Ni              -1.7613708612        6.1392779574        5.1730460164
Ni              -1.8120001806        2.5209676510        2.3040112261
Ni               2.0213671869        4.3596790989        3.4341629468
Ni               1.9121187794        0.8459210503        0.5866383760
H               -0.5100787813        5.3584449374        5.6535965153
H               -0.3867903360        2.1129908955        2.7761798527
H                0.5959665974        4.8202288509        2.9972974480
H                0.5921544338        1.4906980546        0.1480434734
H                5.0445287510        1.1314343471        2.0737769585
H                3.8064643210        1.8007180459        4.9955928614
H               -3.2039852382        5.0272680074        0.4807681310
H               -4.8863029423        5.7628480540        4.0661312505
H               -3.1412800987        6.2042811558        4.4294874692
H               -2.5544576350        3.3373933009        1.1255057059
H                3.1864153209        3.9568927079        4.5220229654
H                2.9814388310        0.6824810874        1.6651893924
H                0.4455776237        2.3542491826        4.9732089013
H                2.5729503316        3.7405125597        2.1321261677
H               -2.4275636851        3.1738538976        3.5670885894
H               -0.6022637399        4.7507920145        0.6947069205



     Writing config-only to output data dir ./outdir/mg2nih4_co.save/ :
     XML data file
     NEW-OLD atomic charge density approx. for the potential
     New effective cutoffs (rho, wfc):  488.37   61.05

     Check: negative core charge=   -0.000003

     total cpu time spent up to now is     7568.1 secs

     Self-consistent Calculation

     iteration #  1     ecut=    60.00 Ry     beta= 0.30
     Davidson diagonalization with overlap
     ethr =  1.00E-06,  avg # of iterations =  3.0

     Threshold (ethr) on eigenvalues was too large:
     Diagonalizing with lowered threshold

     Davidson diagonalization with overlap
     ethr =  9.96E-08,  avg # of iterations =  1.1

     total cpu time spent up to now is     7623.8 secs

     total energy              =   -1926.27317608 Ry
     estimated scf accuracy    <       0.00011838 Ry

     iteration #  2     ecut=    60.00 Ry     beta= 0.30
     Davidson diagonalization with overlap
     ethr =  9.95E-08,  avg # of iterations =  2.0

     total cpu time spent up to now is     7648.6 secs

     total energy              =   -1926.27316627 Ry
     estimated scf accuracy    <       0.00020919 Ry

     iteration #  3     ecut=    60.00 Ry     beta= 0.30
     Davidson diagonalization with overlap
     ethr =  9.95E-08,  avg # of iterations =  2.5

     total cpu time spent up to now is     7677.4 secs

     total energy              =   -1926.27317657 Ry
     estimated scf accuracy    <       0.00026772 Ry

     iteration #  4     ecut=    60.00 Ry     beta= 0.30
     Davidson diagonalization with overlap
     ethr =  9.95E-08,  avg # of iterations =  2.0

     total cpu time spent up to now is     7700.7 secs

     total energy              =   -1926.27319018 Ry
     estimated scf accuracy    <       0.00004905 Ry

     iteration #  5     ecut=    60.00 Ry     beta= 0.30
     Davidson diagonalization with overlap
     ethr =  4.12E-08,  avg # of iterations =  1.0

     total cpu time spent up to now is     7719.6 secs

     total energy              =   -1926.27319293 Ry
     estimated scf accuracy    <       0.00000324 Ry

     iteration #  6     ecut=    60.00 Ry     beta= 0.30
     Davidson diagonalization with overlap
     ethr =  2.72E-09,  avg # of iterations =  2.0

     total cpu time spent up to now is     7744.5 secs

     total energy              =   -1926.27319298 Ry
     estimated scf accuracy    <       0.00000769 Ry

     iteration #  7     ecut=    60.00 Ry     beta= 0.30
     Davidson diagonalization with overlap
     ethr =  2.72E-09,  avg # of iterations =  2.0

     total cpu time spent up to now is     7767.9 secs

     total energy              =   -1926.27319350 Ry
     estimated scf accuracy    <       0.00000040 Ry

     iteration #  8     ecut=    60.00 Ry     beta= 0.30
     Davidson diagonalization with overlap
     ethr =  3.32E-10,  avg # of iterations =  2.0

     total cpu time spent up to now is     7792.0 secs

     total energy              =   -1926.27319354 Ry
     estimated scf accuracy    <       0.00000017 Ry

     iteration #  9     ecut=    60.00 Ry     beta= 0.30
     Davidson diagonalization with overlap
     ethr =  1.44E-10,  avg # of iterations =  2.6

     total cpu time spent up to now is     7821.9 secs

     total energy              =   -1926.27319356 Ry
     estimated scf accuracy    <       0.00000005 Ry

     iteration # 10     ecut=    60.00 Ry     beta= 0.30
     Davidson diagonalization with overlap
     ethr =  3.96E-11,  avg # of iterations =  4.2

     total cpu time spent up to now is     7864.2 secs

     total energy              =   -1926.27319358 Ry
     estimated scf accuracy    <          5.7E-09 Ry

     iteration # 11     ecut=    60.00 Ry     beta= 0.30
     Davidson diagonalization with overlap
     ethr =  4.82E-12,  avg # of iterations =  2.0

     total cpu time spent up to now is     7888.7 secs

     total energy              =   -1926.27319358 Ry
     estimated scf accuracy    <          1.5E-09 Ry

     iteration # 12     ecut=    60.00 Ry     beta= 0.30
     Davidson diagonalization with overlap
     ethr =  1.25E-12,  avg # of iterations =  2.0

     total cpu time spent up to now is     7912.2 secs

     total energy              =   -1926.27319358 Ry
     estimated scf accuracy    <          5.3E-10 Ry

     iteration # 13     ecut=    60.00 Ry     beta= 0.30
     Davidson diagonalization with overlap
     ethr =  4.43E-13,  avg # of iterations =  1.0

     total cpu time spent up to now is     7931.2 secs

     End of self-consistent calculation

     Number of k-points >= 100: set verbosity='high' to print the bands.

     the Fermi energy is     6.9528 ev

!    total energy              =   -1926.27319358 Ry
     estimated scf accuracy    <          2.8E-11 Ry
     smearing contrib. (-TS)   =      -0.00032004 Ry
     internal energy E=F+TS    =   -1926.27287354 Ry

     The total energy is F=E-TS. E is the sum of the following terms:
     one-electron contribution =   -1696.21843992 Ry
     hartree contribution      =     882.92051340 Ry
     xc contribution           =    -198.32767892 Ry
     ewald contribution        =    -695.22578610 Ry
     DFT-D3 Dispersion         =      -0.36836247 Ry
     one-center paw contrib.   =    -219.05311952 Ry

     convergence has been achieved in  13 iterations

     Forces acting on atoms (cartesian axes, Ry/au):

     atom    1 type  1   force =    -0.00039049   -0.00102473    0.00044099
     atom    2 type  2   force =    -0.00029064   -0.00000495    0.00029135
     atom    3 type  2   force =    -0.00012769    0.00073818    0.00012948
     atom    4 type  2   force =    -0.00008024    0.00022699   -0.00043223
     atom    5 type  2   force =    -0.00065551    0.00049346   -0.00001680
     atom    6 type  2   force =    -0.00019601   -0.00006786   -0.00041208
     atom    7 type  2   force =     0.00004739    0.00041415   -0.00001123
     atom    8 type  2   force =     0.00034330   -0.00002659   -0.00005337
     atom    9 type  3   force =    -0.00036411   -0.00034290    0.00050976
     atom   10 type  3   force =    -0.00036374   -0.00067307    0.00096773
     atom   11 type  3   force =    -0.00024034   -0.00063178    0.00028515
     atom   12 type  3   force =     0.00005846    0.00091480    0.00036632
     atom   13 type  4   force =     0.00051684   -0.00032375   -0.00024105
     atom   14 type  4   force =    -0.00008031    0.00016660   -0.00043781
     atom   15 type  4   force =     0.00076097   -0.00000748    0.00044676
     atom   16 type  4   force =     0.00031102    0.00013228   -0.00008079
     atom   17 type  4   force =     0.00031187    0.00003389    0.00000262
     atom   18 type  4   force =     0.00050694    0.00008850   -0.00054634
     atom   19 type  4   force =    -0.00006548   -0.00020098    0.00013360
     atom   20 type  4   force =    -0.00049062    0.00043713   -0.00025691
     atom   21 type  4   force =    -0.00047291   -0.00022748    0.00020413
     atom   22 type  4   force =    -0.00075796    0.00064432   -0.00085395
     atom   23 type  4   force =     0.00057136    0.00053352   -0.00021382
     atom   24 type  4   force =    -0.00050856   -0.00069074    0.00017933
     atom   25 type  4   force =     0.00079584   -0.00032286    0.00029964
     atom   26 type  4   force =     0.00049525    0.00009498   -0.00036585
     atom   27 type  4   force =    -0.00007854   -0.00073107   -0.00054758
     atom   28 type  4   force =     0.00044390    0.00035744    0.00021293

     Total force =     0.003972     Total SCF correction =     0.000015


     Computing stress (Cartesian axis) and pressure

          total   stress  (Ry/bohr**3)                   (kbar)     P=       -0.02
   0.00000247  -0.00000057  -0.00000060            0.36       -0.08       -0.09
  -0.00000057  -0.00000272  -0.00000077           -0.08       -0.40       -0.11
  -0.00000060  -0.00000077  -0.00000021           -0.09       -0.11       -0.03

     Energy error            =      3.7E-05 Ry
     Gradient error          =      1.0E-03 Ry/Bohr
     Cell gradient error     =      4.0E-01 kbar

     number of scf cycles    =  20
     number of bfgs steps    =  19

     enthalpy           old  =   -1926.2731570601 Ry
     enthalpy           new  =   -1926.2731935845 Ry

     CASE: enthalpy          _new < enthalpy          _old

     new trust radius        =       0.0110523394 bohr
     new conv_thr            =            3.7E-11 Ry

     new unit-cell volume =   1649.72082 a.u.^3 (   244.46340 Ang^3 )
     density =      3.26023 g/cm^3

CELL_PARAMETERS (angstrom)
   7.523527551   0.000128440  -0.092132882
  -5.030289887   5.786558505   0.184858495
  -2.314738128   1.162857763   5.668320444

ATOMIC_POSITIONS (angstrom)
Co              -4.2166459902        5.3312681988        5.5210056033
Mg              -3.0127019076        4.8985003311        2.7460207642
Mg               3.2210858176        2.0339038728        2.9685012937
Mg               4.4335284633        1.5567779119        0.1148199817
Mg               0.8027429887        6.5723178476        4.4071940001
Mg              -0.5769367306        0.3275737092        1.4278340528
Mg              -0.5951890563        3.7988805047        4.2745707670
Mg               0.5851299223        3.2017914198        1.4070329763
Ni              -1.7637578076        6.1397641939        5.1720947062
Ni              -1.8130997338        2.5200453101        2.3060989643
Ni               2.0196232683        4.3605313047        3.4327968979
Ni               1.9131858636        0.8461552926        0.5872735519
H               -0.5124339701        5.3580839235        5.6513739827
H               -0.3866198091        2.1140418144        2.7752612799
H                0.5935202067        4.8190481913        2.9972817729
H                0.5925687843        1.4892802627        0.1483970868
H                5.0441330411        1.1325315231        2.0695604195
H                3.8045378756        1.8013469702        4.9895000060
H               -3.2040952237        5.0275509651        0.4829270836
H               -4.8882164297        5.7633407520        4.0665680223
H               -3.1446469734        6.2076006892        4.4309894552
H               -2.5558101382        3.3388663437        1.1261715522
H                3.1864558691        3.9580174491        4.5203021387
H                2.9830277357        0.6776431426        1.6634560529
H                0.4447709374        2.3524294980        4.9731733291
H                2.5730035579        3.7439371504        2.1307599523
H               -2.4271533903        3.1711733771        3.5677536146
H               -0.6010136580        4.7512239654        0.6959254826



     Writing config-only to output data dir ./outdir/mg2nih4_co.save/ :
     XML data file
     NEW-OLD atomic charge density approx. for the potential
     New effective cutoffs (rho, wfc):  488.97   61.13

     Check: negative core charge=   -0.000003

     total cpu time spent up to now is     7946.8 secs

     Self-consistent Calculation

     iteration #  1     ecut=    60.00 Ry     beta= 0.30
     Davidson diagonalization with overlap
     ethr =  1.00E-06,  avg # of iterations =  3.0

     Threshold (ethr) on eigenvalues was too large:
     Diagonalizing with lowered threshold

     Davidson diagonalization with overlap
     ethr =  5.27E-08,  avg # of iterations =  1.3

     total cpu time spent up to now is     8004.2 secs

     total energy              =   -1926.27321232 Ry
     estimated scf accuracy    <       0.00006269 Ry

     iteration #  2     ecut=    60.00 Ry     beta= 0.30
     Davidson diagonalization with overlap
     ethr =  5.27E-08,  avg # of iterations =  2.0

     total cpu time spent up to now is     8028.8 secs

     total energy              =   -1926.27321252 Ry
     estimated scf accuracy    <       0.00006215 Ry

     iteration #  3     ecut=    60.00 Ry     beta= 0.30
     Davidson diagonalization with overlap
     ethr =  5.22E-08,  avg # of iterations =  2.0

     total cpu time spent up to now is     8052.2 secs

     total energy              =   -1926.27321571 Ry
     estimated scf accuracy    <       0.00004900 Ry

     iteration #  4     ecut=    60.00 Ry     beta= 0.30
     Davidson diagonalization with overlap
     ethr =  4.12E-08,  avg # of iterations =  2.0

     total cpu time spent up to now is     8075.4 secs

     total energy              =   -1926.27321716 Ry
     estimated scf accuracy    <       0.00007562 Ry

     iteration #  5     ecut=    60.00 Ry     beta= 0.30
     Davidson diagonalization with overlap
     ethr =  4.12E-08,  avg # of iterations =  1.0

     total cpu time spent up to now is     8094.1 secs

     total energy              =   -1926.27322049 Ry
     estimated scf accuracy    <       0.00000236 Ry

     iteration #  6     ecut=    60.00 Ry     beta= 0.30
     Davidson diagonalization with overlap
     ethr =  1.98E-09,  avg # of iterations =  2.2

     total cpu time spent up to now is     8121.1 secs

     total energy              =   -1926.27322071 Ry
     estimated scf accuracy    <       0.00000387 Ry

     iteration #  7     ecut=    60.00 Ry     beta= 0.30
     Davidson diagonalization with overlap
     ethr =  1.98E-09,  avg # of iterations =  1.1

     total cpu time spent up to now is     8141.5 secs

     total energy              =   -1926.27322094 Ry
     estimated scf accuracy    <       0.00000026 Ry

     iteration #  8     ecut=    60.00 Ry     beta= 0.30
     Davidson diagonalization with overlap
     ethr =  2.16E-10,  avg # of iterations =  2.0

     total cpu time spent up to now is     8166.0 secs

     total energy              =   -1926.27322097 Ry
     estimated scf accuracy    <       0.00000017 Ry

     iteration #  9     ecut=    60.00 Ry     beta= 0.30
     Davidson diagonalization with overlap
     ethr =  1.39E-10,  avg # of iterations =  1.7

     total cpu time spent up to now is     8190.4 secs

     total energy              =   -1926.27322098 Ry
     estimated scf accuracy    <       0.00000004 Ry

     iteration # 10     ecut=    60.00 Ry     beta= 0.30
     Davidson diagonalization with overlap
     ethr =  3.08E-11,  avg # of iterations =  4.5

     total cpu time spent up to now is     8231.3 secs

     total energy              =   -1926.27322100 Ry
     estimated scf accuracy    <          4.2E-09 Ry

     iteration # 11     ecut=    60.00 Ry     beta= 0.30
     Davidson diagonalization with overlap
     ethr =  3.49E-12,  avg # of iterations =  1.7

     total cpu time spent up to now is     8256.0 secs

     total energy              =   -1926.27322100 Ry
     estimated scf accuracy    <          1.6E-09 Ry

     iteration # 12     ecut=    60.00 Ry     beta= 0.30
     Davidson diagonalization with overlap
     ethr =  1.31E-12,  avg # of iterations =  1.8

     total cpu time spent up to now is     8279.0 secs

     total energy              =   -1926.27322100 Ry
     estimated scf accuracy    <          4.1E-10 Ry

     iteration # 13     ecut=    60.00 Ry     beta= 0.30
     Davidson diagonalization with overlap
     ethr =  3.43E-13,  avg # of iterations =  1.0

     total cpu time spent up to now is     8298.2 secs

     End of self-consistent calculation

     Number of k-points >= 100: set verbosity='high' to print the bands.

     the Fermi energy is     6.9570 ev

!    total energy              =   -1926.27322100 Ry
     estimated scf accuracy    <          3.0E-11 Ry
     smearing contrib. (-TS)   =      -0.00031537 Ry
     internal energy E=F+TS    =   -1926.27290563 Ry

     The total energy is F=E-TS. E is the sum of the following terms:
     one-electron contribution =   -1696.02220985 Ry
     hartree contribution      =     882.83706991 Ry
     xc contribution           =    -198.32971291 Ry
     ewald contribution        =    -695.33608474 Ry
     DFT-D3 Dispersion         =      -0.36852140 Ry
     one-center paw contrib.   =    -219.05344664 Ry

     convergence has been achieved in  13 iterations

     Forces acting on atoms (cartesian axes, Ry/au):

     atom    1 type  1   force =    -0.00036448   -0.00107998    0.00035805
     atom    2 type  2   force =    -0.00028595    0.00024191    0.00022605
     atom    3 type  2   force =     0.00001208    0.00042612    0.00009888
     atom    4 type  2   force =     0.00014159    0.00029986    0.00001918
     atom    5 type  2   force =    -0.00063982    0.00047187   -0.00012267
     atom    6 type  2   force =    -0.00019739    0.00010113   -0.00033403
     atom    7 type  2   force =     0.00020503    0.00026629   -0.00014755
     atom    8 type  2   force =     0.00007478   -0.00025274    0.00018137
     atom    9 type  3   force =    -0.00014554   -0.00023299    0.00046021
     atom   10 type  3   force =     0.00000760   -0.00011337   -0.00048417
     atom   11 type  3   force =    -0.00014252   -0.00076650    0.00047550
     atom   12 type  3   force =    -0.00023137    0.00082639    0.00050256
     atom   13 type  4   force =     0.00056330   -0.00025418   -0.00021058
     atom   14 type  4   force =     0.00000631    0.00011471   -0.00039529
     atom   15 type  4   force =     0.00069319    0.00006612    0.00039586
     atom   16 type  4   force =     0.00028236    0.00025280   -0.00011306
     atom   17 type  4   force =     0.00001703   -0.00048970   -0.00004086
     atom   18 type  4   force =     0.00047673   -0.00006460   -0.00044659
     atom   19 type  4   force =    -0.00001382   -0.00026282    0.00009431
     atom   20 type  4   force =    -0.00039262    0.00042960   -0.00014615
     atom   21 type  4   force =    -0.00052993   -0.00027268    0.00019443
     atom   22 type  4   force =    -0.00048937    0.00032190   -0.00045401
     atom   23 type  4   force =     0.00048205    0.00074944   -0.00035274
     atom   24 type  4   force =    -0.00035911   -0.00064075    0.00037020
     atom   25 type  4   force =     0.00049797   -0.00024157    0.00012569
     atom   26 type  4   force =     0.00050794    0.00017218   -0.00054921
     atom   27 type  4   force =    -0.00049303   -0.00039706    0.00014730
     atom   28 type  4   force =     0.00031697    0.00032863    0.00014734

     Total force =     0.003454     Total SCF correction =     0.000013


     Computing stress (Cartesian axis) and pressure

          total   stress  (Ry/bohr**3)                   (kbar)     P=        0.30
   0.00000472  -0.00000016  -0.00000027            0.69       -0.02       -0.04
  -0.00000016  -0.00000044  -0.00000089           -0.02       -0.06       -0.13
  -0.00000027  -0.00000089   0.00000177           -0.04       -0.13        0.26

     Energy error            =      2.7E-05 Ry
     Gradient error          =      1.1E-03 Ry/Bohr
     Cell gradient error     =      6.9E-01 kbar

     number of scf cycles    =  21
     number of bfgs steps    =  20

     enthalpy           old  =   -1926.2731935845 Ry
     enthalpy           new  =   -1926.2732209971 Ry

     CASE: enthalpy          _new < enthalpy          _old

     new trust radius        =       0.0083880845 bohr
     new conv_thr            =            2.7E-11 Ry

     new unit-cell volume =   1649.33477 a.u.^3 (   244.40620 Ang^3 )
     density =      3.26099 g/cm^3

CELL_PARAMETERS (angstrom)
   7.523634112   0.000615480  -0.094388626
  -5.030041241   5.785874217   0.186409780
  -2.316387083   1.162698352   5.668000012

ATOMIC_POSITIONS (angstrom)
Co              -4.2184210966        5.3305930889        5.5220945655
Mg              -3.0138589500        4.8971138201        2.7487321827
Mg               3.2185743098        2.0346271135        2.9645199956
Mg               4.4344139434        1.5579990370        0.1112437580
Mg               0.8006060533        6.5726151527        4.4065824290
Mg              -0.5774192854        0.3275937101        1.4277075194
Mg              -0.5955891188        3.7983630698        4.2748063763
Mg               0.5851203099        3.2020346318        1.4063393638
Ni              -1.7659385433        6.1394470929        5.1717100186
Ni              -1.8142697403        2.5189544046        2.3074478459
Ni               2.0185165909        4.3602280023        3.4320014595
Ni               1.9141084047        0.8469204046        0.5880776839
H               -0.5138181351        5.3571185197        5.6494917748
H               -0.3866145553        2.1147306854        2.7741806321
H                0.5923936251        4.8179050191        2.9974928992
H                0.5931772627        1.4883876156        0.1484658464
H                5.0444764917        1.1328093915        2.0664378785
H                3.8039612926        1.8015251827        4.9847171843
H               -3.2046793454        5.0273197535        0.4844291987
H               -4.8907063729        5.7637204247        4.0666580426
H               -3.1479702610        6.2091700543        4.4321581279
H               -2.5575898593        3.3400032118        1.1261621443
H                3.1873013356        3.9588340738        4.5187287363
H                2.9841032068        0.6736456215        1.6625437076
H                0.4446403812        2.3506394434        4.9732762474
H                2.5737566388        3.7462384344        2.1292441548
H               -2.4275558576        3.1685409172        3.5681832639
H               -0.5998376805        4.7515548137        0.6968632780



     Writing config-only to output data dir ./outdir/mg2nih4_co.save/ :
     XML data file
     NEW-OLD atomic charge density approx. for the potential
     New effective cutoffs (rho, wfc):  489.35   61.17

     Check: negative core charge=   -0.000003

     total cpu time spent up to now is     8313.8 secs

     Self-consistent Calculation

     iteration #  1     ecut=    60.00 Ry     beta= 0.30
     Davidson diagonalization with overlap
     ethr =  1.00E-06,  avg # of iterations =  3.0

     Threshold (ethr) on eigenvalues was too large:
     Diagonalizing with lowered threshold

     Davidson diagonalization with overlap
     ethr =  3.07E-08,  avg # of iterations =  1.8

     total cpu time spent up to now is     8373.3 secs

     total energy              =   -1926.27323877 Ry
     estimated scf accuracy    <       0.00003661 Ry

     iteration #  2     ecut=    60.00 Ry     beta= 0.30
     Davidson diagonalization with overlap
     ethr =  3.08E-08,  avg # of iterations =  2.0

     total cpu time spent up to now is     8398.0 secs

     total energy              =   -1926.27323401 Ry
     estimated scf accuracy    <       0.00009816 Ry

     iteration #  3     ecut=    60.00 Ry     beta= 0.30
     Davidson diagonalization with overlap
     ethr =  3.08E-08,  avg # of iterations =  2.9

     total cpu time spent up to now is     8427.4 secs

     total energy              =   -1926.27323945 Ry
     estimated scf accuracy    <       0.00006219 Ry

     iteration #  4     ecut=    60.00 Ry     beta= 0.30
     Davidson diagonalization with overlap
     ethr =  3.08E-08,  avg # of iterations =  2.0

     total cpu time spent up to now is     8450.4 secs

     total energy              =   -1926.27324219 Ry
     estimated scf accuracy    <       0.00001971 Ry

     iteration #  5     ecut=    60.00 Ry     beta= 0.30
     Davidson diagonalization with overlap
     ethr =  1.66E-08,  avg # of iterations =  1.0

     total cpu time spent up to now is     8469.7 secs

     total energy              =   -1926.27324325 Ry
     estimated scf accuracy    <       0.00000365 Ry

     iteration #  6     ecut=    60.00 Ry     beta= 0.30
     Davidson diagonalization with overlap
     ethr =  3.07E-09,  avg # of iterations =  2.0

     total cpu time spent up to now is     8493.0 secs

     total energy              =   -1926.27324362 Ry
     estimated scf accuracy    <       0.00000095 Ry

     iteration #  7     ecut=    60.00 Ry     beta= 0.30
     Davidson diagonalization with overlap
     ethr =  7.97E-10,  avg # of iterations =  1.0

     total cpu time spent up to now is     8511.9 secs

     total energy              =   -1926.27324368 Ry
     estimated scf accuracy    <       0.00000010 Ry

     iteration #  8     ecut=    60.00 Ry     beta= 0.30
     Davidson diagonalization with overlap
     ethr =  8.44E-11,  avg # of iterations =  4.2

     total cpu time spent up to now is     8549.0 secs

     total energy              =   -1926.27324369 Ry
     estimated scf accuracy    <       0.00000016 Ry

     iteration #  9     ecut=    60.00 Ry     beta= 0.30
     Davidson diagonalization with overlap
     ethr =  8.44E-11,  avg # of iterations =  1.8

     total cpu time spent up to now is     8572.5 secs

     total energy              =   -1926.27324371 Ry
     estimated scf accuracy    <          9.7E-09 Ry

     iteration # 10     ecut=    60.00 Ry     beta= 0.30
     Davidson diagonalization with overlap
     ethr =  8.13E-12,  avg # of iterations =  3.8

     total cpu time spent up to now is     8608.8 secs

     total energy              =   -1926.27324371 Ry
     estimated scf accuracy    <          2.2E-09 Ry

     iteration # 11     ecut=    60.00 Ry     beta= 0.30
     Davidson diagonalization with overlap
     ethr =  1.83E-12,  avg # of iterations =  2.2

     total cpu time spent up to now is     8634.0 secs

     total energy              =   -1926.27324371 Ry
     estimated scf accuracy    <          1.5E-09 Ry

     iteration # 12     ecut=    60.00 Ry     beta= 0.30
     Davidson diagonalization with overlap
     ethr =  1.29E-12,  avg # of iterations =  1.2

     total cpu time spent up to now is     8654.3 secs

     total energy              =   -1926.27324371 Ry
     estimated scf accuracy    <          1.6E-10 Ry

     iteration # 13     ecut=    60.00 Ry     beta= 0.30
     Davidson diagonalization with overlap
     ethr =  1.33E-13,  avg # of iterations =  2.4

     total cpu time spent up to now is     8681.1 secs

     End of self-consistent calculation

     Number of k-points >= 100: set verbosity='high' to print the bands.

     the Fermi energy is     6.9590 ev

!    total energy              =   -1926.27324371 Ry
     estimated scf accuracy    <          2.3E-11 Ry
     smearing contrib. (-TS)   =      -0.00031162 Ry
     internal energy E=F+TS    =   -1926.27293209 Ry

     The total energy is F=E-TS. E is the sum of the following terms:
     one-electron contribution =   -1695.84732028 Ry
     hartree contribution      =     882.75754980 Ry
     xc contribution           =    -198.32991323 Ry
     ewald contribution        =    -695.43103790 Ry
     DFT-D3 Dispersion         =      -0.36860708 Ry
     one-center paw contrib.   =    -219.05360340 Ry

     convergence has been achieved in  13 iterations

     Forces acting on atoms (cartesian axes, Ry/au):

     atom    1 type  1   force =    -0.00023473   -0.00058197    0.00018677
     atom    2 type  2   force =    -0.00028032    0.00038030    0.00018897
     atom    3 type  2   force =     0.00012488    0.00008704    0.00003935
     atom    4 type  2   force =     0.00028398    0.00030873    0.00034508
     atom    5 type  2   force =    -0.00054220    0.00040483   -0.00017288
     atom    6 type  2   force =    -0.00016246    0.00017677   -0.00018198
     atom    7 type  2   force =     0.00030958    0.00007056   -0.00025902
     atom    8 type  2   force =    -0.00011838   -0.00036363    0.00032759
     atom    9 type  3   force =     0.00005359   -0.00010688    0.00029123
     atom   10 type  3   force =     0.00025524    0.00041595   -0.00153601
     atom   11 type  3   force =     0.00009282   -0.00062132    0.00039562
     atom   12 type  3   force =    -0.00035765    0.00045557    0.00043971
     atom   13 type  4   force =     0.00042199   -0.00010759   -0.00021276
     atom   14 type  4   force =     0.00002100    0.00007151   -0.00033503
     atom   15 type  4   force =     0.00051203    0.00010232    0.00032075
     atom   16 type  4   force =     0.00019429    0.00035241   -0.00016463
     atom   17 type  4   force =    -0.00021168   -0.00084730   -0.00008341
     atom   18 type  4   force =     0.00037900   -0.00027308   -0.00035420
     atom   19 type  4   force =     0.00006596   -0.00017586    0.00005394
     atom   20 type  4   force =    -0.00028127    0.00022155    0.00005660
     atom   21 type  4   force =    -0.00041803   -0.00032984    0.00029022
     atom   22 type  4   force =    -0.00027571   -0.00005563    0.00003916
     atom   23 type  4   force =     0.00041418    0.00070708   -0.00046186
     atom   24 type  4   force =    -0.00021399   -0.00055465    0.00051194
     atom   25 type  4   force =     0.00015826   -0.00014160    0.00008148
     atom   26 type  4   force =     0.00043022    0.00031995   -0.00049652
     atom   27 type  4   force =    -0.00073922   -0.00013543    0.00062162
     atom   28 type  4   force =     0.00011860    0.00022021    0.00006828

     Total force =     0.003397     Total SCF correction =     0.000013


     Computing stress (Cartesian axis) and pressure

          total   stress  (Ry/bohr**3)                   (kbar)     P=        0.35
   0.00000465   0.00000022  -0.00000023            0.68        0.03       -0.03
   0.00000022   0.00000041  -0.00000070            0.03        0.06       -0.10
  -0.00000023  -0.00000070   0.00000200           -0.03       -0.10        0.29

     Energy error            =      2.3E-05 Ry
     Gradient error          =      1.5E-03 Ry/Bohr
     Cell gradient error     =      6.8E-01 kbar

     number of scf cycles    =  22
     number of bfgs steps    =  21

     enthalpy           old  =   -1926.2732209971 Ry
     enthalpy           new  =   -1926.2732437099 Ry

     CASE: enthalpy          _new < enthalpy          _old

     new trust radius        =       0.0087611533 bohr
     new conv_thr            =            2.3E-11 Ry

     new unit-cell volume =   1649.15524 a.u.^3 (   244.37959 Ang^3 )
     density =      3.26135 g/cm^3

CELL_PARAMETERS (angstrom)
   7.524605617   0.001183150  -0.096634475
  -5.030314177   5.785031662   0.187796796
  -2.318275283   1.162334325   5.667801142

ATOMIC_POSITIONS (angstrom)
Co              -4.2207436563        5.3291531823        5.5233009005
Mg              -3.0155485412        4.8958602321        2.7514880313
Mg               3.2165958668        2.0352615115        2.9606290105
Mg               4.4360897804        1.5594337522        0.1079093660
Mg               0.7983057718        6.5730044692        4.4057921695
Mg              -0.5781341914        0.3276838399        1.4274351861
Mg              -0.5957954606        3.7977051455        4.2748332056
Mg               0.5851533563        3.2018782570        1.4058936990
Ni              -1.7682332424        6.1388019298        5.1715439595
Ni              -1.8154946743        2.5179877064        2.3077715280
Ni               2.0178177503        4.3593413213        3.4314256543
Ni               1.9150461389        0.8480087688        0.5891847844
H               -0.5148665190        5.3558180262        5.6474466027
H               -0.3866698577        2.1153818476        2.7728047775
H                0.5918439016        4.8167121192        2.9979049689
H                0.5940246496        1.4877773474        0.1483279537
H                5.0452597921        1.1324365115        2.0633258483
H                3.8041454226        1.8013958684        4.9798065121
H               -3.2055781417        5.0268624269        0.4858169530
H               -4.8939858905        5.7640839048        4.0667323255
H               -3.1518777706        6.2100738200        4.4334955054
H               -2.5598775853        3.3409723710        1.1260806417
H                3.1889203393        3.9598825899        4.5168475087
H                2.9852204253        0.6693674042        1.6621114809
H                0.4447127437        2.3486218968        4.9735111615
H                2.5751760707        3.7486318597        2.1273317399
H               -2.4287437279        3.1655903873        3.5689656376
H               -0.5985365416        4.7519594323        0.6977713692



     Writing config-only to output data dir ./outdir/mg2nih4_co.save/ :
     XML data file
     NEW-OLD atomic charge density approx. for the potential
     New effective cutoffs (rho, wfc):  489.67   61.21

     Check: negative core charge=   -0.000003

     total cpu time spent up to now is     8696.7 secs

     Self-consistent Calculation

     iteration #  1     ecut=    60.00 Ry     beta= 0.30
     Davidson diagonalization with overlap
     ethr =  1.00E-06,  avg # of iterations =  3.0

     Threshold (ethr) on eigenvalues was too large:
     Diagonalizing with lowered threshold

     Davidson diagonalization with overlap
     ethr =  3.20E-08,  avg # of iterations =  1.9

     total cpu time spent up to now is     8756.7 secs

     total energy              =   -1926.27326241 Ry
     estimated scf accuracy    <       0.00003817 Ry

     iteration #  2     ecut=    60.00 Ry     beta= 0.30
     Davidson diagonalization with overlap
     ethr =  3.21E-08,  avg # of iterations =  2.0

     total cpu time spent up to now is     8781.0 secs

     total energy              =   -1926.27326041 Ry
     estimated scf accuracy    <       0.00004228 Ry

     iteration #  3     ecut=    60.00 Ry     beta= 0.30
     Davidson diagonalization with overlap
     ethr =  3.21E-08,  avg # of iterations =  2.0

     total cpu time spent up to now is     8804.5 secs

     total energy              =   -1926.27326241 Ry
     estimated scf accuracy    <       0.00005343 Ry

     iteration #  4     ecut=    60.00 Ry     beta= 0.30
     Davidson diagonalization with overlap
     ethr =  3.21E-08,  avg # of iterations =  2.0

     total cpu time spent up to now is     8827.5 secs

     total energy              =   -1926.27326396 Ry
     estimated scf accuracy    <       0.00004330 Ry

     iteration #  5     ecut=    60.00 Ry     beta= 0.30
     Davidson diagonalization with overlap
     ethr =  3.21E-08,  avg # of iterations =  1.0

     total cpu time spent up to now is     8846.3 secs

     total energy              =   -1926.27326614 Ry
     estimated scf accuracy    <       0.00000216 Ry

     iteration #  6     ecut=    60.00 Ry     beta= 0.30
     Davidson diagonalization with overlap
     ethr =  1.81E-09,  avg # of iterations =  2.0

     total cpu time spent up to now is     8870.6 secs

     total energy              =   -1926.27326635 Ry
     estimated scf accuracy    <       0.00000152 Ry

     iteration #  7     ecut=    60.00 Ry     beta= 0.30
     Davidson diagonalization with overlap
     ethr =  1.27E-09,  avg # of iterations =  1.2

     total cpu time spent up to now is     8891.4 secs

     total energy              =   -1926.27326645 Ry
     estimated scf accuracy    <       0.00000013 Ry

     iteration #  8     ecut=    60.00 Ry     beta= 0.30
     Davidson diagonalization with overlap
     ethr =  1.12E-10,  avg # of iterations =  3.3

     total cpu time spent up to now is     8927.3 secs

     total energy              =   -1926.27326647 Ry
     estimated scf accuracy    <       0.00000016 Ry

     iteration #  9     ecut=    60.00 Ry     beta= 0.30
     Davidson diagonalization with overlap
     ethr =  1.12E-10,  avg # of iterations =  1.5

     total cpu time spent up to now is     8951.4 secs

     total energy              =   -1926.27326649 Ry
     estimated scf accuracy    <       0.00000002 Ry

     iteration # 10     ecut=    60.00 Ry     beta= 0.30
     Davidson diagonalization with overlap
     ethr =  1.50E-11,  avg # of iterations =  4.0

     total cpu time spent up to now is     8988.6 secs

     total energy              =   -1926.27326649 Ry
     estimated scf accuracy    <          2.6E-09 Ry

     iteration # 11     ecut=    60.00 Ry     beta= 0.30
     Davidson diagonalization with overlap
     ethr =  2.20E-12,  avg # of iterations =  2.1

     total cpu time spent up to now is     9012.9 secs

     total energy              =   -1926.27326649 Ry
     estimated scf accuracy    <          2.9E-09 Ry

     iteration # 12     ecut=    60.00 Ry     beta= 0.30
     Davidson diagonalization with overlap
     ethr =  2.20E-12,  avg # of iterations =  1.5

     total cpu time spent up to now is     9036.8 secs

     total energy              =   -1926.27326649 Ry
     estimated scf accuracy    <          2.8E-10 Ry

     iteration # 13     ecut=    60.00 Ry     beta= 0.30
     Davidson diagonalization with overlap
     ethr =  2.34E-13,  avg # of iterations =  2.0

     total cpu time spent up to now is     9060.7 secs

     total energy              =   -1926.27326649 Ry
     estimated scf accuracy    <          3.0E-11 Ry

     iteration # 14     ecut=    60.00 Ry     beta= 0.30
     Davidson diagonalization with overlap
     ethr =  1.00E-13,  avg # of iterations =  1.1

     total cpu time spent up to now is     9079.8 secs

     End of self-consistent calculation

     Number of k-points >= 100: set verbosity='high' to print the bands.

     the Fermi energy is     6.9598 ev

!    total energy              =   -1926.27326649 Ry
     estimated scf accuracy    <          3.2E-12 Ry
     smearing contrib. (-TS)   =      -0.00030792 Ry
     internal energy E=F+TS    =   -1926.27295857 Ry

     The total energy is F=E-TS. E is the sum of the following terms:
     one-electron contribution =   -1695.70475356 Ry
     hartree contribution      =     882.69054676 Ry
     xc contribution           =    -198.32856940 Ry
     ewald contribution        =    -695.50789828 Ry
     DFT-D3 Dispersion         =      -0.36864890 Ry
     one-center paw contrib.   =    -219.05363519 Ry

     convergence has been achieved in  14 iterations

     Forces acting on atoms (cartesian axes, Ry/au):

     atom    1 type  1   force =    -0.00002180    0.00022224   -0.00001020
     atom    2 type  2   force =    -0.00026942    0.00044180    0.00018214
     atom    3 type  2   force =     0.00023289   -0.00023751   -0.00001930
     atom    4 type  2   force =     0.00032790    0.00024879    0.00053126
     atom    5 type  2   force =    -0.00038406    0.00030484   -0.00019691
     atom    6 type  2   force =    -0.00009101    0.00017338    0.00000385
     atom    7 type  2   force =     0.00036185   -0.00014285   -0.00035679
     atom    8 type  2   force =    -0.00022201   -0.00036455    0.00036837
     atom    9 type  3   force =     0.00020195   -0.00001902    0.00005321
     atom   10 type  3   force =     0.00030719    0.00076522   -0.00192450
     atom   11 type  3   force =     0.00034901   -0.00028868    0.00011979
     atom   12 type  3   force =    -0.00033433   -0.00006459    0.00025403
     atom   13 type  4   force =     0.00017283    0.00007043   -0.00021503
     atom   14 type  4   force =    -0.00007807    0.00003503   -0.00026172
     atom   15 type  4   force =     0.00029789    0.00010741    0.00023509
     atom   16 type  4   force =     0.00007943    0.00043621   -0.00021655
     atom   17 type  4   force =    -0.00030733   -0.00091242   -0.00008989
     atom   18 type  4   force =     0.00025331   -0.00047042   -0.00026112
     atom   19 type  4   force =     0.00015855   -0.00001404    0.00000619
     atom   20 type  4   force =    -0.00015859   -0.00009588    0.00032016
     atom   21 type  4   force =    -0.00018938   -0.00039530    0.00045614
     atom   22 type  4   force =    -0.00014011   -0.00037679    0.00047476
     atom   23 type  4   force =     0.00035625    0.00050402   -0.00053991
     atom   24 type  4   force =    -0.00011862   -0.00043316    0.00056330
     atom   25 type  4   force =    -0.00020762   -0.00003157    0.00015010
     atom   26 type  4   force =     0.00029697    0.00050049   -0.00030472
     atom   27 type  4   force =    -0.00075814   -0.00002378    0.00071960
     atom   28 type  4   force =    -0.00011550    0.00006069   -0.00004133

     Total force =     0.003500     Total SCF correction =     0.000005


     Computing stress (Cartesian axis) and pressure

          total   stress  (Ry/bohr**3)                   (kbar)     P=        0.21
   0.00000293   0.00000050  -0.00000016            0.43        0.07       -0.02
   0.00000050   0.00000036  -0.00000051            0.07        0.05       -0.08
  -0.00000016  -0.00000051   0.00000100           -0.02       -0.08        0.15

     Energy error            =      2.3E-05 Ry
     Gradient error          =      1.9E-03 Ry/Bohr
     Cell gradient error     =      4.3E-01 kbar

     number of scf cycles    =  23
     number of bfgs steps    =  22

     enthalpy           old  =   -1926.2732437099 Ry
     enthalpy           new  =   -1926.2732664925 Ry

     CASE: enthalpy          _new < enthalpy          _old

     new trust radius        =       0.0091681465 bohr
     new conv_thr            =            2.3E-11 Ry

     new unit-cell volume =   1649.12653 a.u.^3 (   244.37534 Ang^3 )
     density =      3.26141 g/cm^3

CELL_PARAMETERS (angstrom)
   7.526132342   0.001840826  -0.098843560
  -5.030890817   5.784152675   0.189116851
  -2.320287562   1.161904871   5.667658617

ATOMIC_POSITIONS (angstrom)
Co              -4.2232749946        5.3278939905        5.5245288841
Mg              -3.0175765097        4.8948208346        2.7542698888
Mg               3.2150917999        2.0357426785        2.9568038197
Mg               4.4383496165        1.5610407456        0.1049567969
Mg               0.7959175830        6.5735954754        4.4048842869
Mg              -0.5789261007        0.3278886499        1.4271937062
Mg              -0.5957672589        3.7969193858        4.2746095889
Mg               0.5852005496        3.2014870187        1.4056855231
Ni              -1.7704090844        6.1381092404        5.1714422679
Ni              -1.8166096163        2.5175238186        2.3068223735
Ni               2.0176171122        4.3583206829        3.4309516225
Ni               1.9159224207        0.8490426832        0.5903909391
H               -0.5157418888        5.3545390997        5.6452282957
H               -0.3867860848        2.1160700845        2.7712084786
H                0.5916265408        4.8155757691        2.9985361808
H                0.5949845098        1.4874938732        0.1479453889
H                5.0462465766        1.1315336799        2.0602098391
H                3.8048205370        1.8009507288        4.9747576285
H               -3.2065291143        5.0264349710        0.4871567586
H               -4.8976680163        5.7642793626        4.0670875276
H               -3.1559709534        6.2104984276        4.4351478432
H               -2.5625469067        3.3416232419        1.1263033750
H                3.1911707759        3.9613296245        4.5146763832
H                2.9862556714        0.6649220599        1.6622001953
H                0.4447738806        2.3466522782        4.9738955124
H                2.5770382774        3.7513806019        2.1253242906
H               -2.4305181141        3.1625252066        3.5701753548
H               -0.5973357252        4.7523829981        0.6986539490



     Writing config-only to output data dir ./outdir/mg2nih4_co.save/ :
     XML data file
     NEW-OLD atomic charge density approx. for the potential
     New effective cutoffs (rho, wfc):  489.95   61.24

     Check: negative core charge=   -0.000003

     total cpu time spent up to now is     9095.4 secs

     Self-consistent Calculation

     iteration #  1     ecut=    60.00 Ry     beta= 0.30
     Davidson diagonalization with overlap
     ethr =  1.00E-06,  avg # of iterations =  3.0

     Threshold (ethr) on eigenvalues was too large:
     Diagonalizing with lowered threshold

     Davidson diagonalization with overlap
     ethr =  4.13E-08,  avg # of iterations =  1.6

     total cpu time spent up to now is     9154.4 secs

     total energy              =   -1926.27328244 Ry
     estimated scf accuracy    <       0.00004923 Ry

     iteration #  2     ecut=    60.00 Ry     beta= 0.30
     Davidson diagonalization with overlap
     ethr =  4.14E-08,  avg # of iterations =  2.0

     total cpu time spent up to now is     9178.9 secs

     total energy              =   -1926.27327561 Ry
     estimated scf accuracy    <       0.00011597 Ry

     iteration #  3     ecut=    60.00 Ry     beta= 0.30
     Davidson diagonalization with overlap
     ethr =  4.14E-08,  avg # of iterations =  3.0

     total cpu time spent up to now is     9207.7 secs

     total energy              =   -1926.27328325 Ry
     estimated scf accuracy    <       0.00009584 Ry

     iteration #  4     ecut=    60.00 Ry     beta= 0.30
     Davidson diagonalization with overlap
     ethr =  4.14E-08,  avg # of iterations =  2.0

     total cpu time spent up to now is     9230.7 secs

     total energy              =   -1926.27328661 Ry
     estimated scf accuracy    <       0.00003071 Ry

     iteration #  5     ecut=    60.00 Ry     beta= 0.30
     Davidson diagonalization with overlap
     ethr =  2.58E-08,  avg # of iterations =  1.0

     total cpu time spent up to now is     9249.5 secs

     total energy              =   -1926.27328858 Ry
     estimated scf accuracy    <       0.00000122 Ry

     iteration #  6     ecut=    60.00 Ry     beta= 0.30
     Davidson diagonalization with overlap
     ethr =  1.02E-09,  avg # of iterations =  2.0

     total cpu time spent up to now is     9274.7 secs

     total energy              =   -1926.27328868 Ry
     estimated scf accuracy    <       0.00000079 Ry

     iteration #  7     ecut=    60.00 Ry     beta= 0.30
     Davidson diagonalization with overlap
     ethr =  6.62E-10,  avg # of iterations =  1.0

     total cpu time spent up to now is     9293.5 secs

     total energy              =   -1926.27328871 Ry
     estimated scf accuracy    <       0.00000026 Ry

     iteration #  8     ecut=    60.00 Ry     beta= 0.30
     Davidson diagonalization with overlap
     ethr =  2.17E-10,  avg # of iterations =  2.0

     total cpu time spent up to now is     9316.9 secs

     total energy              =   -1926.27328874 Ry
     estimated scf accuracy    <       0.00000005 Ry

     iteration #  9     ecut=    60.00 Ry     beta= 0.30
     Davidson diagonalization with overlap
     ethr =  3.80E-11,  avg # of iterations =  4.2

     total cpu time spent up to now is     9354.6 secs

     total energy              =   -1926.27328875 Ry
     estimated scf accuracy    <       0.00000003 Ry

     iteration # 10     ecut=    60.00 Ry     beta= 0.30
     Davidson diagonalization with overlap
     ethr =  2.38E-11,  avg # of iterations =  1.1

     total cpu time spent up to now is     9374.7 secs

     total energy              =   -1926.27328875 Ry
     estimated scf accuracy    <          2.0E-09 Ry

     iteration # 11     ecut=    60.00 Ry     beta= 0.30
     Davidson diagonalization with overlap
     ethr =  1.67E-12,  avg # of iterations =  2.0

     total cpu time spent up to now is     9399.3 secs

     total energy              =   -1926.27328875 Ry
     estimated scf accuracy    <          9.0E-10 Ry

     iteration # 12     ecut=    60.00 Ry     beta= 0.30
     Davidson diagonalization with overlap
     ethr =  7.60E-13,  avg # of iterations =  1.1

     total cpu time spent up to now is     9418.9 secs

     total energy              =   -1926.27328875 Ry
     estimated scf accuracy    <          2.1E-10 Ry

     iteration # 13     ecut=    60.00 Ry     beta= 0.30
     Davidson diagonalization with overlap
     ethr =  1.79E-13,  avg # of iterations =  2.0

     total cpu time spent up to now is     9442.2 secs

     End of self-consistent calculation

     Number of k-points >= 100: set verbosity='high' to print the bands.

     the Fermi energy is     6.9601 ev

!    total energy              =   -1926.27328875 Ry
     estimated scf accuracy    <          2.2E-11 Ry
     smearing contrib. (-TS)   =      -0.00030429 Ry
     internal energy E=F+TS    =   -1926.27298446 Ry

     The total energy is F=E-TS. E is the sum of the following terms:
     one-electron contribution =   -1695.64012515 Ry
     hartree contribution      =     882.65974655 Ry
     xc contribution           =    -198.32629788 Ry
     ewald contribution        =    -695.54407582 Ry
     DFT-D3 Dispersion         =      -0.36865829 Ry
     one-center paw contrib.   =    -219.05357387 Ry

     convergence has been achieved in  13 iterations

     Forces acting on atoms (cartesian axes, Ry/au):

     atom    1 type  1   force =     0.00021723    0.00094643   -0.00015449
     atom    2 type  2   force =    -0.00024561    0.00042967    0.00021090
     atom    3 type  2   force =     0.00031870   -0.00046926   -0.00006163
     atom    4 type  2   force =     0.00027086    0.00012861    0.00052595
     atom    5 type  2   force =    -0.00018816    0.00018783   -0.00020528
     atom    6 type  2   force =     0.00000387    0.00010906    0.00015672
     atom    7 type  2   force =     0.00035217   -0.00032383   -0.00042134
     atom    8 type  2   force =    -0.00021601   -0.00026428    0.00029133
     atom    9 type  3   force =     0.00026361   -0.00001543   -0.00016993
     atom   10 type  3   force =     0.00012707    0.00076203   -0.00148994
     atom   11 type  3   force =     0.00049565    0.00010485   -0.00020549
     atom   12 type  3   force =    -0.00020200   -0.00052020    0.00005173
     atom   13 type  4   force =    -0.00007632    0.00020739   -0.00018799
     atom   14 type  4   force =    -0.00028532    0.00000970   -0.00018630
     atom   15 type  4   force =     0.00012559    0.00009052    0.00015295
     atom   16 type  4   force =    -0.00000447    0.00047628   -0.00023647
     atom   17 type  4   force =    -0.00022219   -0.00060903   -0.00004269
     atom   18 type  4   force =     0.00014249   -0.00056165   -0.00017302
     atom   19 type  4   force =     0.00021373    0.00013657   -0.00004907
     atom   20 type  4   force =    -0.00005712   -0.00036158    0.00056532
     atom   21 type  4   force =     0.00004918   -0.00043725    0.00061205
     atom   22 type  4   force =    -0.00009709   -0.00050114    0.00066894
     atom   23 type  4   force =     0.00030347    0.00024035   -0.00055228
     atom   24 type  4   force =    -0.00010298   -0.00028443    0.00049759
     atom   25 type  4   force =    -0.00051924    0.00006934    0.00027762
     atom   26 type  4   force =     0.00016622    0.00064081   -0.00010584
     atom   27 type  4   force =    -0.00053297   -0.00009607    0.00038539
     atom   28 type  4   force =    -0.00030034   -0.00009528   -0.00015475

     Total force =     0.003392     Total SCF correction =     0.000010


     Computing stress (Cartesian axis) and pressure

          total   stress  (Ry/bohr**3)                   (kbar)     P=       -0.06
   0.00000006   0.00000061   0.00000010            0.01        0.09        0.01
   0.00000061  -0.00000042  -0.00000052            0.09       -0.06       -0.08
   0.00000010  -0.00000052  -0.00000086            0.01       -0.08       -0.13

     Energy error            =      2.2E-05 Ry
     Gradient error          =      1.5E-03 Ry/Bohr
     Cell gradient error     =      1.3E-01 kbar

     number of scf cycles    =  24
     number of bfgs steps    =  23

     enthalpy           old  =   -1926.2732664925 Ry
     enthalpy           new  =   -1926.2732887544 Ry

     CASE: enthalpy          _new < enthalpy          _old

     new trust radius        =       0.0097806937 bohr
     new conv_thr            =            2.2E-11 Ry

     new unit-cell volume =   1649.05078 a.u.^3 (   244.36411 Ang^3 )
     density =      3.26156 g/cm^3

CELL_PARAMETERS (angstrom)
   7.527632981   0.002616320  -0.101036195
  -5.031358266   5.783196579   0.190371651
  -2.322260902   1.161392478   5.667358152

ATOMIC_POSITIONS (angstrom)
Co              -4.2255262539        5.3273768786        5.5254554215
Mg              -3.0196356949        4.8939120832        2.7570696196
Mg               3.2138132280        2.0359459379        2.9528182249
Mg               4.4407424527        1.5627739077        0.1023052280
Mg               0.7935098598        6.5742281095        4.4036713666
Mg              -0.5796221145        0.3281483857        1.4270959419
Mg              -0.5954400596        3.7958330481        4.2739679169
Mg               0.5851664754        3.2009861763        1.4055280911
Ni              -1.7722664634        6.1373221512        5.1709665730
Ni              -1.8175569018        2.5175582239        2.3048520161
Ni               2.0177970664        4.3574611884        3.4301973962
Ni               1.9166693100        0.8496490241        0.5915556286
H               -0.5166376896        5.3533685873        5.6426810598
H               -0.3870432743        2.1167254761        2.7694502061
H                0.5914594631        4.8144257338        2.9991417591
H                0.5959414879        1.4874950266        0.1473893816
H                5.0471293309        1.1304024299        2.0569953984
H                3.8055726371        1.8001138903        4.9694186579
H               -3.2071919482        5.0260739132        0.4884073339
H               -4.9011872531        5.7639755511        4.0677425397
H               -3.1598544138        6.2106196529        4.4370577438
H               -2.5652434607        3.3418711010        1.1269725079
H                3.1936734880        3.9630446796        4.5120053164
H                2.9872509950        0.6602436379        1.6625369737
H                0.4444894910        2.3447043483        4.9743451394
H                2.5790302616        3.7546510562        2.1232441209
H               -2.4324856730        3.1593024973        3.5715058890
H               -0.5963609673        4.7526625745        0.6993330470



     Writing config-only to output data dir ./outdir/mg2nih4_co.save/ :
     XML data file
     NEW-OLD atomic charge density approx. for the potential
     New effective cutoffs (rho, wfc):  490.24   61.28

     Check: negative core charge=   -0.000003

     total cpu time spent up to now is     9457.8 secs

     Self-consistent Calculation

     iteration #  1     ecut=    60.00 Ry     beta= 0.30
     Davidson diagonalization with overlap
     ethr =  1.00E-06,  avg # of iterations =  3.0

     Threshold (ethr) on eigenvalues was too large:
     Diagonalizing with lowered threshold

     Davidson diagonalization with overlap
     ethr =  6.11E-08,  avg # of iterations =  1.1

     total cpu time spent up to now is     9513.2 secs

     total energy              =   -1926.27329527 Ry
     estimated scf accuracy    <       0.00007269 Ry

     iteration #  2     ecut=    60.00 Ry     beta= 0.30
     Davidson diagonalization with overlap
     ethr =  6.11E-08,  avg # of iterations =  3.0

     total cpu time spent up to now is     9542.2 secs

     total energy              =   -1926.27327298 Ry
     estimated scf accuracy    <       0.00057790 Ry

     iteration #  3     ecut=    60.00 Ry     beta= 0.30
     Davidson diagonalization with overlap
     ethr =  6.11E-08,  avg # of iterations =  3.0

     total cpu time spent up to now is     9569.9 secs

     total energy              =   -1926.27330754 Ry
     estimated scf accuracy    <       0.00004022 Ry

     iteration #  4     ecut=    60.00 Ry     beta= 0.30
     Davidson diagonalization with overlap
     ethr =  3.38E-08,  avg # of iterations =  1.0

     total cpu time spent up to now is     9588.7 secs

     total energy              =   -1926.27330832 Ry
     estimated scf accuracy    <       0.00001421 Ry

     iteration #  5     ecut=    60.00 Ry     beta= 0.30
     Davidson diagonalization with overlap
     ethr =  1.19E-08,  avg # of iterations =  1.0

     total cpu time spent up to now is     9607.4 secs

     total energy              =   -1926.27330942 Ry
     estimated scf accuracy    <       0.00000179 Ry

     iteration #  6     ecut=    60.00 Ry     beta= 0.30
     Davidson diagonalization with overlap
     ethr =  1.50E-09,  avg # of iterations =  2.0

     total cpu time spent up to now is     9631.4 secs

     total energy              =   -1926.27330950 Ry
     estimated scf accuracy    <       0.00000078 Ry

     iteration #  7     ecut=    60.00 Ry     beta= 0.30
     Davidson diagonalization with overlap
     ethr =  6.51E-10,  avg # of iterations =  1.9

     total cpu time spent up to now is     9655.8 secs

     total energy              =   -1926.27330955 Ry
     estimated scf accuracy    <       0.00000018 Ry

     iteration #  8     ecut=    60.00 Ry     beta= 0.30
     Davidson diagonalization with overlap
     ethr =  1.50E-10,  avg # of iterations =  2.0

     total cpu time spent up to now is     9680.0 secs

     total energy              =   -1926.27330957 Ry
     estimated scf accuracy    <       0.00000014 Ry

     iteration #  9     ecut=    60.00 Ry     beta= 0.30
     Davidson diagonalization with overlap
     ethr =  1.17E-10,  avg # of iterations =  1.5

     total cpu time spent up to now is     9703.6 secs

     total energy              =   -1926.27330958 Ry
     estimated scf accuracy    <       0.00000002 Ry

     iteration # 10     ecut=    60.00 Ry     beta= 0.30
     Davidson diagonalization with overlap
     ethr =  1.75E-11,  avg # of iterations =  4.0

     total cpu time spent up to now is     9744.8 secs

     total energy              =   -1926.27330959 Ry
     estimated scf accuracy    <          5.0E-09 Ry

     iteration # 11     ecut=    60.00 Ry     beta= 0.30
     Davidson diagonalization with overlap
     ethr =  4.24E-12,  avg # of iterations =  1.8

     total cpu time spent up to now is     9770.7 secs

     total energy              =   -1926.27330959 Ry
     estimated scf accuracy    <          4.0E-09 Ry

     iteration # 12     ecut=    60.00 Ry     beta= 0.30
     Davidson diagonalization with overlap
     ethr =  3.35E-12,  avg # of iterations =  1.0

     total cpu time spent up to now is     9789.5 secs

     total energy              =   -1926.27330959 Ry
     estimated scf accuracy    <          2.5E-10 Ry

     iteration # 13     ecut=    60.00 Ry     beta= 0.30
     Davidson diagonalization with overlap
     ethr =  2.09E-13,  avg # of iterations =  2.0

     total cpu time spent up to now is     9813.9 secs

     total energy              =   -1926.27330959 Ry
     estimated scf accuracy    <          4.1E-11 Ry

     iteration # 14     ecut=    60.00 Ry     beta= 0.30
     Davidson diagonalization with overlap
     ethr =  1.00E-13,  avg # of iterations =  1.0

     total cpu time spent up to now is     9832.7 secs

     End of self-consistent calculation

     Number of k-points >= 100: set verbosity='high' to print the bands.

     the Fermi energy is     6.9612 ev

!    total energy              =   -1926.27330959 Ry
     estimated scf accuracy    <          3.6E-12 Ry
     smearing contrib. (-TS)   =      -0.00030068 Ry
     internal energy E=F+TS    =   -1926.27300891 Ry

     The total energy is F=E-TS. E is the sum of the following terms:
     one-electron contribution =   -1695.64391234 Ry
     hartree contribution      =     882.66405801 Ry
     xc contribution           =    -198.32445659 Ry
     ewald contribution        =    -695.54650058 Ry
     DFT-D3 Dispersion         =      -0.36867691 Ry
     one-center paw contrib.   =    -219.05352050 Ry

     convergence has been achieved in  14 iterations

     Forces acting on atoms (cartesian axes, Ry/au):

     atom    1 type  1   force =     0.00040165    0.00124407   -0.00018904
     atom    2 type  2   force =    -0.00019850    0.00034959    0.00026305
     atom    3 type  2   force =     0.00035591   -0.00055278   -0.00008352
     atom    4 type  2   force =     0.00014301   -0.00002289    0.00033307
     atom    5 type  2   force =     0.00001463    0.00006720   -0.00019992
     atom    6 type  2   force =     0.00010600    0.00001746    0.00022516
     atom    7 type  2   force =     0.00028552   -0.00043202   -0.00043602
     atom    8 type  2   force =    -0.00011622   -0.00010610    0.00012526
     atom    9 type  3   force =     0.00024896   -0.00008243   -0.00030266
     atom   10 type  3   force =    -0.00017869    0.00041008   -0.00048266
     atom   11 type  3   force =     0.00045602    0.00041345   -0.00041924
     atom   12 type  3   force =    -0.00005366   -0.00073622   -0.00006353
     atom   13 type  4   force =    -0.00021843    0.00024287   -0.00011628
     atom   14 type  4   force =    -0.00052210   -0.00001048   -0.00011146
     atom   15 type  4   force =     0.00002149    0.00007380    0.00007550
     atom   16 type  4   force =    -0.00002053    0.00045400   -0.00020586
     atom   17 type  4   force =    -0.00000731   -0.00005703    0.00004142
     atom   18 type  4   force =     0.00007522   -0.00049697   -0.00009572
     atom   19 type  4   force =     0.00018975    0.00020513   -0.00010632
     atom   20 type  4   force =     0.00000065   -0.00043772    0.00072147
     atom   21 type  4   force =     0.00019327   -0.00042557    0.00067617
     atom   22 type  4   force =    -0.00011981   -0.00037665    0.00055135
     atom   23 type  4   force =     0.00025463    0.00001657   -0.00047858
     atom   24 type  4   force =    -0.00016568   -0.00012204    0.00033732
     atom   25 type  4   force =    -0.00069609    0.00015062    0.00037608
     atom   26 type  4   force =     0.00009384    0.00068265   -0.00002041
     atom   27 type  4   force =    -0.00017236   -0.00027075   -0.00019178
     atom   28 type  4   force =    -0.00037117   -0.00019782   -0.00022286

     Total force =     0.003108     Total SCF correction =     0.000006


     Computing stress (Cartesian axis) and pressure

          total   stress  (Ry/bohr**3)                   (kbar)     P=       -0.30
  -0.00000261   0.00000058   0.00000054           -0.38        0.09        0.08
   0.00000058  -0.00000110  -0.00000070            0.09       -0.16       -0.10
   0.00000054  -0.00000070  -0.00000248            0.08       -0.10       -0.36

     Energy error            =      2.1E-05 Ry
     Gradient error          =      1.2E-03 Ry/Bohr
     Cell gradient error     =      3.8E-01 kbar

     number of scf cycles    =  25
     number of bfgs steps    =  24

     enthalpy           old  =   -1926.2732887544 Ry
     enthalpy           new  =   -1926.2733095919 Ry

     CASE: enthalpy          _new < enthalpy          _old

     new trust radius        =       0.0092899468 bohr
     new conv_thr            =            2.1E-11 Ry

     new unit-cell volume =   1648.76749 a.u.^3 (   244.32213 Ang^3 )
     density =      3.26212 g/cm^3

CELL_PARAMETERS (angstrom)
   7.528485540   0.003432236  -0.102927204
  -5.031350432   5.782203322   0.191325505
  -2.323807683   1.160777782   5.666727894

ATOMIC_POSITIONS (angstrom)
Co              -4.2268573474        5.3276848122        5.5257011028
Mg              -3.0212618878        4.8931157620        2.7595275191
Mg               3.2127177558        2.0357705773        2.9489594695
Mg               4.4426344553        1.5643700659        0.1000988717
Mg               0.7914357991        6.5746439631        4.4020754547
Mg              -0.5800261527        0.3283499559        1.4271461034
Mg              -0.5947961961        3.7944068601        4.2728048181
Mg               0.5850497394        3.2004956599        1.4052421315
Ni              -1.7734686784        6.1363515685        5.1698257148
Ni              -1.8182902364        2.5177996245        2.3025964435
Ni               2.0181729763        4.3569483263        3.4289747909
Ni               1.9171665208        0.8496261351        0.5925255866
H               -0.5174760361        5.3523374125        5.6399227233
H               -0.3875148688        2.1171891628        2.7677061465
H                0.5912569859        4.8132991246        2.9994308315
H                0.5967574671        1.4877379955        0.1467816736
H                5.0476593952        1.1294863866        2.0540237759
H                3.8060872143        1.7989462735        4.9642640134
H               -3.2073049955        5.0257613871        0.4893104806
H               -4.9037713355        5.7630531326        4.0684829460
H               -3.1628494828        6.2104427280        4.4388440596
H               -2.5674459646        3.3417580199        1.1278480596
H                3.1959209948        3.9646380564        4.5089734053
H                2.9880406366        0.6558114420        1.6628679290
H                0.4437459676        2.3428987644        4.9747108890
H                2.5807660386        3.7581002500        2.1212035314
H               -2.4340533205        3.1561067712        3.5723323433
H               -0.5957114963        4.7526565472        0.6995859167



     Writing config-only to output data dir ./outdir/mg2nih4_co.save/ :
     XML data file
     NEW-OLD atomic charge density approx. for the potential
     New effective cutoffs (rho, wfc):  490.55   61.32

     Check: negative core charge=   -0.000003

     total cpu time spent up to now is     9848.3 secs

     Self-consistent Calculation

     iteration #  1     ecut=    60.00 Ry     beta= 0.30
     Davidson diagonalization with overlap
     ethr =  1.00E-06,  avg # of iterations =  3.0

     Threshold (ethr) on eigenvalues was too large:
     Diagonalizing with lowered threshold

     Davidson diagonalization with overlap
     ethr =  6.79E-08,  avg # of iterations =  1.0

     total cpu time spent up to now is     9902.4 secs

     total energy              =   -1926.27330748 Ry
     estimated scf accuracy    <       0.00008076 Ry

     iteration #  2     ecut=    60.00 Ry     beta= 0.30
     Davidson diagonalization with overlap
     ethr =  6.79E-08,  avg # of iterations =  3.0

     total cpu time spent up to now is     9931.5 secs

     total energy              =   -1926.27327461 Ry
     estimated scf accuracy    <       0.00097619 Ry

     iteration #  3     ecut=    60.00 Ry     beta= 0.30
     Davidson diagonalization with overlap
     ethr =  6.79E-08,  avg # of iterations =  3.0

     total cpu time spent up to now is     9959.3 secs

     total energy              =   -1926.27332651 Ry
     estimated scf accuracy    <       0.00002036 Ry

     iteration #  4     ecut=    60.00 Ry     beta= 0.30
     Davidson diagonalization with overlap
     ethr =  1.71E-08,  avg # of iterations =  1.0

     total cpu time spent up to now is     9978.1 secs

     total energy              =   -1926.27332673 Ry
     estimated scf accuracy    <       0.00000596 Ry

     iteration #  5     ecut=    60.00 Ry     beta= 0.30
     Davidson diagonalization with overlap
     ethr =  5.01E-09,  avg # of iterations =  2.0

     total cpu time spent up to now is    10001.5 secs

     total energy              =   -1926.27332713 Ry
     estimated scf accuracy    <       0.00000263 Ry

     iteration #  6     ecut=    60.00 Ry     beta= 0.30
     Davidson diagonalization with overlap
     ethr =  2.21E-09,  avg # of iterations =  1.4

     total cpu time spent up to now is    10023.7 secs

     total energy              =   -1926.27332726 Ry
     estimated scf accuracy    <       0.00000096 Ry

     iteration #  7     ecut=    60.00 Ry     beta= 0.30
     Davidson diagonalization with overlap
     ethr =  8.08E-10,  avg # of iterations =  1.9

     total cpu time spent up to now is    10048.4 secs

     total energy              =   -1926.27332735 Ry
     estimated scf accuracy    <       0.00000008 Ry

     iteration #  8     ecut=    60.00 Ry     beta= 0.30
     Davidson diagonalization with overlap
     ethr =  6.43E-11,  avg # of iterations =  5.0

     total cpu time spent up to now is    10089.6 secs

     total energy              =   -1926.27332737 Ry
     estimated scf accuracy    <       0.00000008 Ry

     iteration #  9     ecut=    60.00 Ry     beta= 0.30
     Davidson diagonalization with overlap
     ethr =  6.43E-11,  avg # of iterations =  1.0

     total cpu time spent up to now is    10108.4 secs

     total energy              =   -1926.27332737 Ry
     estimated scf accuracy    <       0.00000001 Ry

     iteration # 10     ecut=    60.00 Ry     beta= 0.30
     Davidson diagonalization with overlap
     ethr =  1.20E-11,  avg # of iterations =  2.2

     total cpu time spent up to now is    10133.3 secs

     total energy              =   -1926.27332737 Ry
     estimated scf accuracy    <          3.1E-09 Ry

     iteration # 11     ecut=    60.00 Ry     beta= 0.30
     Davidson diagonalization with overlap
     ethr =  2.57E-12,  avg # of iterations =  2.2

     total cpu time spent up to now is    10157.7 secs

     total energy              =   -1926.27332737 Ry
     estimated scf accuracy    <          1.8E-09 Ry

     iteration # 12     ecut=    60.00 Ry     beta= 0.30
     Davidson diagonalization with overlap
     ethr =  1.54E-12,  avg # of iterations =  1.2

     total cpu time spent up to now is    10178.5 secs

     total energy              =   -1926.27332737 Ry
     estimated scf accuracy    <          2.0E-10 Ry

     iteration # 13     ecut=    60.00 Ry     beta= 0.30
     Davidson diagonalization with overlap
     ethr =  1.67E-13,  avg # of iterations =  2.3

     total cpu time spent up to now is    10204.7 secs

     End of self-consistent calculation

     Number of k-points >= 100: set verbosity='high' to print the bands.

     the Fermi energy is     6.9640 ev

!    total energy              =   -1926.27332737 Ry
     estimated scf accuracy    <          1.9E-11 Ry
     smearing contrib. (-TS)   =      -0.00029735 Ry
     internal energy E=F+TS    =   -1926.27303002 Ry

     The total energy is F=E-TS. E is the sum of the following terms:
     one-electron contribution =   -1695.67574332 Ry
     hartree contribution      =     882.68636836 Ry
     xc contribution           =    -198.32439182 Ry
     ewald contribution        =    -695.53695346 Ry
     DFT-D3 Dispersion         =      -0.36873843 Ry
     one-center paw contrib.   =    -219.05357134 Ry

     convergence has been achieved in  13 iterations

     Forces acting on atoms (cartesian axes, Ry/au):

     atom    1 type  1   force =     0.00045745    0.00098064   -0.00010758
     atom    2 type  2   force =    -0.00012645    0.00021367    0.00031447
     atom    3 type  2   force =     0.00031998   -0.00046504   -0.00008519
     atom    4 type  2   force =    -0.00000155   -0.00015577    0.00002829
     atom    5 type  2   force =     0.00017730   -0.00003992   -0.00017182
     atom    6 type  2   force =     0.00019247   -0.00006450    0.00019184
     atom    7 type  2   force =     0.00018188   -0.00044245   -0.00039160
     atom    8 type  2   force =     0.00002372    0.00004465   -0.00006169
     atom    9 type  3   force =     0.00019935   -0.00017101   -0.00032384
     atom   10 type  3   force =    -0.00042962   -0.00007519    0.00051086
     atom   11 type  3   force =     0.00026413    0.00051910   -0.00042551
     atom   12 type  3   force =     0.00001900   -0.00063852   -0.00004990
     atom   13 type  4   force =    -0.00019515    0.00015827   -0.00001116
     atom   14 type  4   force =    -0.00065856   -0.00003689   -0.00003501
     atom   15 type  4   force =    -0.00002946    0.00007903    0.00000144
     atom   16 type  4   force =     0.00002918    0.00037110   -0.00012733
     atom   17 type  4   force =     0.00020288    0.00045858    0.00011820
     atom   18 type  4   force =     0.00005638   -0.00030578   -0.00003621
     atom   19 type  4   force =     0.00008286    0.00016450   -0.00014900
     atom   20 type  4   force =     0.00000914   -0.00028651    0.00074694
     atom   21 type  4   force =     0.00018585   -0.00034515    0.00060595
     atom   22 type  4   force =    -0.00015322   -0.00007891    0.00021131
     atom   23 type  4   force =     0.00020869   -0.00009894   -0.00033270
     atom   24 type  4   force =    -0.00025785    0.00001819    0.00015412
     atom   25 type  4   force =    -0.00068535    0.00020135    0.00037455
     atom   26 type  4   force =     0.00010634    0.00060933   -0.00009151
     atom   27 type  4   force =     0.00012845   -0.00039523   -0.00065789
     atom   28 type  4   force =    -0.00030782   -0.00021857   -0.00020003

     Total force =     0.002860     Total SCF correction =     0.000013


     Computing stress (Cartesian axis) and pressure

          total   stress  (Ry/bohr**3)                   (kbar)     P=       -0.31
  -0.00000327   0.00000046   0.00000091           -0.48        0.07        0.13
   0.00000046  -0.00000057  -0.00000085            0.07       -0.08       -0.12
   0.00000091  -0.00000085  -0.00000238            0.13       -0.12       -0.35

     Energy error            =      1.8E-05 Ry
     Gradient error          =      9.8E-04 Ry/Bohr
     Cell gradient error     =      4.8E-01 kbar

     number of scf cycles    =  26
     number of bfgs steps    =  25

     enthalpy           old  =   -1926.2733095919 Ry
     enthalpy           new  =   -1926.2733273740 Ry

     CASE: enthalpy          _new < enthalpy          _old

     new trust radius        =       0.0076787650 bohr
     new conv_thr            =            1.8E-11 Ry

     new unit-cell volume =   1648.36770 a.u.^3 (   244.26289 Ang^3 )
     density =      3.26291 g/cm^3

CELL_PARAMETERS (angstrom)
   7.528649253   0.004189170  -0.104252652
  -5.030909579   5.781379155   0.191786845
  -2.324733398   1.160100024   5.665884008

ATOMIC_POSITIONS (angstrom)
Co              -4.2271168736        5.3285180288        5.5253208419
Mg              -3.0222887716        4.8925324380        2.7614229933
Mg               3.2119427101        2.0353184075        2.9456883848
Mg               4.4438073524        1.5656279978        0.0984093048
Mg               0.7899974312        6.5748619323        4.4002872669
Mg              -0.5800746021        0.3284221747        1.4272764310
Mg              -0.5939173114        3.7928342792        4.2712732144
Mg               0.5849724243        3.2001551387        1.4047819782
Ni              -1.7739131584        6.1352928388        5.1681871435
Ni              -1.8188990563        2.5179356679        2.3008084881
Ni               2.0186344398        4.3568548003        3.4274810218
Ni               1.9174046456        0.8491391216        0.5932892901
H               -0.5180458924        5.3515063777        5.6373126284
H               -0.3882221198        2.1174240053        2.7661669337
H                0.5911189504        4.8123958437        2.9993764559
H                0.5974161310        1.4882098683        0.1462088406
H                5.0479445520        1.1290962769        2.0517106335
H                3.8064231298        1.7976665133        4.9599177757
H               -3.2069754049        5.0255690522        0.4896858395
H               -4.9052314657        5.7618646775        4.0691907802
H               -3.1647134968        6.2100435483        4.4402843853
H               -2.5690070686        3.3415643002        1.1285403571
H                3.1977748419        3.9659190558        4.5060127019
H                2.9884575216        0.6521298543        1.6631606280
H                0.4427282866        2.3414328120        4.9750191096
H                2.5821717517        3.7613769508        2.1193181269
H               -2.4349439635        3.1531911020        3.5723173519
H               -0.5953571207        4.7524738296        0.6994058996



     Writing config-only to output data dir ./outdir/mg2nih4_co.save/ :
     XML data file
     NEW-OLD atomic charge density approx. for the potential
     New effective cutoffs (rho, wfc):  490.83   61.35

     Check: negative core charge=   -0.000003

     total cpu time spent up to now is    10220.3 secs

     Self-consistent Calculation

     iteration #  1     ecut=    60.00 Ry     beta= 0.30
     Davidson diagonalization with overlap
     ethr =  1.00E-06,  avg # of iterations =  3.0

     Threshold (ethr) on eigenvalues was too large:
     Diagonalizing with lowered threshold

     Davidson diagonalization with overlap
     ethr =  5.35E-08,  avg # of iterations =  1.0

     total cpu time spent up to now is    10274.5 secs

     total energy              =   -1926.27332554 Ry
     estimated scf accuracy    <       0.00006374 Ry

     iteration #  2     ecut=    60.00 Ry     beta= 0.30
     Davidson diagonalization with overlap
     ethr =  5.36E-08,  avg # of iterations =  3.0

     total cpu time spent up to now is    10303.9 secs

     total energy              =   -1926.27329878 Ry
     estimated scf accuracy    <       0.00080770 Ry

     iteration #  3     ecut=    60.00 Ry     beta= 0.30
     Davidson diagonalization with overlap
     ethr =  5.36E-08,  avg # of iterations =  3.0

     total cpu time spent up to now is    10331.8 secs

     total energy              =   -1926.27334064 Ry
     estimated scf accuracy    <       0.00001698 Ry

     iteration #  4     ecut=    60.00 Ry     beta= 0.30
     Davidson diagonalization with overlap
     ethr =  1.43E-08,  avg # of iterations =  2.0

     total cpu time spent up to now is    10355.1 secs

     total energy              =   -1926.27334069 Ry
     estimated scf accuracy    <       0.00001610 Ry

     iteration #  5     ecut=    60.00 Ry     beta= 0.30
     Davidson diagonalization with overlap
     ethr =  1.35E-08,  avg # of iterations =  1.0

     total cpu time spent up to now is    10373.9 secs

     total energy              =   -1926.27334174 Ry
     estimated scf accuracy    <       0.00000149 Ry

     iteration #  6     ecut=    60.00 Ry     beta= 0.30
     Davidson diagonalization with overlap
     ethr =  1.25E-09,  avg # of iterations =  2.0

     total cpu time spent up to now is    10398.3 secs

     total energy              =   -1926.27334181 Ry
     estimated scf accuracy    <       0.00000187 Ry

     iteration #  7     ecut=    60.00 Ry     beta= 0.30
     Davidson diagonalization with overlap
     ethr =  1.25E-09,  avg # of iterations =  1.7

     total cpu time spent up to now is    10423.2 secs

     total energy              =   -1926.27334194 Ry
     estimated scf accuracy    <       0.00000012 Ry

     iteration #  8     ecut=    60.00 Ry     beta= 0.30
     Davidson diagonalization with overlap
     ethr =  1.04E-10,  avg # of iterations =  3.0

     total cpu time spent up to now is    10455.6 secs

     total energy              =   -1926.27334196 Ry
     estimated scf accuracy    <       0.00000010 Ry

     iteration #  9     ecut=    60.00 Ry     beta= 0.30
     Davidson diagonalization with overlap
     ethr =  8.15E-11,  avg # of iterations =  2.2

     total cpu time spent up to now is    10486.5 secs

     total energy              =   -1926.27334197 Ry
     estimated scf accuracy    <       0.00000002 Ry

     iteration # 10     ecut=    60.00 Ry     beta= 0.30
     Davidson diagonalization with overlap
     ethr =  1.41E-11,  avg # of iterations =  4.4

     total cpu time spent up to now is    10526.2 secs

     total energy              =   -1926.27334198 Ry
     estimated scf accuracy    <          2.7E-09 Ry

     iteration # 11     ecut=    60.00 Ry     beta= 0.30
     Davidson diagonalization with overlap
     ethr =  2.24E-12,  avg # of iterations =  2.1

     total cpu time spent up to now is    10551.6 secs

     total energy              =   -1926.27334198 Ry
     estimated scf accuracy    <          2.5E-10 Ry

     iteration # 12     ecut=    60.00 Ry     beta= 0.30
     Davidson diagonalization with overlap
     ethr =  2.11E-13,  avg # of iterations =  2.0

     total cpu time spent up to now is    10575.8 secs

     total energy              =   -1926.27334198 Ry
     estimated scf accuracy    <          5.0E-11 Ry

     iteration # 13     ecut=    60.00 Ry     beta= 0.30
     Davidson diagonalization with overlap
     ethr =  1.00E-13,  avg # of iterations =  1.0

     total cpu time spent up to now is    10594.7 secs

     total energy              =   -1926.27334198 Ry
     estimated scf accuracy    <          2.7E-11 Ry

     iteration # 14     ecut=    60.00 Ry     beta= 0.30
     Davidson diagonalization with overlap
     ethr =  1.00E-13,  avg # of iterations =  1.0

     total cpu time spent up to now is    10613.5 secs

     End of self-consistent calculation

     Number of k-points >= 100: set verbosity='high' to print the bands.

     the Fermi energy is     6.9676 ev

!    total energy              =   -1926.27334198 Ry
     estimated scf accuracy    <          1.3E-12 Ry
     smearing contrib. (-TS)   =      -0.00029448 Ry
     internal energy E=F+TS    =   -1926.27304750 Ry

     The total energy is F=E-TS. E is the sum of the following terms:
     one-electron contribution =   -1695.71585534 Ry
     hartree contribution      =     882.71431816 Ry
     xc contribution           =    -198.32582985 Ry
     ewald contribution        =    -695.52316177 Ry
     DFT-D3 Dispersion         =      -0.36882362 Ry
     one-center paw contrib.   =    -219.05369507 Ry

     convergence has been achieved in  14 iterations

     Forces acting on atoms (cartesian axes, Ry/au):

     atom    1 type  1   force =     0.00037865    0.00033463    0.00002532
     atom    2 type  2   force =    -0.00003898    0.00004558    0.00034151
     atom    3 type  2   force =     0.00021589   -0.00024731   -0.00007674
     atom    4 type  2   force =    -0.00011265   -0.00023369   -0.00027734
     atom    5 type  2   force =     0.00027448   -0.00012550   -0.00011481
     atom    6 type  2   force =     0.00024725   -0.00011398    0.00008717
     atom    7 type  2   force =     0.00006793   -0.00037072   -0.00030072
     atom    8 type  2   force =     0.00013820    0.00014169   -0.00020361
     atom    9 type  3   force =     0.00016073   -0.00021127   -0.00024289
     atom   10 type  3   force =    -0.00049732   -0.00043298    0.00099221
     atom   11 type  3   force =     0.00003854    0.00043111   -0.00026780
     atom   12 type  3   force =    -0.00001944   -0.00032559    0.00003779
     atom   13 type  4   force =    -0.00005171   -0.00000061    0.00009189
     atom   14 type  4   force =    -0.00062272   -0.00007232    0.00004118
     atom   15 type  4   force =    -0.00005875    0.00010659   -0.00006842
     atom   16 type  4   force =     0.00010954    0.00024948   -0.00002086
     atom   17 type  4   force =     0.00029146    0.00070654    0.00014708
     atom   18 type  4   force =     0.00005614   -0.00009100    0.00000643
     atom   19 type  4   force =    -0.00006050    0.00005682   -0.00016627
     atom   20 type  4   force =    -0.00001563   -0.00001107    0.00066329
     atom   21 type  4   force =     0.00006462   -0.00021292    0.00043406
     atom   22 type  4   force =    -0.00013854    0.00022830   -0.00015370
     atom   23 type  4   force =     0.00015411   -0.00011134   -0.00015934
     atom   24 type  4   force =    -0.00032249    0.00011144    0.00001463
     atom   25 type  4   force =    -0.00051871    0.00022223    0.00027596
     atom   26 type  4   force =     0.00017457    0.00046520   -0.00024374
     atom   27 type  4   force =     0.00023621   -0.00036300   -0.00076717
     atom   28 type  4   force =    -0.00015087   -0.00017632   -0.00009511

     Total force =     0.002587     Total SCF correction =     0.000004


     Computing stress (Cartesian axis) and pressure

          total   stress  (Ry/bohr**3)                   (kbar)     P=       -0.11
  -0.00000210   0.00000032   0.00000095           -0.31        0.05        0.14
   0.00000032   0.00000070  -0.00000076            0.05        0.10       -0.11
   0.00000095  -0.00000076  -0.00000092            0.14       -0.11       -0.13

     Energy error            =      1.5E-05 Ry
     Gradient error          =      9.9E-04 Ry/Bohr
     Cell gradient error     =      3.1E-01 kbar

     number of scf cycles    =  27
     number of bfgs steps    =  26

     enthalpy           old  =   -1926.2733273740 Ry
     enthalpy           new  =   -1926.2733419797 Ry

     CASE: enthalpy          _new < enthalpy          _old

     new trust radius        =       0.0059852970 bohr
     new conv_thr            =            1.5E-11 Ry

     new unit-cell volume =   1648.02673 a.u.^3 (   244.21237 Ang^3 )
     density =      3.26358 g/cm^3

CELL_PARAMETERS (angstrom)
   7.528390396   0.004844356  -0.105003774
  -5.030247592   5.780892230   0.191782373
  -2.325117817   1.159424690   5.665092849

ATOMIC_POSITIONS (angstrom)
Co              -4.2265889299        5.3293054047        5.5246669664
Mg              -3.0227737531        4.8922216389        2.7628246929
Mg               3.2115021964        2.0348198981        2.9432352591
Mg               4.4443621303        1.5665124712        0.0970816677
Mg               0.7893123348        6.5750143449        4.3986241432
Mg              -0.5798470655        0.3283406230        1.4273920268
Mg              -0.5929781838        3.7913798700        4.2697185068
Mg               0.5850107696        3.2000633011        1.4041989790
Ni              -1.7737684499        6.1343576011        5.1664685516
Ni              -1.8194852276        2.5177557718        2.2999326719
Ni               2.0190621244        4.3571345669        3.4260431956
Ni               1.9174457692        0.8485574044        0.5939389370
H               -0.5182355006        5.3508960223        5.6352525879
H               -0.3890820091        2.1174739428        2.7650143808
H                0.5910993415        4.8119083420        2.9990642432
H                0.5979777174        1.4888224584        0.1457846060
H                5.0481588871        1.1293077683        2.0502112332
H                3.8066970836        1.7965710820        4.9567729430
H               -3.2065087583        5.0255338530        0.4895644216
H               -4.9058321887        5.7609398137        4.0698258398
H               -3.1656855964        6.2096722150        4.4413383727
H               -2.5699352143        3.3416104044        1.1287781916
H                3.1992146693        3.9668147444        4.5035623077
H                2.9885613147        0.6494604092        1.6633799221
H                0.4416762211        2.3403986399        4.9753432096
H                2.5833308909        3.7642471658        2.1176015467
H               -2.4352301741        3.1508063020        3.5716077198
H               -0.5951105780        4.7523318094        0.6989731314



     Writing config-only to output data dir ./outdir/mg2nih4_co.save/ :
     XML data file
     NEW-OLD atomic charge density approx. for the potential
     New effective cutoffs (rho, wfc):  491.04   61.38

     Check: negative core charge=   -0.000003

     total cpu time spent up to now is    10629.2 secs

     Self-consistent Calculation

     iteration #  1     ecut=    60.00 Ry     beta= 0.30
     Davidson diagonalization with overlap
     ethr =  1.00E-06,  avg # of iterations =  3.0

     Threshold (ethr) on eigenvalues was too large:
     Diagonalizing with lowered threshold

     Davidson diagonalization with overlap
     ethr =  2.91E-08,  avg # of iterations =  1.1

     total cpu time spent up to now is    10683.4 secs

     total energy              =   -1926.27334542 Ry
     estimated scf accuracy    <       0.00003474 Ry

     iteration #  2     ecut=    60.00 Ry     beta= 0.30
     Davidson diagonalization with overlap
     ethr =  2.92E-08,  avg # of iterations =  3.0

     total cpu time spent up to now is    10712.7 secs

     total energy              =   -1926.27333438 Ry
     estimated scf accuracy    <       0.00029733 Ry

     iteration #  3     ecut=    60.00 Ry     beta= 0.30
     Davidson diagonalization with overlap
     ethr =  2.92E-08,  avg # of iterations =  3.0

     total cpu time spent up to now is    10740.5 secs

     total energy              =   -1926.27335119 Ry
     estimated scf accuracy    <       0.00002109 Ry

     iteration #  4     ecut=    60.00 Ry     beta= 0.30
     Davidson diagonalization with overlap
     ethr =  1.77E-08,  avg # of iterations =  2.0

     total cpu time spent up to now is    10763.5 secs

     total energy              =   -1926.27335184 Ry
     estimated scf accuracy    <       0.00001450 Ry

     iteration #  5     ecut=    60.00 Ry     beta= 0.30
     Davidson diagonalization with overlap
     ethr =  1.22E-08,  avg # of iterations =  1.0

     total cpu time spent up to now is    10782.3 secs

     total energy              =   -1926.27335277 Ry
     estimated scf accuracy    <       0.00000121 Ry

     iteration #  6     ecut=    60.00 Ry     beta= 0.30
     Davidson diagonalization with overlap
     ethr =  1.02E-09,  avg # of iterations =  2.0

     total cpu time spent up to now is    10806.6 secs

     total energy              =   -1926.27335288 Ry
     estimated scf accuracy    <       0.00000091 Ry

     iteration #  7     ecut=    60.00 Ry     beta= 0.30
     Davidson diagonalization with overlap
     ethr =  7.65E-10,  avg # of iterations =  1.0

     total cpu time spent up to now is    10825.9 secs

     total energy              =   -1926.27335294 Ry
     estimated scf accuracy    <       0.00000007 Ry

     iteration #  8     ecut=    60.00 Ry     beta= 0.30
     Davidson diagonalization with overlap
     ethr =  5.78E-11,  avg # of iterations =  4.0

     total cpu time spent up to now is    10863.3 secs

     total energy              =   -1926.27335295 Ry
     estimated scf accuracy    <       0.00000006 Ry

     iteration #  9     ecut=    60.00 Ry     beta= 0.30
     Davidson diagonalization with overlap
     ethr =  4.82E-11,  avg # of iterations =  1.3

     total cpu time spent up to now is    10885.2 secs

     total energy              =   -1926.27335296 Ry
     estimated scf accuracy    <          8.8E-09 Ry

     iteration # 10     ecut=    60.00 Ry     beta= 0.30
     Davidson diagonalization with overlap
     ethr =  7.43E-12,  avg # of iterations =  4.1

     total cpu time spent up to now is    10923.3 secs

     total energy              =   -1926.27335296 Ry
     estimated scf accuracy    <          1.7E-09 Ry

     iteration # 11     ecut=    60.00 Ry     beta= 0.30
     Davidson diagonalization with overlap
     ethr =  1.44E-12,  avg # of iterations =  2.6

     total cpu time spent up to now is    10950.7 secs

     total energy              =   -1926.27335296 Ry
     estimated scf accuracy    <          6.6E-10 Ry

     iteration # 12     ecut=    60.00 Ry     beta= 0.30
     Davidson diagonalization with overlap
     ethr =  5.51E-13,  avg # of iterations =  1.4

     total cpu time spent up to now is    10972.8 secs

     total energy              =   -1926.27335296 Ry
     estimated scf accuracy    <          1.5E-10 Ry

     iteration # 13     ecut=    60.00 Ry     beta= 0.30
     Davidson diagonalization with overlap
     ethr =  1.29E-13,  avg # of iterations =  1.9

     total cpu time spent up to now is    10997.2 secs

     End of self-consistent calculation

     Number of k-points >= 100: set verbosity='high' to print the bands.

     the Fermi energy is     6.9705 ev

!    total energy              =   -1926.27335296 Ry
     estimated scf accuracy    <          9.4E-12 Ry
     smearing contrib. (-TS)   =      -0.00029215 Ry
     internal energy E=F+TS    =   -1926.27306081 Ry

     The total energy is F=E-TS. E is the sum of the following terms:
     one-electron contribution =   -1695.74678387 Ry
     hartree contribution      =     882.73554127 Ry
     xc contribution           =    -198.32764041 Ry
     ewald contribution        =    -695.51147146 Ry
     DFT-D3 Dispersion         =      -0.36889558 Ry
     one-center paw contrib.   =    -219.05381076 Ry

     convergence has been achieved in  13 iterations

     Forces acting on atoms (cartesian axes, Ry/au):

     atom    1 type  1   force =     0.00020568   -0.00032783    0.00013579
     atom    2 type  2   force =     0.00004698   -0.00011209    0.00032516
     atom    3 type  2   force =     0.00008269    0.00001317   -0.00006872
     atom    4 type  2   force =    -0.00016370   -0.00024672   -0.00047559
     atom    5 type  2   force =     0.00029519   -0.00018389   -0.00004141
     atom    6 type  2   force =     0.00026570   -0.00012370   -0.00003140
     atom    7 type  2   force =    -0.00002807   -0.00025557   -0.00019732
     atom    8 type  2   force =     0.00018213    0.00016686   -0.00026220
     atom    9 type  3   force =     0.00014036   -0.00017687   -0.00012253
     atom   10 type  3   force =    -0.00036554   -0.00047964    0.00080707
     atom   11 type  3   force =    -0.00010438    0.00024536   -0.00007211
     atom   12 type  3   force =    -0.00011167    0.00000228    0.00012805
     atom   13 type  4   force =     0.00011368   -0.00015650    0.00015268
     atom   14 type  4   force =    -0.00042809   -0.00011093    0.00010784
     atom   15 type  4   force =    -0.00008541    0.00013820   -0.00012598
     atom   16 type  4   force =     0.00015972    0.00013315    0.00007524
     atom   17 type  4   force =     0.00021672    0.00061165    0.00011165
     atom   18 type  4   force =     0.00004411    0.00004238    0.00003338
     atom   19 type  4   force =    -0.00016555   -0.00004505   -0.00015529
     atom   20 type  4   force =    -0.00004031    0.00021664    0.00053290
     atom   21 type  4   force =    -0.00007091   -0.00007416    0.00024473
     atom   22 type  4   force =    -0.00005651    0.00038808   -0.00035781
     atom   23 type  4   force =     0.00008786   -0.00006682   -0.00001801
     atom   24 type  4   force =    -0.00033199    0.00014654   -0.00004814
     atom   25 type  4   force =    -0.00028793    0.00022069    0.00014021
     atom   26 type  4   force =     0.00024084    0.00032717   -0.00034899
     atom   27 type  4   force =     0.00014033   -0.00017452   -0.00050252
     atom   28 type  4   force =     0.00001808   -0.00011788    0.00003333

     Total force =     0.002164     Total SCF correction =     0.000009


     Computing stress (Cartesian axis) and pressure

          total   stress  (Ry/bohr**3)                   (kbar)     P=        0.14
  -0.00000005   0.00000022   0.00000058           -0.01        0.03        0.09
   0.00000022   0.00000193  -0.00000041            0.03        0.28       -0.06
   0.00000058  -0.00000041   0.00000095            0.09       -0.06        0.14

     Energy error            =      1.1E-05 Ry
     Gradient error          =      8.1E-04 Ry/Bohr
     Cell gradient error     =      2.8E-01 kbar

     number of scf cycles    =  28
     number of bfgs steps    =  27

     enthalpy           old  =   -1926.2733419797 Ry
     enthalpy           new  =   -1926.2733529597 Ry

     CASE: enthalpy          _new < enthalpy          _old

     new trust radius        =       0.0049572649 bohr
     new conv_thr            =            1.1E-11 Ry

     new unit-cell volume =   1647.91517 a.u.^3 (   244.19583 Ang^3 )
     density =      3.26380 g/cm^3

CELL_PARAMETERS (angstrom)
   7.528154669   0.005394903  -0.105392491
  -5.029671877   5.780816748   0.191552818
  -2.325253464   1.158857504   5.664622038

ATOMIC_POSITIONS (angstrom)
Co              -4.2258601480        5.3296849365        5.5242211971
Mg              -3.0229676790        4.8921756339        2.7639986914
Mg               3.2113249165        2.0345346165        2.9415511675
Mg               4.4446412148        1.5671176013        0.0958821479
Mg               0.7892267932        6.5752884811        4.3973962599
Mg              -0.5794890154        0.3281614222        1.4274428102
Mg              -0.5921774533        3.7902771265        4.2684881535
Mg               0.5851804705        3.2002470129        1.4036124782
Ni              -1.7733829052        6.1337911349        5.1651332082
Ni              -1.8200964946        2.5173541235        2.2998427600
Ni               2.0194097013        4.3576885840        3.4249695694
Ni               1.9173978155        0.8482029234        0.5945740384
H               -0.5181039280        5.3505296180        5.6339751331
H               -0.3899491215        2.1174592741        2.7643263968
H                0.5911699288        4.8119221627        2.9986985225
H                0.5985130448        1.4894742931        0.1455571934
H                5.0484592243        1.1299264240        2.0493734785
H                3.8070243191        1.7958574602        4.9548070198
H               -3.2062238246        5.0256898593        0.4891874669
H               -4.9061251805        5.7606640157        4.0705215082
H               -3.1662826978        6.2095933398        4.4421978868
H               -2.5704520623        3.3420584413        1.1285957716
H                3.2003640893        3.9674814527        4.5018738715
H                2.9885000892        0.6477269322        1.6635562947
H                0.4407803174        2.3398227188        4.9757807760
H                2.5844098402        3.7667175082        2.1160818924
H               -2.4352693183        3.1491076296        3.5707387236
H               -0.5948113362        4.7524134361        0.6985686793



     Writing config-only to output data dir ./outdir/mg2nih4_co.save/ :
     XML data file
     NEW-OLD atomic charge density approx. for the potential
     New effective cutoffs (rho, wfc):  491.15   61.39

     Check: negative core charge=   -0.000003

     total cpu time spent up to now is    11012.8 secs

     Self-consistent Calculation

     iteration #  1     ecut=    60.00 Ry     beta= 0.30
     Davidson diagonalization with overlap
     ethr =  1.00E-06,  avg # of iterations =  3.0

     Threshold (ethr) on eigenvalues was too large:
     Diagonalizing with lowered threshold

     Davidson diagonalization with overlap
     ethr =  1.31E-08,  avg # of iterations =  2.0

     total cpu time spent up to now is    11069.3 secs

     total energy              =   -1926.27335882 Ry
     estimated scf accuracy    <       0.00001578 Ry

     iteration #  2     ecut=    60.00 Ry     beta= 0.30
     Davidson diagonalization with overlap
     ethr =  1.33E-08,  avg # of iterations =  2.0

     total cpu time spent up to now is    11093.9 secs

     total energy              =   -1926.27335722 Ry
     estimated scf accuracy    <       0.00002813 Ry

     iteration #  3     ecut=    60.00 Ry     beta= 0.30
     Davidson diagonalization with overlap
     ethr =  1.33E-08,  avg # of iterations =  2.3

     total cpu time spent up to now is    11120.0 secs

     total energy              =   -1926.27335884 Ry
     estimated scf accuracy    <       0.00003066 Ry

     iteration #  4     ecut=    60.00 Ry     beta= 0.30
     Davidson diagonalization with overlap
     ethr =  1.33E-08,  avg # of iterations =  2.0

     total cpu time spent up to now is    11143.3 secs

     total energy              =   -1926.27336002 Ry
     estimated scf accuracy    <       0.00001309 Ry

     iteration #  5     ecut=    60.00 Ry     beta= 0.30
     Davidson diagonalization with overlap
     ethr =  1.10E-08,  avg # of iterations =  1.0

     total cpu time spent up to now is    11162.1 secs

     total energy              =   -1926.27336074 Ry
     estimated scf accuracy    <       0.00000062 Ry

     iteration #  6     ecut=    60.00 Ry     beta= 0.30
     Davidson diagonalization with overlap
     ethr =  5.20E-10,  avg # of iterations =  2.1

     total cpu time spent up to now is    11187.5 secs

     total energy              =   -1926.27336079 Ry
     estimated scf accuracy    <       0.00000054 Ry

     iteration #  7     ecut=    60.00 Ry     beta= 0.30
     Davidson diagonalization with overlap
     ethr =  4.55E-10,  avg # of iterations =  1.0

     total cpu time spent up to now is    11206.7 secs

     total energy              =   -1926.27336083 Ry
     estimated scf accuracy    <       0.00000005 Ry

     iteration #  8     ecut=    60.00 Ry     beta= 0.30
     Davidson diagonalization with overlap
     ethr =  4.10E-11,  avg # of iterations =  2.1

     total cpu time spent up to now is    11232.1 secs

     total energy              =   -1926.27336084 Ry
     estimated scf accuracy    <       0.00000005 Ry

     iteration #  9     ecut=    60.00 Ry     beta= 0.30
     Davidson diagonalization with overlap
     ethr =  3.97E-11,  avg # of iterations =  1.1

     total cpu time spent up to now is    11251.5 secs

     total energy              =   -1926.27336084 Ry
     estimated scf accuracy    <          5.1E-09 Ry

     iteration # 10     ecut=    60.00 Ry     beta= 0.30
     Davidson diagonalization with overlap
     ethr =  4.28E-12,  avg # of iterations =  4.0

     total cpu time spent up to now is    11293.3 secs

     total energy              =   -1926.27336084 Ry
     estimated scf accuracy    <          8.4E-10 Ry

     iteration # 11     ecut=    60.00 Ry     beta= 0.30
     Davidson diagonalization with overlap
     ethr =  7.09E-13,  avg # of iterations =  2.0

     total cpu time spent up to now is    11316.9 secs

     total energy              =   -1926.27336084 Ry
     estimated scf accuracy    <          4.3E-10 Ry

     iteration # 12     ecut=    60.00 Ry     beta= 0.30
     Davidson diagonalization with overlap
     ethr =  3.58E-13,  avg # of iterations =  1.8

     total cpu time spent up to now is    11342.0 secs

     total energy              =   -1926.27336084 Ry
     estimated scf accuracy    <          8.6E-11 Ry

     iteration # 13     ecut=    60.00 Ry     beta= 0.30
     Davidson diagonalization with overlap
     ethr =  1.00E-13,  avg # of iterations =  1.0

     total cpu time spent up to now is    11360.8 secs

     End of self-consistent calculation

     Number of k-points >= 100: set verbosity='high' to print the bands.

     the Fermi energy is     6.9715 ev

!    total energy              =   -1926.27336084 Ry
     estimated scf accuracy    <          4.0E-12 Ry
     smearing contrib. (-TS)   =      -0.00029020 Ry
     internal energy E=F+TS    =   -1926.27307064 Ry

     The total energy is F=E-TS. E is the sum of the following terms:
     one-electron contribution =   -1695.77586575 Ry
     hartree contribution      =     882.75050964 Ry
     xc contribution           =    -198.32850516 Ry
     ewald contribution        =    -695.49646054 Ry
     DFT-D3 Dispersion         =      -0.36891878 Ry
     one-center paw contrib.   =    -219.05383006 Ry

     convergence has been achieved in  13 iterations

     Forces acting on atoms (cartesian axes, Ry/au):

     atom    1 type  1   force =     0.00003647   -0.00069886    0.00017262
     atom    2 type  2   force =     0.00011332   -0.00021567    0.00026861
     atom    3 type  2   force =    -0.00003243    0.00022709   -0.00006811
     atom    4 type  2   force =    -0.00015913   -0.00021426   -0.00052273
     atom    5 type  2   force =     0.00025329   -0.00021349    0.00002563
     atom    6 type  2   force =     0.00025043   -0.00010199   -0.00011499
     atom    7 type  2   force =    -0.00009126   -0.00013853   -0.00011196
     atom    8 type  2   force =     0.00015361    0.00013556   -0.00024037
     atom    9 type  3   force =     0.00013155   -0.00009120   -0.00001311
     atom   10 type  3   force =    -0.00012847   -0.00026040    0.00021598
     atom   11 type  3   force =    -0.00012626    0.00007728    0.00003697
     atom   12 type  3   force =    -0.00018320    0.00018385    0.00014183
     atom   13 type  4   force =     0.00020909   -0.00024811    0.00015387
     atom   14 type  4   force =    -0.00017196   -0.00013884    0.00015288
     atom   15 type  4   force =    -0.00010323    0.00015152   -0.00015928
     atom   16 type  4   force =     0.00014429    0.00005511    0.00013532
     atom   17 type  4   force =     0.00003655    0.00030159    0.00003168
     atom   18 type  4   force =     0.00000817    0.00005770    0.00004946
     atom   19 type  4   force =    -0.00018610   -0.00008711   -0.00012215
     atom   20 type  4   force =    -0.00004335    0.00028252    0.00041716
     atom   21 type  4   force =    -0.00013864    0.00002710    0.00011536
     atom   22 type  4   force =     0.00005642    0.00035545   -0.00034936
     atom   23 type  4   force =     0.00001431   -0.00002345    0.00006093
     atom   24 type  4   force =    -0.00029183    0.00013683   -0.00003897
     atom   25 type  4   force =    -0.00009282    0.00020594    0.00004239
     atom   26 type  4   force =     0.00025904    0.00025152   -0.00032230
     atom   27 type  4   force =    -0.00004844    0.00006834   -0.00007538
     atom   28 type  4   force =     0.00013058   -0.00008548    0.00011803

     Total force =     0.001762     Total SCF correction =     0.000006


     Computing stress (Cartesian axis) and pressure

          total   stress  (Ry/bohr**3)                   (kbar)     P=        0.28
   0.00000147   0.00000013   0.00000000            0.22        0.02        0.00
   0.00000013   0.00000226   0.00000004            0.02        0.33        0.01
   0.00000000   0.00000004   0.00000196            0.00        0.01        0.29

     Energy error            =      7.9E-06 Ry
     Gradient error          =      7.0E-04 Ry/Bohr
     Cell gradient error     =      3.3E-01 kbar

     number of scf cycles    =  29
     number of bfgs steps    =  28

     enthalpy           old  =   -1926.2733529597 Ry
     enthalpy           new  =   -1926.2733608425 Ry

     CASE: enthalpy          _new < enthalpy          _old

     new trust radius        =       0.0040416903 bohr
     new conv_thr            =            1.0E-11 Ry

     new unit-cell volume =   1648.06845 a.u.^3 (   244.21855 Ang^3 )
     density =      3.26350 g/cm^3

CELL_PARAMETERS (angstrom)
   7.528223051   0.005824040  -0.105592097
  -5.029389101   5.781080473   0.191333237
  -2.325356703   1.158501312   5.664545265

ATOMIC_POSITIONS (angstrom)
Co              -4.2253425285        5.3296568248        5.5242378273
Mg              -3.0230877608        4.8923107430        2.7650765565
Mg               3.2113775396        2.0345943530        2.9405491398
Mg               4.4449075933        1.5674782515        0.0947554801
Mg               0.7895028807        6.5757352424        4.3967525907
Mg              -0.5790965680        0.3279697909        1.4274120033
Mg              -0.5916464787        3.7896212735        4.2676970390
Mg               0.5854864256        3.2006236969        1.4031401739
Ni              -1.7729788168        6.1336756791        5.1644442759
Ni              -1.8206890442        2.5169941889        2.3000396332
Ni               2.0197375452        4.3583970843        3.4243928875
Ni               1.9173033075        0.8481603805        0.5951548627
H               -0.5177554893        5.3503900856        5.6334522244
H               -0.3907135246        2.1174667779        2.7640407314
H                0.5913095849        4.8123777025        2.9984771768
H                0.5990294718        1.4901273562        0.1454655848
H                5.0488611855        1.1306416212        2.0489947618
H                3.8074537896        1.7955223415        4.9537980706
H               -3.2062468942        5.0260302763        0.4887899669
H               -4.9065001405        5.7610439276        4.0714668333
H               -3.1667989020        6.2097466988        4.4430650853
H               -2.5708365000        3.3427968783        1.1282043989
H                3.2013716127        3.9680875136        4.5009695119
H                2.9882200826        0.6468114488        1.6638348408
H                0.4401549489        2.3397579371        4.9763575769
H                2.5855017577        3.7688267867        2.1148837507
H               -2.4353913398        3.1481372643        3.5701485116
H               -0.5944522887        4.7526994353        0.6984081571



     Writing config-only to output data dir ./outdir/mg2nih4_co.save/ :
     XML data file
     NEW-OLD atomic charge density approx. for the potential
     New effective cutoffs (rho, wfc):  491.18   61.40

     Check: negative core charge=   -0.000003

     total cpu time spent up to now is    11376.4 secs

     Self-consistent Calculation

     iteration #  1     ecut=    60.00 Ry     beta= 0.30
     Davidson diagonalization with overlap
     ethr =  1.00E-06,  avg # of iterations =  3.0

     Threshold (ethr) on eigenvalues was too large:
     Diagonalizing with lowered threshold

     Davidson diagonalization with overlap
     ethr =  6.59E-09,  avg # of iterations =  2.0

     total cpu time spent up to now is    11432.6 secs

     total energy              =   -1926.27336581 Ry
     estimated scf accuracy    <       0.00000821 Ry

     iteration #  2     ecut=    60.00 Ry     beta= 0.30
     Davidson diagonalization with overlap
     ethr =  6.90E-09,  avg # of iterations =  2.0

     total cpu time spent up to now is    11457.0 secs

     total energy              =   -1926.27336478 Ry
     estimated scf accuracy    <       0.00001556 Ry

     iteration #  3     ecut=    60.00 Ry     beta= 0.30
     Davidson diagonalization with overlap
     ethr =  6.90E-09,  avg # of iterations =  2.9

     total cpu time spent up to now is    11487.0 secs

     total energy              =   -1926.27336569 Ry
     estimated scf accuracy    <       0.00001694 Ry

     iteration #  4     ecut=    60.00 Ry     beta= 0.30
     Davidson diagonalization with overlap
     ethr =  6.90E-09,  avg # of iterations =  2.0

     total cpu time spent up to now is    11510.5 secs

     total energy              =   -1926.27336627 Ry
     estimated scf accuracy    <       0.00000615 Ry

     iteration #  5     ecut=    60.00 Ry     beta= 0.30
     Davidson diagonalization with overlap
     ethr =  5.17E-09,  avg # of iterations =  1.0

     total cpu time spent up to now is    11529.8 secs

     total energy              =   -1926.27336665 Ry
     estimated scf accuracy    <       0.00000020 Ry

     iteration #  6     ecut=    60.00 Ry     beta= 0.30
     Davidson diagonalization with overlap
     ethr =  1.68E-10,  avg # of iterations =  2.1

     total cpu time spent up to now is    11556.2 secs

     total energy              =   -1926.27336667 Ry
     estimated scf accuracy    <       0.00000020 Ry

     iteration #  7     ecut=    60.00 Ry     beta= 0.30
     Davidson diagonalization with overlap
     ethr =  1.68E-10,  avg # of iterations =  1.0

     total cpu time spent up to now is    11575.2 secs

     total energy              =   -1926.27336668 Ry
     estimated scf accuracy    <       0.00000004 Ry

     iteration #  8     ecut=    60.00 Ry     beta= 0.30
     Davidson diagonalization with overlap
     ethr =  3.46E-11,  avg # of iterations =  2.0

     total cpu time spent up to now is    11599.0 secs

     total energy              =   -1926.27336668 Ry
     estimated scf accuracy    <       0.00000002 Ry

     iteration #  9     ecut=    60.00 Ry     beta= 0.30
     Davidson diagonalization with overlap
     ethr =  1.64E-11,  avg # of iterations =  2.1

     total cpu time spent up to now is    11623.1 secs

     total energy              =   -1926.27336668 Ry
     estimated scf accuracy    <          5.6E-09 Ry

     iteration # 10     ecut=    60.00 Ry     beta= 0.30
     Davidson diagonalization with overlap
     ethr =  4.68E-12,  avg # of iterations =  4.3

     total cpu time spent up to now is    11661.5 secs

     total energy              =   -1926.27336668 Ry
     estimated scf accuracy    <          3.1E-10 Ry

     iteration # 11     ecut=    60.00 Ry     beta= 0.30
     Davidson diagonalization with overlap
     ethr =  2.60E-13,  avg # of iterations =  2.0

     total cpu time spent up to now is    11686.3 secs

     total energy              =   -1926.27336668 Ry
     estimated scf accuracy    <          2.7E-10 Ry

     iteration # 12     ecut=    60.00 Ry     beta= 0.30
     Davidson diagonalization with overlap
     ethr =  2.24E-13,  avg # of iterations =  1.0

     total cpu time spent up to now is    11705.8 secs

     total energy              =   -1926.27336668 Ry
     estimated scf accuracy    <          3.2E-11 Ry

     iteration # 13     ecut=    60.00 Ry     beta= 0.30
     Davidson diagonalization with overlap
     ethr =  1.00E-13,  avg # of iterations =  1.0

     total cpu time spent up to now is    11725.0 secs

     End of self-consistent calculation

     Number of k-points >= 100: set verbosity='high' to print the bands.

     the Fermi energy is     6.9706 ev

!    total energy              =   -1926.27336668 Ry
     estimated scf accuracy    <          2.7E-12 Ry
     smearing contrib. (-TS)   =      -0.00028846 Ry
     internal energy E=F+TS    =   -1926.27307823 Ry

     The total energy is F=E-TS. E is the sum of the following terms:
     one-electron contribution =   -1695.81953015 Ry
     hartree contribution      =     882.76725218 Ry
     xc contribution           =    -198.32799637 Ry
     ewald contribution        =    -695.47018320 Ry
     DFT-D3 Dispersion         =      -0.36888599 Ry
     one-center paw contrib.   =    -219.05373470 Ry

     convergence has been achieved in  13 iterations

     Forces acting on atoms (cartesian axes, Ry/au):

     atom    1 type  1   force =    -0.00006918   -0.00071639    0.00014298
     atom    2 type  2   force =     0.00015280   -0.00024244    0.00018774
     atom    3 type  2   force =    -0.00010209    0.00035106   -0.00007824
     atom    4 type  2   force =    -0.00011811   -0.00016473   -0.00044733
     atom    5 type  2   force =     0.00017370   -0.00021610    0.00006464
     atom    6 type  2   force =     0.00020841   -0.00006137   -0.00015190
     atom    7 type  2   force =    -0.00012150   -0.00004056   -0.00005657
     atom    8 type  2   force =     0.00008284    0.00007626   -0.00016950
     atom    9 type  3   force =     0.00010602   -0.00000960    0.00005909
     atom   10 type  3   force =     0.00008960    0.00004905   -0.00034789
     atom   11 type  3   force =    -0.00007220   -0.00001396    0.00003318
     atom   12 type  3   force =    -0.00018812    0.00019159    0.00008334
     atom   13 type  4   force =     0.00020985   -0.00026527    0.00010692
     atom   14 type  4   force =     0.00004788   -0.00014527    0.00016879
     atom   15 type  4   force =    -0.00009601    0.00013680   -0.00016526
     atom   16 type  4   force =     0.00006724    0.00002132    0.00015431
     atom   17 type  4   force =    -0.00015086   -0.00002251   -0.00005936
     atom   18 type  4   force =    -0.00003757    0.00000022    0.00005684
     atom   19 type  4   force =    -0.00012641   -0.00006888   -0.00007835
     atom   20 type  4   force =    -0.00002291    0.00019340    0.00033347
     atom   21 type  4   force =    -0.00012534    0.00007991    0.00006346
     atom   22 type  4   force =     0.00014368    0.00019708   -0.00020928
     atom   23 type  4   force =    -0.00005725   -0.00001265    0.00008406
     atom   24 type  4   force =    -0.00021894    0.00010291    0.00001122
     atom   25 type  4   force =     0.00002090    0.00018253    0.00000925
     atom   26 type  4   force =     0.00022663    0.00024032   -0.00018371
     atom   27 type  4   force =    -0.00019399    0.00024682    0.00025907
     atom   28 type  4   force =     0.00017094   -0.00008952    0.00012904

     Total force =     0.001595     Total SCF correction =     0.000005


     Computing stress (Cartesian axis) and pressure

          total   stress  (Ry/bohr**3)                   (kbar)     P=        0.24
   0.00000178   0.00000004  -0.00000051            0.26        0.01       -0.07
   0.00000004   0.00000151   0.00000035            0.01        0.22        0.05
  -0.00000051   0.00000035   0.00000168           -0.07        0.05        0.25

     Energy error            =      5.8E-06 Ry
     Gradient error          =      7.2E-04 Ry/Bohr
     Cell gradient error     =      2.6E-01 kbar

     number of scf cycles    =  30
     number of bfgs steps    =  29

     enthalpy           old  =   -1926.2733608425 Ry
     enthalpy           new  =   -1926.2733666833 Ry

     CASE: enthalpy          _new < enthalpy          _old

     new trust radius        =       0.0037700084 bohr
     new conv_thr            =            1.0E-11 Ry

     new unit-cell volume =   1648.37847 a.u.^3 (   244.26449 Ang^3 )
     density =      3.26289 g/cm^3

CELL_PARAMETERS (angstrom)
   7.528594158   0.006185863  -0.105865606
  -5.029363466   5.781487271   0.191303097
  -2.325616103   1.158315235   5.664735536

ATOMIC_POSITIONS (angstrom)
Co              -4.2252116241        5.3293406470        5.5246813934
Mg              -3.0232530769        4.8924542956        2.7662724493
Mg               3.2114526913        2.0349922910        2.9397648545
Mg               4.4452665263        1.5677097384        0.0934884205
Mg               0.7898404814        6.5762403613        4.3965059448
Mg              -0.5786982298        0.3278038524        1.4273165952
Mg              -0.5913912619        3.7892464374        4.2672162160
Mg               0.5858255758        3.2010925832        1.4027423716
Ni              -1.7727295490        6.1338567384        5.1642383565
Ni              -1.8212349945        2.5168366213        2.3001132679
Ni               2.0200217880        4.3591608540        3.4240847061
Ni               1.9171901790        0.8483118029        0.5956821595
H               -0.5174070121        5.3503279110        5.6333561685
H               -0.3913638318        2.1174924599        2.7640197464
H                0.5913865207        4.8130580006        2.9983600730
H                0.5995208402        1.4907432656        0.1454870474
H                5.0492564780        1.1312613167        2.0486617747
H                3.8078738186        1.7953860679        4.9531614327
H               -3.2065052198        5.0264536196        0.4885340005
H               -4.9071285067        5.7617659509        4.0727547766
H               -3.1674956107        6.2101183724        4.4440999157
H               -2.5712053940        3.3436567196        1.1278359132
H                3.2022589737        3.9687242816        4.5004753881
H                2.9878579999        0.6462410002        1.6641511501
H                0.4396392053        2.3400006512        4.9770357503
H                2.5866492835        3.7708661477        2.1138796630
H               -2.4357780363        3.1476461672        3.5700169395
H               -0.5940337627        4.7530490041        0.6984858972



     Writing config-only to output data dir ./outdir/mg2nih4_co.save/ :
     XML data file
     NEW-OLD atomic charge density approx. for the potential
     New effective cutoffs (rho, wfc):  491.18   61.40

     Check: negative core charge=   -0.000003

     total cpu time spent up to now is    11741.0 secs

     Self-consistent Calculation

     iteration #  1     ecut=    60.00 Ry     beta= 0.30
     Davidson diagonalization with overlap
     ethr =  1.00E-06,  avg # of iterations =  3.0

     Threshold (ethr) on eigenvalues was too large:
     Diagonalizing with lowered threshold

     Davidson diagonalization with overlap
     ethr =  5.09E-09,  avg # of iterations =  2.0

     total cpu time spent up to now is    11798.4 secs

     total energy              =   -1926.27337058 Ry
     estimated scf accuracy    <       0.00000610 Ry

     iteration #  2     ecut=    60.00 Ry     beta= 0.30
     Davidson diagonalization with overlap
     ethr =  5.13E-09,  avg # of iterations =  2.0

     total cpu time spent up to now is    11823.5 secs

     total energy              =   -1926.27336945 Ry
     estimated scf accuracy    <       0.00002319 Ry

     iteration #  3     ecut=    60.00 Ry     beta= 0.30
     Davidson diagonalization with overlap
     ethr =  5.13E-09,  avg # of iterations =  3.0

     total cpu time spent up to now is    11852.5 secs

     total energy              =   -1926.27337087 Ry
     estimated scf accuracy    <       0.00000840 Ry

     iteration #  4     ecut=    60.00 Ry     beta= 0.30
     Davidson diagonalization with overlap
     ethr =  5.13E-09,  avg # of iterations =  2.0

     total cpu time spent up to now is    11875.9 secs

     total energy              =   -1926.27337122 Ry
     estimated scf accuracy    <       0.00000280 Ry

     iteration #  5     ecut=    60.00 Ry     beta= 0.30
     Davidson diagonalization with overlap
     ethr =  2.35E-09,  avg # of iterations =  1.0

     total cpu time spent up to now is    11895.0 secs

     total energy              =   -1926.27337139 Ry
     estimated scf accuracy    <       0.00000036 Ry

     iteration #  6     ecut=    60.00 Ry     beta= 0.30
     Davidson diagonalization with overlap
     ethr =  2.99E-10,  avg # of iterations =  2.0

     total cpu time spent up to now is    11919.0 secs

     total energy              =   -1926.27337143 Ry
     estimated scf accuracy    <       0.00000020 Ry

     iteration #  7     ecut=    60.00 Ry     beta= 0.30
     Davidson diagonalization with overlap
     ethr =  1.68E-10,  avg # of iterations =  1.0

     total cpu time spent up to now is    11938.2 secs

     total energy              =   -1926.27337144 Ry
     estimated scf accuracy    <       0.00000002 Ry

     iteration #  8     ecut=    60.00 Ry     beta= 0.30
     Davidson diagonalization with overlap
     ethr =  1.67E-11,  avg # of iterations =  3.1

     total cpu time spent up to now is    11972.5 secs

     total energy              =   -1926.27337144 Ry
     estimated scf accuracy    <       0.00000002 Ry

     iteration #  9     ecut=    60.00 Ry     beta= 0.30
     Davidson diagonalization with overlap
     ethr =  1.67E-11,  avg # of iterations =  1.2

     total cpu time spent up to now is    11993.2 secs

     total energy              =   -1926.27337144 Ry
     estimated scf accuracy    <          1.6E-09 Ry

     iteration # 10     ecut=    60.00 Ry     beta= 0.30
     Davidson diagonalization with overlap
     ethr =  1.35E-12,  avg # of iterations =  4.0

     total cpu time spent up to now is    12036.3 secs

     total energy              =   -1926.27337144 Ry
     estimated scf accuracy    <          4.6E-10 Ry

     iteration # 11     ecut=    60.00 Ry     beta= 0.30
     Davidson diagonalization with overlap
     ethr =  3.87E-13,  avg # of iterations =  1.3

     total cpu time spent up to now is    12058.5 secs

     total energy              =   -1926.27337144 Ry
     estimated scf accuracy    <          2.4E-10 Ry

     iteration # 12     ecut=    60.00 Ry     beta= 0.30
     Davidson diagonalization with overlap
     ethr =  2.05E-13,  avg # of iterations =  1.8

     total cpu time spent up to now is    12083.1 secs

     total energy              =   -1926.27337144 Ry
     estimated scf accuracy    <          3.0E-11 Ry

     iteration # 13     ecut=    60.00 Ry     beta= 0.30
     Davidson diagonalization with overlap
     ethr =  1.00E-13,  avg # of iterations =  1.0

     total cpu time spent up to now is    12102.4 secs

     End of self-consistent calculation

     Number of k-points >= 100: set verbosity='high' to print the bands.

     the Fermi energy is     6.9684 ev

!    total energy              =   -1926.27337144 Ry
     estimated scf accuracy    <          2.7E-12 Ry
     smearing contrib. (-TS)   =      -0.00028660 Ry
     internal energy E=F+TS    =   -1926.27308484 Ry

     The total energy is F=E-TS. E is the sum of the following terms:
     one-electron contribution =   -1695.87746966 Ry
     hartree contribution      =     882.78821916 Ry
     xc contribution           =    -198.32651505 Ry
     ewald contribution        =    -695.43492942 Ry
     DFT-D3 Dispersion         =      -0.36882046 Ry
     one-center paw contrib.   =    -219.05356941 Ry

     convergence has been achieved in  13 iterations

     Forces acting on atoms (cartesian axes, Ry/au):

     atom    1 type  1   force =    -0.00008995   -0.00048145    0.00007931
     atom    2 type  2   force =     0.00016729   -0.00019061    0.00009429
     atom    3 type  2   force =    -0.00012212    0.00038221   -0.00009741
     atom    4 type  2   force =    -0.00005652   -0.00011807   -0.00029696
     atom    5 type  2   force =     0.00007672   -0.00019501    0.00006531
     atom    6 type  2   force =     0.00014376   -0.00000920   -0.00015342
     atom    7 type  2   force =    -0.00012561    0.00003650   -0.00002607
     atom    8 type  2   force =     0.00000176    0.00000617   -0.00007541
     atom    9 type  3   force =     0.00005290    0.00003298    0.00009371
     atom   10 type  3   force =     0.00021679    0.00028288   -0.00061954
     atom   11 type  3   force =    -0.00001057   -0.00003512   -0.00003473
     atom   12 type  3   force =    -0.00012475    0.00009151   -0.00000756
     atom   13 type  4   force =     0.00014097   -0.00023084    0.00003350
     atom   14 type  4   force =     0.00018522   -0.00012755    0.00015477
     atom   15 type  4   force =    -0.00005662    0.00009915   -0.00014808
     atom   16 type  4   force =    -0.00004478    0.00001843    0.00014088
     atom   17 type  4   force =    -0.00027778   -0.00022614   -0.00013674
     atom   18 type  4   force =    -0.00007361   -0.00006520    0.00005625
     atom   19 type  4   force =    -0.00002094   -0.00002081   -0.00003201
     atom   20 type  4   force =     0.00000841    0.00002557    0.00026548
     atom   21 type  4   force =    -0.00006309    0.00009294    0.00006353
     atom   22 type  4   force =     0.00016738    0.00000123   -0.00004128
     atom   23 type  4   force =    -0.00011767   -0.00003821    0.00007634
     atom   24 type  4   force =    -0.00014000    0.00006616    0.00007451
     atom   25 type  4   force =     0.00006128    0.00015483    0.00002194
     atom   26 type  4   force =     0.00016763    0.00026380   -0.00000431
     atom   27 type  4   force =    -0.00022653    0.00030115    0.00037312
     atom   28 type  4   force =     0.00016042   -0.00011730    0.00008056

     Total force =     0.001500     Total SCF correction =     0.000004


     Computing stress (Cartesian axis) and pressure

          total   stress  (Ry/bohr**3)                   (kbar)     P=        0.08
   0.00000109  -0.00000007  -0.00000076            0.16       -0.01       -0.11
  -0.00000007   0.00000013   0.00000041           -0.01        0.02        0.06
  -0.00000076   0.00000041   0.00000048           -0.11        0.06        0.07

     Energy error            =      4.8E-06 Ry
     Gradient error          =      6.2E-04 Ry/Bohr
     Cell gradient error     =      1.6E-01 kbar

     number of scf cycles    =  31
     number of bfgs steps    =  30

     enthalpy           old  =   -1926.2733666833 Ry
     enthalpy           new  =   -1926.2733714436 Ry

     CASE: enthalpy          _new < enthalpy          _old

     new trust radius        =       0.0035793480 bohr
     new conv_thr            =            1.0E-11 Ry

     new unit-cell volume =   1648.69059 a.u.^3 (   244.31074 Ang^3 )
     density =      3.26227 g/cm^3

CELL_PARAMETERS (angstrom)
   7.529119673   0.006460519  -0.106281275
  -5.029512768   5.781841964   0.191501204
  -2.326041854   1.158261136   5.664999568

ATOMIC_POSITIONS (angstrom)
Co              -4.2254368557        5.3288854875        5.5253488003
Mg              -3.0234510260        4.8924644098        2.7674992701
Mg               3.2114398907        2.0356406842        2.9389930989
Mg               4.4456606605        1.5677911848        0.0921211089
Mg               0.7900474736        6.5765862844        4.3964585387
Mg              -0.5783050179        0.3276957412        1.4271578054
Mg              -0.5914128222        3.7890221962        4.2668888380
Mg               0.5861120575        3.2015118706        1.4023946153
Ni              -1.7726908783        6.1341107792        5.1643097477
Ni              -1.8216608494        2.5169494927        2.2998562341
Ni               2.0202174196        4.3598384310        3.4238459934
Ni               1.9170576768        0.8484940065        0.5960660734
H               -0.5171959369        5.3501913423        5.6333919391
H               -0.3918655577        2.1174852679        2.7641404284
H                0.5913382535        4.8137227455        2.9982680839
H                0.5999002959        1.4912706165        0.1455849004
H                5.0494873396        1.1316523141        2.0481782297
H                3.8081523199        1.7952833805        4.9525865947
H               -3.2068510129        5.0268333444        0.4884703195
H               -4.9079314943        5.7624479548        4.0742919724
H               -3.1683354580        6.2105329515        4.4452344306
H               -2.5715822745        3.3443965031        1.1276215329
H                3.2029248286        3.9693115208        4.5001412572
H                2.9874188503        0.6458207390        1.6644666278
H                0.4391596848        2.3404169820        4.9776825013
H                2.5877479715        3.7728145692        2.1130826624
H               -2.4364031716        3.1474664610        3.5702696336
H               -0.5936316532        4.7532534035        0.6987217110



     Writing config-only to output data dir ./outdir/mg2nih4_co.save/ :
     XML data file
     NEW-OLD atomic charge density approx. for the potential
     New effective cutoffs (rho, wfc):  491.19   61.40

     Check: negative core charge=   -0.000003

     total cpu time spent up to now is    12118.3 secs

     Self-consistent Calculation

     iteration #  1     ecut=    60.00 Ry     beta= 0.30
     Davidson diagonalization with overlap
     ethr =  1.00E-06,  avg # of iterations =  3.0

     Threshold (ethr) on eigenvalues was too large:
     Diagonalizing with lowered threshold

     Davidson diagonalization with overlap
     ethr =  4.62E-09,  avg # of iterations =  2.0

     total cpu time spent up to now is    12174.6 secs

     total energy              =   -1926.27337455 Ry
     estimated scf accuracy    <       0.00000544 Ry

     iteration #  2     ecut=    60.00 Ry     beta= 0.30
     Davidson diagonalization with overlap
     ethr =  4.57E-09,  avg # of iterations =  2.0

     total cpu time spent up to now is    12199.1 secs

     total energy              =   -1926.27337442 Ry
     estimated scf accuracy    <       0.00000623 Ry

     iteration #  3     ecut=    60.00 Ry     beta= 0.30
     Davidson diagonalization with overlap
     ethr =  4.57E-09,  avg # of iterations =  2.0

     total cpu time spent up to now is    12222.2 secs

     total energy              =   -1926.27337476 Ry
     estimated scf accuracy    <       0.00000572 Ry

     iteration #  4     ecut=    60.00 Ry     beta= 0.30
     Davidson diagonalization with overlap
     ethr =  4.57E-09,  avg # of iterations =  2.0

     total cpu time spent up to now is    12244.9 secs

     total energy              =   -1926.27337495 Ry
     estimated scf accuracy    <       0.00000589 Ry

     iteration #  5     ecut=    60.00 Ry     beta= 0.30
     Davidson diagonalization with overlap
     ethr =  4.57E-09,  avg # of iterations =  1.0

     total cpu time spent up to now is    12263.6 secs

     total energy              =   -1926.27337523 Ry
     estimated scf accuracy    <       0.00000043 Ry

     iteration #  6     ecut=    60.00 Ry     beta= 0.30
     Davidson diagonalization with overlap
     ethr =  3.59E-10,  avg # of iterations =  2.0

     total cpu time spent up to now is    12287.8 secs

     total energy              =   -1926.27337528 Ry
     estimated scf accuracy    <       0.00000016 Ry

     iteration #  7     ecut=    60.00 Ry     beta= 0.30
     Davidson diagonalization with overlap
     ethr =  1.33E-10,  avg # of iterations =  1.0

     total cpu time spent up to now is    12306.6 secs

     total energy              =   -1926.27337529 Ry
     estimated scf accuracy    <          6.4E-09 Ry

     iteration #  8     ecut=    60.00 Ry     beta= 0.30
     Davidson diagonalization with overlap
     ethr =  5.42E-12,  avg # of iterations =  4.0

     total cpu time spent up to now is    12348.1 secs

     total energy              =   -1926.27337529 Ry
     estimated scf accuracy    <       0.00000001 Ry

     iteration #  9     ecut=    60.00 Ry     beta= 0.30
     Davidson diagonalization with overlap
     ethr =  5.42E-12,  avg # of iterations =  1.8

     total cpu time spent up to now is    12372.7 secs

     total energy              =   -1926.27337529 Ry
     estimated scf accuracy    <          1.1E-09 Ry

     iteration # 10     ecut=    60.00 Ry     beta= 0.30
     Davidson diagonalization with overlap
     ethr =  9.49E-13,  avg # of iterations =  2.0

     total cpu time spent up to now is    12396.9 secs

     total energy              =   -1926.27337529 Ry
     estimated scf accuracy    <          2.3E-10 Ry

     iteration # 11     ecut=    60.00 Ry     beta= 0.30
     Davidson diagonalization with overlap
     ethr =  1.94E-13,  avg # of iterations =  2.0

     total cpu time spent up to now is    12421.0 secs

     total energy              =   -1926.27337529 Ry
     estimated scf accuracy    <          3.2E-10 Ry

     iteration # 12     ecut=    60.00 Ry     beta= 0.30
     Davidson diagonalization with overlap
     ethr =  1.94E-13,  avg # of iterations =  1.7

     total cpu time spent up to now is    12445.6 secs

     total energy              =   -1926.27337529 Ry
     estimated scf accuracy    <          1.9E-11 Ry

     iteration # 13     ecut=    60.00 Ry     beta= 0.30
     Davidson diagonalization with overlap
     ethr =  1.00E-13,  avg # of iterations =  1.0

     total cpu time spent up to now is    12464.1 secs

     End of self-consistent calculation

     Number of k-points >= 100: set verbosity='high' to print the bands.

     the Fermi energy is     6.9663 ev

!    total energy              =   -1926.27337529 Ry
     estimated scf accuracy    <          1.7E-12 Ry
     smearing contrib. (-TS)   =      -0.00028460 Ry
     internal energy E=F+TS    =   -1926.27309069 Ry

     The total energy is F=E-TS. E is the sum of the following terms:
     one-electron contribution =   -1695.93721858 Ry
     hartree contribution      =     882.81062887 Ry
     xc contribution           =    -198.32486484 Ry
     ewald contribution        =    -695.39946971 Ry
     DFT-D3 Dispersion         =      -0.36875492 Ry
     one-center paw contrib.   =    -219.05341152 Ry

     convergence has been achieved in  13 iterations

     Forces acting on atoms (cartesian axes, Ry/au):

     atom    1 type  1   force =    -0.00003833   -0.00015095    0.00001608
     atom    2 type  2   force =     0.00015774   -0.00007339    0.00000382
     atom    3 type  2   force =    -0.00009869    0.00033151   -0.00011827
     atom    4 type  2   force =     0.00001304   -0.00008437   -0.00011956
     atom    5 type  2   force =    -0.00001878   -0.00015316    0.00002774
     atom    6 type  2   force =     0.00006295    0.00004539   -0.00013298
     atom    7 type  2   force =    -0.00010756    0.00009015   -0.00001142
     atom    8 type  2   force =    -0.00006392   -0.00006166    0.00002150
     atom    9 type  3   force =    -0.00001216    0.00002468    0.00009353
     atom   10 type  3   force =     0.00022974    0.00033365   -0.00052308
     atom   11 type  3   force =     0.00001371   -0.00001637   -0.00009640
     atom   12 type  3   force =    -0.00002905   -0.00002721   -0.00007938
     atom   13 type  4   force =     0.00004207   -0.00017219   -0.00004160
     atom   14 type  4   force =     0.00022332   -0.00009014    0.00011579
     atom   15 type  4   force =     0.00000489    0.00005276   -0.00011699
     atom   16 type  4   force =    -0.00015011    0.00002779    0.00010815
     atom   17 type  4   force =    -0.00030867   -0.00024882   -0.00018271
     atom   18 type  4   force =    -0.00008338   -0.00008867    0.00004766
     atom   19 type  4   force =     0.00008759    0.00002093    0.00000921
     atom   20 type  4   force =     0.00003504   -0.00013023    0.00019346
     atom   21 type  4   force =    -0.00000071    0.00008276    0.00007946
     atom   22 type  4   force =     0.00011758   -0.00015614    0.00007463
     atom   23 type  4   force =    -0.00015731   -0.00008818    0.00005868
     atom   24 type  4   force =    -0.00006986    0.00003871    0.00013191
     atom   25 type  4   force =     0.00005089    0.00012691    0.00004533
     atom   26 type  4   force =     0.00011382    0.00028741    0.00012977
     atom   27 type  4   force =    -0.00014115    0.00022605    0.00025706
     atom   28 type  4   force =     0.00012729   -0.00014721    0.00000861

     Total force =     0.001266     Total SCF correction =     0.000004


     Computing stress (Cartesian axis) and pressure

          total   stress  (Ry/bohr**3)                   (kbar)     P=       -0.12
  -0.00000014  -0.00000017  -0.00000069           -0.02       -0.03       -0.10
  -0.00000017  -0.00000131   0.00000020           -0.03       -0.19        0.03
  -0.00000069   0.00000020  -0.00000100           -0.10        0.03       -0.15

     Energy error            =      3.8E-06 Ry
     Gradient error          =      5.2E-04 Ry/Bohr
     Cell gradient error     =      1.9E-01 kbar

     number of scf cycles    =  32
     number of bfgs steps    =  31

     enthalpy           old  =   -1926.2733714436 Ry
     enthalpy           new  =   -1926.2733752920 Ry

     CASE: enthalpy          _new < enthalpy          _old

     new trust radius        =       0.0032051270 bohr
     new conv_thr            =            1.0E-11 Ry

     new unit-cell volume =   1648.79997 a.u.^3 (   244.32695 Ang^3 )
     density =      3.26205 g/cm^3

CELL_PARAMETERS (angstrom)
   7.529498722   0.006631880  -0.106834007
  -5.029647871   5.781909402   0.191850808
  -2.326543180   1.158228140   5.665085353

ATOMIC_POSITIONS (angstrom)
Co              -4.2258278007        5.3283806655        5.5258651596
Mg              -3.0235963196        4.8922300948        2.7685245419
Mg               3.2112015783        2.0363041815        2.9380544476
Mg               4.4459494216        1.5677395763        0.0908198215
Mg               0.7899651389        6.5765091493        4.3963160228
Mg              -0.5779833811        0.3276570893        1.4269474257
Mg              -0.5916339976        3.7887803958        4.2665575714
Mg               0.5862122960        3.2016942726        1.4020779697
Ni              -1.7728767183        6.1341205336        5.1643203461
Ni              -1.8218910141        2.5171983443        2.2993188602
Ni               2.0202148385        4.3602024010        3.4234577568
Ni               1.9169297300        0.8485502006        0.5962522169
H               -0.5172457357        5.3497999458        5.6332206465
H               -0.3921621808        2.1173712885        2.7642484303
H                0.5911285976        4.8140489016        2.9980447335
H                0.6000644426        1.4915911070        0.1457373491
H                5.0493897571        1.1317510530        2.0474196043
H                3.8081313440        1.7950746421        4.9518207573
H               -3.2070725776        5.0269665739        0.4885738454
H               -4.9086594194        5.7626605719        4.0756534417
H               -3.1691792567        6.2108115090        4.4461765576
H               -2.5718686771        3.3447558209        1.1276023945
H                3.2031736905        3.9696142627        4.4997018723
H                2.9870575463        0.6453478202        1.6646363447
H                0.4386652251        2.3407134923        4.9780666330
H                2.5885794168        3.7744404537        2.1124487625
H               -2.4370575815        3.1473386568        3.5706347845
H               -0.5933009622        4.7531189053        0.6989318536



     Writing config-only to output data dir ./outdir/mg2nih4_co.save/ :
     XML data file
     NEW-OLD atomic charge density approx. for the potential
     New effective cutoffs (rho, wfc):  491.25   61.41

     Check: negative core charge=   -0.000003

     total cpu time spent up to now is    12479.5 secs

     Self-consistent Calculation

     iteration #  1     ecut=    60.00 Ry     beta= 0.30
     Davidson diagonalization with overlap
     ethr =  1.00E-06,  avg # of iterations =  3.0

     Threshold (ethr) on eigenvalues was too large:
     Diagonalizing with lowered threshold

     Davidson diagonalization with overlap
     ethr =  4.04E-09,  avg # of iterations =  2.0

     total cpu time spent up to now is    12534.8 secs

     total energy              =   -1926.27337741 Ry
     estimated scf accuracy    <       0.00000496 Ry

     iteration #  2     ecut=    60.00 Ry     beta= 0.30
     Davidson diagonalization with overlap
     ethr =  4.16E-09,  avg # of iterations =  2.1

     total cpu time spent up to now is    12560.0 secs

     total energy              =   -1926.27337663 Ry
     estimated scf accuracy    <       0.00001464 Ry

     iteration #  3     ecut=    60.00 Ry     beta= 0.30
     Davidson diagonalization with overlap
     ethr =  4.16E-09,  avg # of iterations =  3.0

     total cpu time spent up to now is    12588.4 secs

     total energy              =   -1926.27337758 Ry
     estimated scf accuracy    <       0.00000839 Ry

     iteration #  4     ecut=    60.00 Ry     beta= 0.30
     Davidson diagonalization with overlap
     ethr =  4.16E-09,  avg # of iterations =  2.0

     total cpu time spent up to now is    12611.8 secs

     total energy              =   -1926.27337791 Ry
     estimated scf accuracy    <       0.00000264 Ry

     iteration #  5     ecut=    60.00 Ry     beta= 0.30
     Davidson diagonalization with overlap
     ethr =  2.22E-09,  avg # of iterations =  1.2

     total cpu time spent up to now is    12633.0 secs

     total energy              =   -1926.27337809 Ry
     estimated scf accuracy    <       0.00000019 Ry

     iteration #  6     ecut=    60.00 Ry     beta= 0.30
     Davidson diagonalization with overlap
     ethr =  1.60E-10,  avg # of iterations =  2.0

     total cpu time spent up to now is    12657.5 secs

     total energy              =   -1926.27337810 Ry
     estimated scf accuracy    <       0.00000014 Ry

     iteration #  7     ecut=    60.00 Ry     beta= 0.30
     Davidson diagonalization with overlap
     ethr =  1.16E-10,  avg # of iterations =  1.0

     total cpu time spent up to now is    12676.2 secs

     total energy              =   -1926.27337811 Ry
     estimated scf accuracy    <          1.0E-08 Ry

     iteration #  8     ecut=    60.00 Ry     beta= 0.30
     Davidson diagonalization with overlap
     ethr =  8.40E-12,  avg # of iterations =  4.1

     total cpu time spent up to now is    12712.7 secs

     total energy              =   -1926.27337812 Ry
     estimated scf accuracy    <       0.00000001 Ry

     iteration #  9     ecut=    60.00 Ry     beta= 0.30
     Davidson diagonalization with overlap
     ethr =  8.40E-12,  avg # of iterations =  1.3

     total cpu time spent up to now is    12734.1 secs

     total energy              =   -1926.27337812 Ry
     estimated scf accuracy    <          1.4E-09 Ry

     iteration # 10     ecut=    60.00 Ry     beta= 0.30
     Davidson diagonalization with overlap
     ethr =  1.20E-12,  avg # of iterations =  2.0

     total cpu time spent up to now is    12758.0 secs

     total energy              =   -1926.27337812 Ry
     estimated scf accuracy    <          2.8E-10 Ry

     iteration # 11     ecut=    60.00 Ry     beta= 0.30
     Davidson diagonalization with overlap
     ethr =  2.37E-13,  avg # of iterations =  2.0

     total cpu time spent up to now is    12781.1 secs

     total energy              =   -1926.27337812 Ry
     estimated scf accuracy    <          3.2E-10 Ry

     iteration # 12     ecut=    60.00 Ry     beta= 0.30
     Davidson diagonalization with overlap
     ethr =  2.37E-13,  avg # of iterations =  1.0

     total cpu time spent up to now is    12800.0 secs

     total energy              =   -1926.27337812 Ry
     estimated scf accuracy    <          3.3E-11 Ry

     iteration # 13     ecut=    60.00 Ry     beta= 0.30
     Davidson diagonalization with overlap
     ethr =  1.00E-13,  avg # of iterations =  1.0

     total cpu time spent up to now is    12819.3 secs

     End of self-consistent calculation

     Number of k-points >= 100: set verbosity='high' to print the bands.

     the Fermi energy is     6.9655 ev

!    total energy              =   -1926.27337812 Ry
     estimated scf accuracy    <          3.2E-12 Ry
     smearing contrib. (-TS)   =      -0.00028274 Ry
     internal energy E=F+TS    =   -1926.27309538 Ry

     The total energy is F=E-TS. E is the sum of the following terms:
     one-electron contribution =   -1695.96317142 Ry
     hartree contribution      =     882.82124676 Ry
     xc contribution           =    -198.32411639 Ry
     ewald contribution        =    -695.38496021 Ry
     DFT-D3 Dispersion         =      -0.36873270 Ry
     one-center paw contrib.   =    -219.05336141 Ry

     convergence has been achieved in  13 iterations

     Forces acting on atoms (cartesian axes, Ry/au):

     atom    1 type  1   force =     0.00004450    0.00010030   -0.00001174
     atom    2 type  2   force =     0.00012982    0.00006226   -0.00006285
     atom    3 type  2   force =    -0.00005048    0.00023479   -0.00012625
     atom    4 type  2   force =     0.00006743   -0.00006985    0.00002463
     atom    5 type  2   force =    -0.00008858   -0.00010206   -0.00002978
     atom    6 type  2   force =    -0.00001270    0.00008396   -0.00010265
     atom    7 type  2   force =    -0.00007550    0.00011443   -0.00000392
     atom    8 type  2   force =    -0.00009119   -0.00010946    0.00009438
     atom    9 type  3   force =    -0.00005562   -0.00002084    0.00006069
     atom   10 type  3   force =     0.00015752    0.00019462   -0.00018578
     atom   11 type  3   force =    -0.00001284    0.00000430   -0.00009525
     atom   12 type  3   force =     0.00004724   -0.00008295   -0.00009221
     atom   13 type  4   force =    -0.00003701   -0.00011964   -0.00009073
     atom   14 type  4   force =     0.00018027   -0.00005010    0.00006955
     atom   15 type  4   force =     0.00005650    0.00001880   -0.00008834
     atom   16 type  4   force =    -0.00020328    0.00003155    0.00007238
     atom   17 type  4   force =    -0.00025234   -0.00012439   -0.00018914
     atom   18 type  4   force =    -0.00006248   -0.00005339    0.00003256
     atom   19 type  4   force =     0.00015440    0.00002856    0.00003627
     atom   20 type  4   force =     0.00004592   -0.00019541    0.00011530
     atom   21 type  4   force =     0.00002111    0.00006747    0.00008087
     atom   22 type  4   force =     0.00002157   -0.00022095    0.00009676
     atom   23 type  4   force =    -0.00016682   -0.00013711    0.00004586
     atom   24 type  4   force =    -0.00002817    0.00002816    0.00016304
     atom   25 type  4   force =     0.00002214    0.00010705    0.00004581
     atom   26 type  4   force =     0.00009282    0.00028596    0.00015303
     atom   27 type  4   force =    -0.00000127    0.00008257    0.00002571
     atom   28 type  4   force =     0.00009702   -0.00015864   -0.00003821

     Total force =     0.000990     Total SCF correction =     0.000004


     Computing stress (Cartesian axis) and pressure

          total   stress  (Ry/bohr**3)                   (kbar)     P=       -0.22
  -0.00000091  -0.00000023  -0.00000039           -0.13       -0.03       -0.06
  -0.00000023  -0.00000187  -0.00000012           -0.03       -0.27       -0.02
  -0.00000039  -0.00000012  -0.00000167           -0.06       -0.02       -0.25

     Energy error            =      2.8E-06 Ry
     Gradient error          =      2.9E-04 Ry/Bohr
     Cell gradient error     =      2.7E-01 kbar

     number of scf cycles    =  33
     number of bfgs steps    =  32

     enthalpy           old  =   -1926.2733752920 Ry
     enthalpy           new  =   -1926.2733781178 Ry

     CASE: enthalpy          _new < enthalpy          _old

     new trust radius        =       0.0027936740 bohr
     new conv_thr            =            1.0E-11 Ry

     new unit-cell volume =   1648.69002 a.u.^3 (   244.31066 Ang^3 )
     density =      3.26227 g/cm^3

CELL_PARAMETERS (angstrom)
   7.529637034   0.006695535  -0.107377498
  -5.029705184   5.781702077   0.192180138
  -2.326983035   1.158148038   5.664934496

ATOMIC_POSITIONS (angstrom)
Co              -4.2261580873        5.3278800310        5.5260644645
Mg              -3.0236309960        4.8918422106        2.7691735510
Mg               3.2108364423        2.0368466293        2.9370450270
Mg               4.4460891300        1.5675411505        0.0897619679
Mg               0.7896606504        6.5760059635        4.3959613312
Mg              -0.5777453368        0.3276760110        1.4266899291
Mg              -0.5919434291        3.7884752124        4.2661366327
Mg               0.5861474300        3.2015989773        1.4018037124
Ni              -1.7731639837        6.1337848533        5.1641311573
Ni              -1.8219534113        2.5174054781        2.2987167638
Ni               2.0200389173        4.3602298056        3.4229152020
Ni               1.9168093636        0.8484574922        0.5962647432
H               -0.5174697208        5.3491389111        5.6327696792
H               -0.3922939391        2.1171323763        2.7642792104
H                0.5908616865        4.8140180357        2.9976514232
H                0.6000056925        1.4917396374        0.1459007198
H                5.0490074407        1.1316574544        2.0465185593
H                3.8078856564        1.7947353469        4.9509510944
H               -3.2070974305        5.0268446446        0.4887119565
H               -4.9091636142        5.7623641010        4.0766422330
H               -3.1698703981        6.2108333532        4.4467807746
H               -2.5720662857        3.3447139357        1.1276639391
H                3.2030473802        3.9695388313        4.4991407331
H                2.9867381426        0.6448751631        1.6647170943
H                0.4381932934        2.3408482235        4.9781525280
H                2.5891391497        3.7756649501        2.1119378235
H               -2.4375633566        3.1471418028        3.5708231168
H               -0.5930569822        4.7526485213        0.6990145229



     Writing config-only to output data dir ./outdir/mg2nih4_co.save/ :
     XML data file
     NEW-OLD atomic charge density approx. for the potential
     New effective cutoffs (rho, wfc):  491.34   61.42

     Check: negative core charge=   -0.000003

     total cpu time spent up to now is    12834.9 secs

     Self-consistent Calculation

     iteration #  1     ecut=    60.00 Ry     beta= 0.30
     Davidson diagonalization with overlap
     ethr =  1.00E-06,  avg # of iterations =  3.0

     Threshold (ethr) on eigenvalues was too large:
     Diagonalizing with lowered threshold

     Davidson diagonalization with overlap
     ethr =  3.70E-09,  avg # of iterations =  2.0

     total cpu time spent up to now is    12897.0 secs

     total energy              =   -1926.27337937 Ry
     estimated scf accuracy    <       0.00000448 Ry

     iteration #  2     ecut=    60.00 Ry     beta= 0.30
     Davidson diagonalization with overlap
     ethr =  3.77E-09,  avg # of iterations =  3.0

     total cpu time spent up to now is    12925.8 secs

     total energy              =   -1926.27337804 Ry
     estimated scf accuracy    <       0.00003396 Ry

     iteration #  3     ecut=    60.00 Ry     beta= 0.30
     Davidson diagonalization with overlap
     ethr =  3.77E-09,  avg # of iterations =  3.0

     total cpu time spent up to now is    12953.1 secs

     total energy              =   -1926.27338004 Ry
     estimated scf accuracy    <       0.00000271 Ry

     iteration #  4     ecut=    60.00 Ry     beta= 0.30
     Davidson diagonalization with overlap
     ethr =  2.28E-09,  avg # of iterations =  1.2

     total cpu time spent up to now is    12973.9 secs

     total energy              =   -1926.27338010 Ry
     estimated scf accuracy    <       0.00000164 Ry

     iteration #  5     ecut=    60.00 Ry     beta= 0.30
     Davidson diagonalization with overlap
     ethr =  1.38E-09,  avg # of iterations =  1.0

     total cpu time spent up to now is    12992.7 secs

     total energy              =   -1926.27338021 Ry
     estimated scf accuracy    <       0.00000009 Ry

     iteration #  6     ecut=    60.00 Ry     beta= 0.30
     Davidson diagonalization with overlap
     ethr =  7.58E-11,  avg # of iterations =  2.0

     total cpu time spent up to now is    13016.9 secs

     total energy              =   -1926.27338022 Ry
     estimated scf accuracy    <       0.00000012 Ry

     iteration #  7     ecut=    60.00 Ry     beta= 0.30
     Davidson diagonalization with overlap
     ethr =  7.58E-11,  avg # of iterations =  2.0

     total cpu time spent up to now is    13039.8 secs

     total energy              =   -1926.27338023 Ry
     estimated scf accuracy    <       0.00000001 Ry

     iteration #  8     ecut=    60.00 Ry     beta= 0.30
     Davidson diagonalization with overlap
     ethr =  1.06E-11,  avg # of iterations =  2.1

     total cpu time spent up to now is    13064.4 secs

     total energy              =   -1926.27338023 Ry
     estimated scf accuracy    <          7.4E-09 Ry

     iteration #  9     ecut=    60.00 Ry     beta= 0.30
     Davidson diagonalization with overlap
     ethr =  6.23E-12,  avg # of iterations =  3.1

     total cpu time spent up to now is    13099.2 secs

     total energy              =   -1926.27338023 Ry
     estimated scf accuracy    <          2.0E-09 Ry

     iteration # 10     ecut=    60.00 Ry     beta= 0.30
     Davidson diagonalization with overlap
     ethr =  1.71E-12,  avg # of iterations =  4.8

     total cpu time spent up to now is    13138.0 secs

     total energy              =   -1926.27338023 Ry
     estimated scf accuracy    <          1.1E-10 Ry

     iteration # 11     ecut=    60.00 Ry     beta= 0.30
     Davidson diagonalization with overlap
     ethr =  1.00E-13,  avg # of iterations =  2.2

     total cpu time spent up to now is    13164.1 secs

     total energy              =   -1926.27338023 Ry
     estimated scf accuracy    <          1.7E-10 Ry

     iteration # 12     ecut=    60.00 Ry     beta= 0.30
     Davidson diagonalization with overlap
     ethr =  1.00E-13,  avg # of iterations =  1.1

     total cpu time spent up to now is    13183.8 secs

     total energy              =   -1926.27338023 Ry
     estimated scf accuracy    <          2.7E-11 Ry

     iteration # 13     ecut=    60.00 Ry     beta= 0.30
     Davidson diagonalization with overlap
     ethr =  1.00E-13,  avg # of iterations =  1.0

     total cpu time spent up to now is    13202.7 secs

     End of self-consistent calculation

     Number of k-points >= 100: set verbosity='high' to print the bands.

     the Fermi energy is     6.9663 ev

!    total energy              =   -1926.27338023 Ry
     estimated scf accuracy    <          2.5E-12 Ry
     smearing contrib. (-TS)   =      -0.00028118 Ry
     internal energy E=F+TS    =   -1926.27309904 Ry

     The total energy is F=E-TS. E is the sum of the following terms:
     one-electron contribution =   -1695.94812402 Ry
     hartree contribution      =     882.81656931 Ry
     xc contribution           =    -198.32447211 Ry
     ewald contribution        =    -695.39488632 Ry
     DFT-D3 Dispersion         =      -0.36875701 Ry
     one-center paw contrib.   =    -219.05342890 Ry

     convergence has been achieved in  13 iterations

     Forces acting on atoms (cartesian axes, Ry/au):

     atom    1 type  1   force =     0.00010760    0.00020277   -0.00000096
     atom    2 type  2   force =     0.00009013    0.00017176   -0.00010031
     atom    3 type  2   force =    -0.00000003    0.00013421   -0.00011243
     atom    4 type  2   force =     0.00009631   -0.00006760    0.00011339
     atom    5 type  2   force =    -0.00012717   -0.00005053   -0.00008163
     atom    6 type  2   force =    -0.00007122    0.00009561   -0.00006853
     atom    7 type  2   force =    -0.00003853    0.00011336    0.00000589
     atom    8 type  2   force =    -0.00008222   -0.00013102    0.00013573
     atom    9 type  3   force =    -0.00005904   -0.00006511    0.00000652
     atom   10 type  3   force =     0.00006359   -0.00002916    0.00015939
     atom   11 type  3   force =    -0.00005678    0.00000552   -0.00003204
     atom   12 type  3   force =     0.00007407   -0.00005760   -0.00005795
     atom   13 type  4   force =    -0.00007944   -0.00008328   -0.00010907
     atom   14 type  4   force =     0.00010418   -0.00002058    0.00003076
     atom   15 type  4   force =     0.00007743    0.00000380   -0.00007055
     atom   16 type  4   force =    -0.00019045    0.00001799    0.00004535
     atom   17 type  4   force =    -0.00015941    0.00003982   -0.00016865
     atom   18 type  4   force =    -0.00002580    0.00001042    0.00001371
     atom   19 type  4   force =     0.00017250    0.00000576    0.00004938
     atom   20 type  4   force =     0.00004190   -0.00016879    0.00003492
     atom   21 type  4   force =    -0.00000150    0.00006013    0.00005953
     atom   22 type  4   force =    -0.00007215   -0.00020860    0.00005420
     atom   23 type  4   force =    -0.00015461   -0.00016591    0.00004110
     atom   24 type  4   force =    -0.00001001    0.00002850    0.00016465
     atom   25 type  4   force =     0.00000077    0.00009583    0.00001819
     atom   26 type  4   force =     0.00010336    0.00025820    0.00008181
     atom   27 type  4   force =     0.00011523   -0.00004854   -0.00017297
     atom   28 type  4   force =     0.00008126   -0.00014696   -0.00003943

     Total force =     0.000911     Total SCF correction =     0.000003


     Computing stress (Cartesian axis) and pressure

          total   stress  (Ry/bohr**3)                   (kbar)     P=       -0.18
  -0.00000094  -0.00000020  -0.00000007           -0.14       -0.03       -0.01
  -0.00000020  -0.00000145  -0.00000035           -0.03       -0.21       -0.05
  -0.00000007  -0.00000035  -0.00000134           -0.01       -0.05       -0.20

     Energy error            =      2.1E-06 Ry
     Gradient error          =      2.6E-04 Ry/Bohr
     Cell gradient error     =      2.1E-01 kbar

     number of scf cycles    =  34
     number of bfgs steps    =  33

     enthalpy           old  =   -1926.2733781178 Ry
     enthalpy           new  =   -1926.2733802292 Ry

     CASE: enthalpy          _new < enthalpy          _old

     new trust radius        =       0.0025776506 bohr
     new conv_thr            =            1.0E-11 Ry

     new unit-cell volume =   1648.44537 a.u.^3 (   244.27440 Ang^3 )
     density =      3.26275 g/cm^3

CELL_PARAMETERS (angstrom)
   7.529584279   0.006694051  -0.107847747
  -5.029683222   5.781337197   0.192393974
  -2.327321615   1.157984456   5.664624581

ATOMIC_POSITIONS (angstrom)
Co              -4.2263288008        5.3273865746        5.5259927643
Mg              -3.0235651011        4.8914486525        2.7694853066
Mg               3.2104378149        2.0372446155        2.9360184214
Mg               4.4461401220        1.5672489730        0.0889574582
Mg               0.7892302159        6.5752378875        4.3953923235
Mg              -0.5775976702        0.3277301773        1.4264020940
Mg              -0.5922479423        3.7881176798        4.2656387885
Mg               0.5859727074        3.2012873603        1.4015870056
Ni              -1.7734640663        6.1331710512        5.1637318488
Ni              -1.8219289631        2.5174324842        2.2982506043
Ni               2.0197452373        4.3600162797        3.4222924463
Ni               1.9167088245        0.8482873883        0.5961992969
H               -0.5177752057        5.3482805047        5.6321000221
H               -0.3923298702        2.1168006030        2.7642371692
H                0.5906165489        4.8137551299        2.9971075079
H                0.5997936706        1.4917824795        0.1460635078
H                5.0484636747        1.1315132027        2.0455697250
H                3.8075425472        1.7943155290        4.9500692525
H               -3.2069506729        5.0265496916        0.4888021565
H               -4.9094600899        5.7617378222        4.0772534827
H               -3.1704252945        6.2106718970        4.4470851698
H               -2.5722147215        3.3443990719        1.1277014748
H                3.2026781919        3.9691305934        4.4985087322
H                2.9864690077        0.6444166023        1.6647759802
H                0.4377563821        2.3408427868        4.9780298611
H                2.5895536783        3.7766265654        2.1114466361
H               -2.4378660972        3.1468179195        3.5707325645
H               -0.5928419411        4.7519703283        0.6989597008



     Writing config-only to output data dir ./outdir/mg2nih4_co.save/ :
     XML data file
     NEW-OLD atomic charge density approx. for the potential
     New effective cutoffs (rho, wfc):  491.45   61.43

     Check: negative core charge=   -0.000003

     total cpu time spent up to now is    13218.1 secs

     Self-consistent Calculation

     iteration #  1     ecut=    60.00 Ry     beta= 0.30
     Davidson diagonalization with overlap
     ethr =  1.00E-06,  avg # of iterations =  3.0

     Threshold (ethr) on eigenvalues was too large:
     Diagonalizing with lowered threshold

     Davidson diagonalization with overlap
     ethr =  2.60E-09,  avg # of iterations =  2.0

     total cpu time spent up to now is    13279.9 secs

     total energy              =   -1926.27338124 Ry
     estimated scf accuracy    <       0.00000313 Ry

     iteration #  2     ecut=    60.00 Ry     beta= 0.30
     Davidson diagonalization with overlap
     ethr =  2.63E-09,  avg # of iterations =  3.0

     total cpu time spent up to now is    13309.8 secs

     total energy              =   -1926.27338034 Ry
     estimated scf accuracy    <       0.00002458 Ry

     iteration #  3     ecut=    60.00 Ry     beta= 0.30
     Davidson diagonalization with overlap
     ethr =  2.63E-09,  avg # of iterations =  3.0

     total cpu time spent up to now is    13337.7 secs

     total energy              =   -1926.27338173 Ry
     estimated scf accuracy    <       0.00000262 Ry

     iteration #  4     ecut=    60.00 Ry     beta= 0.30
     Davidson diagonalization with overlap
     ethr =  2.21E-09,  avg # of iterations =  1.8

     total cpu time spent up to now is    13363.3 secs

     total energy              =   -1926.27338189 Ry
     estimated scf accuracy    <       0.00000070 Ry

     iteration #  5     ecut=    60.00 Ry     beta= 0.30
     Davidson diagonalization with overlap
     ethr =  5.92E-10,  avg # of iterations =  1.6

     total cpu time spent up to now is    13387.6 secs

     total energy              =   -1926.27338193 Ry
     estimated scf accuracy    <       0.00000012 Ry

     iteration #  6     ecut=    60.00 Ry     beta= 0.30
     Davidson diagonalization with overlap
     ethr =  1.05E-10,  avg # of iterations =  2.0

     total cpu time spent up to now is    13411.0 secs

     total energy              =   -1926.27338194 Ry
     estimated scf accuracy    <       0.00000007 Ry

     iteration #  7     ecut=    60.00 Ry     beta= 0.30
     Davidson diagonalization with overlap
     ethr =  6.16E-11,  avg # of iterations =  1.0

     total cpu time spent up to now is    13429.6 secs

     total energy              =   -1926.27338194 Ry
     estimated scf accuracy    <          5.8E-09 Ry

     iteration #  8     ecut=    60.00 Ry     beta= 0.30
     Davidson diagonalization with overlap
     ethr =  4.91E-12,  avg # of iterations =  3.9

     total cpu time spent up to now is    13465.2 secs

     total energy              =   -1926.27338194 Ry
     estimated scf accuracy    <          5.1E-09 Ry

     iteration #  9     ecut=    60.00 Ry     beta= 0.30
     Davidson diagonalization with overlap
     ethr =  4.27E-12,  avg # of iterations =  1.4

     total cpu time spent up to now is    13487.7 secs

     total energy              =   -1926.27338195 Ry
     estimated scf accuracy    <          5.7E-10 Ry

     iteration # 10     ecut=    60.00 Ry     beta= 0.30
     Davidson diagonalization with overlap
     ethr =  4.79E-13,  avg # of iterations =  4.0

     total cpu time spent up to now is    13526.9 secs

     total energy              =   -1926.27338195 Ry
     estimated scf accuracy    <          1.6E-10 Ry

     iteration # 11     ecut=    60.00 Ry     beta= 0.30
     Davidson diagonalization with overlap
     ethr =  1.32E-13,  avg # of iterations =  1.9

     total cpu time spent up to now is    13551.2 secs

     total energy              =   -1926.27338195 Ry
     estimated scf accuracy    <          1.1E-10 Ry

     iteration # 12     ecut=    60.00 Ry     beta= 0.30
     Davidson diagonalization with overlap
     ethr =  1.00E-13,  avg # of iterations =  1.0

     total cpu time spent up to now is    13570.5 secs

     End of self-consistent calculation

     Number of k-points >= 100: set verbosity='high' to print the bands.

     the Fermi energy is     6.9679 ev

!    total energy              =   -1926.27338195 Ry
     estimated scf accuracy    <          9.4E-12 Ry
     smearing contrib. (-TS)   =      -0.00027999 Ry
     internal energy E=F+TS    =   -1926.27310196 Ry

     The total energy is F=E-TS. E is the sum of the following terms:
     one-electron contribution =   -1695.89972719 Ry
     hartree contribution      =     882.79830872 Ry
     xc contribution           =    -198.32553795 Ry
     ewald contribution        =    -695.42376623 Ry
     DFT-D3 Dispersion         =      -0.36880972 Ry
     one-center paw contrib.   =    -219.05356958 Ry

     convergence has been achieved in  12 iterations

     Forces acting on atoms (cartesian axes, Ry/au):

     atom    1 type  1   force =     0.00012687    0.00017875    0.00002801
     atom    2 type  2   force =     0.00004481    0.00022897   -0.00011317
     atom    3 type  2   force =     0.00003986    0.00005726   -0.00007501
     atom    4 type  2   force =     0.00009584   -0.00006966    0.00014938
     atom    5 type  2   force =    -0.00013788   -0.00000405   -0.00010973
     atom    6 type  2   force =    -0.00010686    0.00007721   -0.00003095
     atom    7 type  2   force =    -0.00000407    0.00009363    0.00002037
     atom    8 type  2   force =    -0.00004895   -0.00012618    0.00014651
     atom    9 type  3   force =    -0.00003086   -0.00008000   -0.00005429
     atom   10 type  3   force =    -0.00001129   -0.00022365    0.00035712
     atom   11 type  3   force =    -0.00007850   -0.00001193    0.00005363
     atom   12 type  3   force =     0.00005822    0.00001741   -0.00000550
     atom   13 type  4   force =    -0.00009109   -0.00005926   -0.00010468
     atom   14 type  4   force =     0.00003335   -0.00000749    0.00000663
     atom   15 type  4   force =     0.00006516    0.00000239   -0.00006340
     atom   16 type  4   force =    -0.00012659   -0.00001182    0.00002898
     atom   17 type  4   force =    -0.00007559    0.00015490   -0.00013674
     atom   18 type  4   force =     0.00000864    0.00006247   -0.00000644
     atom   19 type  4   force =     0.00015780   -0.00002608    0.00005198
     atom   20 type  4   force =     0.00003108   -0.00009338   -0.00003676
     atom   21 type  4   force =    -0.00004490    0.00006219    0.00002640
     atom   22 type  4   force =    -0.00012730   -0.00016063   -0.00000294
     atom   23 type  4   force =    -0.00013326   -0.00016613    0.00004057
     atom   24 type  4   force =    -0.00000995    0.00003332    0.00013781
     atom   25 type  4   force =    -0.00000471    0.00009102   -0.00002097
     atom   26 type  4   force =     0.00012695    0.00021913   -0.00002544
     atom   27 type  4   force =     0.00016604   -0.00011852   -0.00025731
     atom   28 type  4   force =     0.00007719   -0.00011987   -0.00000403

     Total force =     0.000960     Total SCF correction =     0.000014


     Computing stress (Cartesian axis) and pressure

          total   stress  (Ry/bohr**3)                   (kbar)     P=       -0.05
  -0.00000037  -0.00000011   0.00000013           -0.05       -0.02        0.02
  -0.00000011  -0.00000040  -0.00000039           -0.02       -0.06       -0.06
   0.00000013  -0.00000039  -0.00000032            0.02       -0.06       -0.05

     Energy error            =      1.7E-06 Ry
     Gradient error          =      3.6E-04 Ry/Bohr
     Cell gradient error     =      5.8E-02 kbar

     number of scf cycles    =  35
     number of bfgs steps    =  34

     enthalpy           old  =   -1926.2733802292 Ry
     enthalpy           new  =   -1926.2733819456 Ry

     CASE: enthalpy          _new < enthalpy          _old

     new trust radius        =       0.0028718234 bohr
     new conv_thr            =            1.0E-11 Ry

     new unit-cell volume =   1648.16733 a.u.^3 (   244.23320 Ang^3 )
     density =      3.26330 g/cm^3

CELL_PARAMETERS (angstrom)
   7.529474767   0.006663298  -0.108270533
  -5.029644708   5.780929405   0.192493987
  -2.327612816   1.157736971   5.664270540

ATOMIC_POSITIONS (angstrom)
Co              -4.2263657449        5.3268571193        5.5258169244
Mg              -3.0234365046        4.8911652188        2.7695966470
Mg               3.2100739105        2.0376158126        2.9349582883
Mg               4.4462055830        1.5668584273        0.0882863561
Mg               0.7887145192        6.5743285077        4.3946461971
Mg              -0.5775250497        0.3278088298        1.4260696078
Mg              -0.5925481446        3.7877441310        4.2650859394
Mg               0.5857455593        3.2008178907        1.4014426132
Ni              -1.7737548759        6.1323703266        5.1631873369
Ni              -1.8218932019        2.5172382660        2.2979792989
Ni               2.0193852782        4.3596782848        3.4216497704
Ni               1.9166217191        0.8481213989        0.5961210945
H               -0.5181199386        5.3472453805        5.6312878910
H               -0.3923350025        2.1163861567        2.7641772145
H                0.5904288137        4.8134220365        2.9964217850
H                0.5994799350        1.4918022067        0.1462430430
H                5.0478193613        1.1314095738        2.0445493913
H                3.8071954092        1.7938452435        4.9492163909
H               -3.2066801155        5.0261748599        0.4888282258
H               -4.9096804820        5.7609549409        4.0777050875
H               -3.1709732255        6.2104276500        4.4472716071
H               -2.5724025665        3.3439153148        1.1276654357
H                3.2021598789        3.9684472213        4.4978613784
H                2.9861738082        0.6439968634        1.6649230008
H                0.4373268375        2.3408222165        4.9778317548
H                2.5900369835        3.7776343084        2.1108745213
H               -2.4380393038        3.1463803809        3.5703925577
H               -0.5925720288        4.7511468697        0.6988265436



     Writing config-only to output data dir ./outdir/mg2nih4_co.save/ :
     XML data file
     NEW-OLD atomic charge density approx. for the potential
     New effective cutoffs (rho, wfc):  491.56   61.45

     Check: negative core charge=   -0.000003

     total cpu time spent up to now is    13586.1 secs

     Self-consistent Calculation

     iteration #  1     ecut=    60.00 Ry     beta= 0.30
     Davidson diagonalization with overlap
     ethr =  1.00E-06,  avg # of iterations =  2.0

     Threshold (ethr) on eigenvalues was too large:
     Diagonalizing with lowered threshold

     Davidson diagonalization with overlap
     ethr =  1.95E-09,  avg # of iterations =  2.0

     total cpu time spent up to now is    13636.3 secs

     total energy              =   -1926.27338321 Ry
     estimated scf accuracy    <       0.00000233 Ry

     iteration #  2     ecut=    60.00 Ry     beta= 0.30
     Davidson diagonalization with overlap
     ethr =  1.95E-09,  avg # of iterations =  2.7

     total cpu time spent up to now is    13665.7 secs

     total energy              =   -1926.27338298 Ry
     estimated scf accuracy    <       0.00000785 Ry

     iteration #  3     ecut=    60.00 Ry     beta= 0.30
     Davidson diagonalization with overlap
     ethr =  1.95E-09,  avg # of iterations =  2.6

     total cpu time spent up to now is    13695.2 secs

     total energy              =   -1926.27338346 Ry
     estimated scf accuracy    <       0.00000371 Ry

     iteration #  4     ecut=    60.00 Ry     beta= 0.30
     Davidson diagonalization with overlap
     ethr =  1.95E-09,  avg # of iterations =  2.0

     total cpu time spent up to now is    13717.8 secs

     total energy              =   -1926.27338367 Ry
     estimated scf accuracy    <       0.00000063 Ry

     iteration #  5     ecut=    60.00 Ry     beta= 0.30
     Davidson diagonalization with overlap
     ethr =  5.32E-10,  avg # of iterations =  1.1

     total cpu time spent up to now is    13736.9 secs

     total energy              =   -1926.27338368 Ry
     estimated scf accuracy    <       0.00000018 Ry

     iteration #  6     ecut=    60.00 Ry     beta= 0.30
     Davidson diagonalization with overlap
     ethr =  1.48E-10,  avg # of iterations =  1.9

     total cpu time spent up to now is    13761.1 secs

     total energy              =   -1926.27338370 Ry
     estimated scf accuracy    <       0.00000005 Ry

     iteration #  7     ecut=    60.00 Ry     beta= 0.30
     Davidson diagonalization with overlap
     ethr =  4.57E-11,  avg # of iterations =  1.0

     total cpu time spent up to now is    13780.0 secs

     total energy              =   -1926.27338371 Ry
     estimated scf accuracy    <          5.1E-09 Ry

     iteration #  8     ecut=    60.00 Ry     beta= 0.30
     Davidson diagonalization with overlap
     ethr =  4.27E-12,  avg # of iterations =  3.2

     total cpu time spent up to now is    13812.8 secs

     total energy              =   -1926.27338371 Ry
     estimated scf accuracy    <          4.6E-09 Ry

     iteration #  9     ecut=    60.00 Ry     beta= 0.30
     Davidson diagonalization with overlap
     ethr =  3.87E-12,  avg # of iterations =  1.4

     total cpu time spent up to now is    13835.2 secs

     total energy              =   -1926.27338371 Ry
     estimated scf accuracy    <          3.6E-10 Ry

     iteration # 10     ecut=    60.00 Ry     beta= 0.30
     Davidson diagonalization with overlap
     ethr =  3.00E-13,  avg # of iterations =  4.0

     total cpu time spent up to now is    13878.2 secs

     total energy              =   -1926.27338371 Ry
     estimated scf accuracy    <          5.5E-10 Ry

     iteration # 11     ecut=    60.00 Ry     beta= 0.30
     Davidson diagonalization with overlap
     ethr =  3.00E-13,  avg # of iterations =  1.3

     total cpu time spent up to now is    13900.8 secs

     total energy              =   -1926.27338371 Ry
     estimated scf accuracy    <          2.9E-11 Ry

     iteration # 12     ecut=    60.00 Ry     beta= 0.30
     Davidson diagonalization with overlap
     ethr =  1.00E-13,  avg # of iterations =  1.0

     total cpu time spent up to now is    13919.8 secs

     End of self-consistent calculation

     Number of k-points >= 100: set verbosity='high' to print the bands.

     the Fermi energy is     6.9698 ev

!    total energy              =   -1926.27338371 Ry
     estimated scf accuracy    <          4.2E-12 Ry
     smearing contrib. (-TS)   =      -0.00027896 Ry
     internal energy E=F+TS    =   -1926.27310475 Ry

     The total energy is F=E-TS. E is the sum of the following terms:
     one-electron contribution =   -1695.83183192 Ry
     hartree contribution      =     882.77094153 Ry
     xc contribution           =    -198.32678453 Ry
     ewald contribution        =    -695.46282643 Ry
     DFT-D3 Dispersion         =      -0.36886933 Ry
     one-center paw contrib.   =    -219.05373407 Ry

     convergence has been achieved in  12 iterations

     Forces acting on atoms (cartesian axes, Ry/au):

     atom    1 type  1   force =     0.00009912    0.00007931    0.00006185
     atom    2 type  2   force =    -0.00000820    0.00023245   -0.00010848
     atom    3 type  2   force =     0.00006961    0.00000393   -0.00001298
     atom    4 type  2   force =     0.00006773   -0.00007028    0.00015031
     atom    5 type  2   force =    -0.00012660    0.00004090   -0.00010786
     atom    6 type  2   force =    -0.00012359    0.00002899    0.00001680
     atom    7 type  2   force =     0.00002740    0.00005819    0.00003955
     atom    8 type  2   force =    -0.00000039   -0.00009723    0.00013255
     atom    9 type  3   force =     0.00001308   -0.00006173   -0.00011425
     atom   10 type  3   force =    -0.00005135   -0.00032846    0.00036332
     atom   11 type  3   force =    -0.00006281   -0.00003317    0.00012240
     atom   12 type  3   force =     0.00001814    0.00010034    0.00004376
     atom   13 type  4   force =    -0.00008838   -0.00003561   -0.00008742
     atom   14 type  4   force =    -0.00002482   -0.00000807   -0.00000552
     atom   15 type  4   force =     0.00003009    0.00000245   -0.00005848
     atom   16 type  4   force =    -0.00002872   -0.00005496    0.00001846
     atom   17 type  4   force =    -0.00001365    0.00019330   -0.00009851
     atom   18 type  4   force =     0.00003239    0.00008064   -0.00002791
     atom   19 type  4   force =     0.00012941   -0.00004765    0.00004815
     atom   20 type  4   force =     0.00001950   -0.00000721   -0.00009800
     atom   21 type  4   force =    -0.00008819    0.00006965   -0.00000656
     atom   22 type  4   force =    -0.00013386   -0.00010646   -0.00004375
     atom   23 type  4   force =    -0.00011034   -0.00013620    0.00004093
     atom   24 type  4   force =    -0.00002052    0.00003853    0.00008418
     atom   25 type  4   force =     0.00000051    0.00008746   -0.00005257
     atom   26 type  4   force =     0.00014576    0.00018014   -0.00012324
     atom   27 type  4   force =     0.00015227   -0.00012456   -0.00022595
     atom   28 type  4   force =     0.00007641   -0.00008470    0.00004923

     Total force =     0.000936     Total SCF correction =     0.000008


     Computing stress (Cartesian axis) and pressure

          total   stress  (Ry/bohr**3)                   (kbar)     P=        0.09
   0.00000032   0.00000003   0.00000018            0.05        0.00        0.03
   0.00000003   0.00000076  -0.00000024            0.00        0.11       -0.04
   0.00000018  -0.00000024   0.00000083            0.03       -0.04        0.12

     Energy error            =      1.8E-06 Ry
     Gradient error          =      3.6E-04 Ry/Bohr
     Cell gradient error     =      1.2E-01 kbar

     number of scf cycles    =  36
     number of bfgs steps    =  35

     enthalpy           old  =   -1926.2733819456 Ry
     enthalpy           new  =   -1926.2733837064 Ry

     CASE: enthalpy          _new < enthalpy          _old

     new trust radius        =       0.0036675381 bohr
     new conv_thr            =            1.0E-11 Ry

     new unit-cell volume =   1647.94180 a.u.^3 (   244.19978 Ang^3 )
     density =      3.26375 g/cm^3

CELL_PARAMETERS (angstrom)
   7.529401159   0.006663525  -0.108714643
  -5.029606621   5.780578854   0.192528253
  -2.327926426   1.157416000   5.663982020

ATOMIC_POSITIONS (angstrom)
Co              -4.2263120439        5.3262975220        5.5257200536
Mg              -3.0232984577        4.8911084851        2.7696782536
Mg               3.2097589399        2.0380582886        2.9338018856
Mg               4.4463857473        1.5664258905        0.0876323135
Mg               0.7881103447        6.5734579630        4.3937696703
Mg              -0.5775448486        0.3278997516        1.4257188789
Mg              -0.5928200727        3.7873940456        4.2645407803
Mg               0.5855079846        3.2002631548        1.4013995747
Ni              -1.7740349876        6.1315165539        5.1625455695
Ni              -1.8219015533        2.5168032408        2.2979204380
Ni               2.0190018651        4.3593394853        3.4210492263
Ni               1.9165574038        0.8480472652        0.5961113067
H               -0.5185089238        5.3461037281        5.6303867309
H               -0.3923561418        2.1159320751        2.7641363226
H                0.5902991384        4.8131499862        2.9956280790
H                0.5991374287        1.4918334121        0.1464565452
H                5.0471216920        1.1314284992        2.0433841097
H                3.8068989949        1.7933760354        4.9483465310
H               -3.2062989287        5.0258154445        0.4888284324
H               -4.9099411063        5.7601885627        4.0781577711
H               -3.1716677248        6.2102784071        4.4475257669
H               -2.5726984458        3.3433574593        1.1275630502
H                3.2015692028        3.9676082447        4.4972344100
H                2.9858490873        0.6435625235        1.6652104658
H                0.4368686420        2.3408661132        4.9776792777
H                2.5907666010        3.7790153685        2.1101214350
H               -2.4381439831        3.1458200850        3.5698978621
H               -0.5921522816        4.7502697142        0.6986940632



     Writing config-only to output data dir ./outdir/mg2nih4_co.save/ :
     XML data file
     NEW-OLD atomic charge density approx. for the potential
     New effective cutoffs (rho, wfc):  491.66   61.46

     Check: negative core charge=   -0.000003

     total cpu time spent up to now is    13935.4 secs

     Self-consistent Calculation

     iteration #  1     ecut=    60.00 Ry     beta= 0.30
     Davidson diagonalization with overlap
     ethr =  1.00E-06,  avg # of iterations =  2.0

     Threshold (ethr) on eigenvalues was too large:
     Diagonalizing with lowered threshold

     Davidson diagonalization with overlap
     ethr =  2.17E-09,  avg # of iterations =  2.0

     total cpu time spent up to now is    13986.3 secs

     total energy              =   -1926.27338500 Ry
     estimated scf accuracy    <       0.00000261 Ry

     iteration #  2     ecut=    60.00 Ry     beta= 0.30
     Davidson diagonalization with overlap
     ethr =  2.19E-09,  avg # of iterations =  2.3

     total cpu time spent up to now is    14014.4 secs

     total energy              =   -1926.27338478 Ry
     estimated scf accuracy    <       0.00000737 Ry

     iteration #  3     ecut=    60.00 Ry     beta= 0.30
     Davidson diagonalization with overlap
     ethr =  2.19E-09,  avg # of iterations =  2.9

     total cpu time spent up to now is    14044.0 secs

     total energy              =   -1926.27338521 Ry
     estimated scf accuracy    <       0.00000376 Ry

     iteration #  4     ecut=    60.00 Ry     beta= 0.30
     Davidson diagonalization with overlap
     ethr =  2.19E-09,  avg # of iterations =  1.9

     total cpu time spent up to now is    14069.0 secs

     total energy              =   -1926.27338540 Ry
     estimated scf accuracy    <       0.00000096 Ry

     iteration #  5     ecut=    60.00 Ry     beta= 0.30
     Davidson diagonalization with overlap
     ethr =  8.06E-10,  avg # of iterations =  1.0

     total cpu time spent up to now is    14087.9 secs

     total energy              =   -1926.27338543 Ry
     estimated scf accuracy    <       0.00000034 Ry

     iteration #  6     ecut=    60.00 Ry     beta= 0.30
     Davidson diagonalization with overlap
     ethr =  2.89E-10,  avg # of iterations =  1.9

     total cpu time spent up to now is    14112.6 secs

     total energy              =   -1926.27338546 Ry
     estimated scf accuracy    <       0.00000006 Ry

     iteration #  7     ecut=    60.00 Ry     beta= 0.30
     Davidson diagonalization with overlap
     ethr =  4.89E-11,  avg # of iterations =  1.1

     total cpu time spent up to now is    14132.1 secs

     total energy              =   -1926.27338547 Ry
     estimated scf accuracy    <          4.7E-09 Ry

     iteration #  8     ecut=    60.00 Ry     beta= 0.30
     Davidson diagonalization with overlap
     ethr =  3.93E-12,  avg # of iterations =  4.0

     total cpu time spent up to now is    14168.9 secs

     total energy              =   -1926.27338547 Ry
     estimated scf accuracy    <          7.5E-09 Ry

     iteration #  9     ecut=    60.00 Ry     beta= 0.30
     Davidson diagonalization with overlap
     ethr =  3.93E-12,  avg # of iterations =  1.9

     total cpu time spent up to now is    14192.2 secs

     total energy              =   -1926.27338547 Ry
     estimated scf accuracy    <          4.6E-10 Ry

     iteration # 10     ecut=    60.00 Ry     beta= 0.30
     Davidson diagonalization with overlap
     ethr =  3.84E-13,  avg # of iterations =  2.0

     total cpu time spent up to now is    14216.1 secs

     total energy              =   -1926.27338547 Ry
     estimated scf accuracy    <          9.7E-11 Ry

     iteration # 11     ecut=    60.00 Ry     beta= 0.30
     Davidson diagonalization with overlap
     ethr =  1.00E-13,  avg # of iterations =  2.0

     total cpu time spent up to now is    14239.1 secs

     total energy              =   -1926.27338547 Ry
     estimated scf accuracy    <          1.5E-10 Ry

     iteration # 12     ecut=    60.00 Ry     beta= 0.30
     Davidson diagonalization with overlap
     ethr =  1.00E-13,  avg # of iterations =  1.0

     total cpu time spent up to now is    14257.6 secs

     End of self-consistent calculation

     Number of k-points >= 100: set verbosity='high' to print the bands.

     the Fermi energy is     6.9714 ev

!    total energy              =   -1926.27338547 Ry
     estimated scf accuracy    <          5.9E-12 Ry
     smearing contrib. (-TS)   =      -0.00027800 Ry
     internal energy E=F+TS    =   -1926.27310747 Ry

     The total energy is F=E-TS. E is the sum of the following terms:
     one-electron contribution =   -1695.75742205 Ry
     hartree contribution      =     882.73899097 Ry
     xc contribution           =    -198.32773803 Ry
     ewald contribution        =    -695.50414494 Ry
     DFT-D3 Dispersion         =      -0.36891756 Ry
     one-center paw contrib.   =    -219.05387587 Ry

     convergence has been achieved in  12 iterations

     Forces acting on atoms (cartesian axes, Ry/au):

     atom    1 type  1   force =     0.00002983   -0.00004638    0.00008204
     atom    2 type  2   force =    -0.00006469    0.00017635   -0.00008868
     atom    3 type  2   force =     0.00008768   -0.00002176    0.00006936
     atom    4 type  2   force =     0.00001009   -0.00006697    0.00012071
     atom    5 type  2   force =    -0.00009224    0.00008316   -0.00006996
     atom    6 type  2   force =    -0.00011907   -0.00004704    0.00007421
     atom    7 type  2   force =     0.00005095    0.00001147    0.00005802
     atom    8 type  2   force =     0.00005773   -0.00004491    0.00009212
     atom    9 type  3   force =     0.00004452   -0.00000872   -0.00016055
     atom   10 type  3   force =    -0.00006416   -0.00031063    0.00020181
     atom   11 type  3   force =    -0.00000325   -0.00004713    0.00013975
     atom   12 type  3   force =    -0.00001851    0.00015417    0.00006555
     atom   13 type  4   force =    -0.00007824   -0.00000682   -0.00006257
     atom   14 type  4   force =    -0.00006494   -0.00002118   -0.00000666
     atom   15 type  4   force =    -0.00001537   -0.00000612   -0.00004939
     atom   16 type  4   force =     0.00007749   -0.00010255    0.00000762
     atom   17 type  4   force =     0.00002064    0.00014355   -0.00005581
     atom   18 type  4   force =     0.00003977    0.00005093   -0.00004910
     atom   19 type  4   force =     0.00010097   -0.00004141    0.00003852
     atom   20 type  4   force =     0.00001263    0.00005748   -0.00014078
     atom   21 type  4   force =    -0.00010989    0.00007743   -0.00002787
     atom   22 type  4   force =    -0.00008830   -0.00006159   -0.00005284
     atom   23 type  4   force =    -0.00008998   -0.00007735    0.00004070
     atom   24 type  4   force =    -0.00003652    0.00004457    0.00000556
     atom   25 type  4   force =     0.00001113    0.00008046   -0.00005636
     atom   26 type  4   force =     0.00014452    0.00015136   -0.00017060
     atom   27 type  4   force =     0.00008551   -0.00007141   -0.00010174
     atom   28 type  4   force =     0.00007171   -0.00004898    0.00009695

     Total force =     0.000802     Total SCF correction =     0.000010


     Computing stress (Cartesian axis) and pressure

          total   stress  (Ry/bohr**3)                   (kbar)     P=        0.21
   0.00000090   0.00000018   0.00000009            0.13        0.03        0.01
   0.00000018   0.00000168   0.00000006            0.03        0.25        0.01
   0.00000009   0.00000006   0.00000172            0.01        0.01        0.25

     Energy error            =      1.8E-06 Ry
     Gradient error          =      3.1E-04 Ry/Bohr
     Cell gradient error     =      2.5E-01 kbar

     number of scf cycles    =  37
     number of bfgs steps    =  36

     enthalpy           old  =   -1926.2733837064 Ry
     enthalpy           new  =   -1926.2733854675 Ry

     CASE: enthalpy          _new < enthalpy          _old

     new trust radius        =       0.0033160458 bohr
     new conv_thr            =            1.0E-11 Ry

     new unit-cell volume =   1647.93132 a.u.^3 (   244.19823 Ang^3 )
     density =      3.26377 g/cm^3

CELL_PARAMETERS (angstrom)
   7.529476759   0.006709097  -0.109027988
  -5.029629595   5.780512737   0.192533400
  -2.328178860   1.157195423   5.663979925

ATOMIC_POSITIONS (angstrom)
Co              -4.2262432524        5.3259699824        5.5259109095
Mg              -3.0232400245        4.8914079845        2.7697660299
Mg               3.2096765040        2.0385140488        2.9330813728
Mg               4.4466470572        1.5660986502        0.0872374047
Mg               0.7876590770        6.5731047063        4.3932093896
Mg              -0.5776653574        0.3279495234        1.4255184391
Mg              -0.5929772844        3.7872894488        4.2643037078
Mg               0.5854028627        3.1998955615        1.4015244806
Ni              -1.7741941562        6.1310800078        5.1621513624
Ni              -1.8219725422        2.5163323752        2.2980909683
Ni               2.0187973522        4.3592312090        3.4208071585
Ni               1.9165404588        0.8481524763        0.5961770233
H               -0.5188012332        5.3453876676        5.6298527545
H               -0.3924089418        2.1156355061        2.7642026402
H                0.5902876992        4.8131625293        2.9950845945
H                0.5989290540        1.4918813129        0.1466342732
H                5.0466531170        1.1315997347        2.0425256832
H                3.8068017993        1.7931352733        4.9478740732
H               -3.2059444709        5.0257025945        0.4888470096
H               -4.9101956251        5.7598554666        4.0785901265
H               -3.1722925365        6.2103977138        4.4478973920
H               -2.5730258243        3.3429688501        1.1274652482
H                3.2011348812        3.9670151897        4.4969825045
H                2.9855523996        0.6433671370        1.6655854278
H                0.4365622829        2.3411067524        4.9777375414
H                2.5915682247        3.7804302458        2.1095004686
H               -2.4381894793        3.1454513534        3.5695393253
H               -0.5917057823        4.7497183035        0.6986973965



     Writing config-only to output data dir ./outdir/mg2nih4_co.save/ :
     XML data file
     NEW-OLD atomic charge density approx. for the potential
     New effective cutoffs (rho, wfc):  491.71   61.47

     Check: negative core charge=   -0.000003

     total cpu time spent up to now is    14272.9 secs

     Self-consistent Calculation

     iteration #  1     ecut=    60.00 Ry     beta= 0.30
     Davidson diagonalization with overlap
     ethr =  1.00E-06,  avg # of iterations =  2.0

     Threshold (ethr) on eigenvalues was too large:
     Diagonalizing with lowered threshold

     Davidson diagonalization with overlap
     ethr =  2.01E-09,  avg # of iterations =  2.9

     total cpu time spent up to now is    14327.4 secs

     total energy              =   -1926.27338611 Ry
     estimated scf accuracy    <       0.00000267 Ry

     iteration #  2     ecut=    60.00 Ry     beta= 0.30
     Davidson diagonalization with overlap
     ethr =  2.25E-09,  avg # of iterations =  3.0

     total cpu time spent up to now is    14354.8 secs

     total energy              =   -1926.27338511 Ry
     estimated scf accuracy    <       0.00002952 Ry

     iteration #  3     ecut=    60.00 Ry     beta= 0.30
     Davidson diagonalization with overlap
     ethr =  2.25E-09,  avg # of iterations =  3.0

     total cpu time spent up to now is    14382.1 secs

     total energy              =   -1926.27338660 Ry
     estimated scf accuracy    <       0.00000102 Ry

     iteration #  4     ecut=    60.00 Ry     beta= 0.30
     Davidson diagonalization with overlap
     ethr =  8.60E-10,  avg # of iterations =  2.0

     total cpu time spent up to now is    14404.9 secs

     total energy              =   -1926.27338661 Ry
     estimated scf accuracy    <       0.00000102 Ry

     iteration #  5     ecut=    60.00 Ry     beta= 0.30
     Davidson diagonalization with overlap
     ethr =  8.55E-10,  avg # of iterations =  1.1

     total cpu time spent up to now is    14424.5 secs

     total energy              =   -1926.27338667 Ry
     estimated scf accuracy    <       0.00000015 Ry

     iteration #  6     ecut=    60.00 Ry     beta= 0.30
     Davidson diagonalization with overlap
     ethr =  1.22E-10,  avg # of iterations =  2.0

     total cpu time spent up to now is    14448.2 secs

     total energy              =   -1926.27338669 Ry
     estimated scf accuracy    <       0.00000006 Ry

     iteration #  7     ecut=    60.00 Ry     beta= 0.30
     Davidson diagonalization with overlap
     ethr =  5.30E-11,  avg # of iterations =  1.0

     total cpu time spent up to now is    14466.9 secs

     total energy              =   -1926.27338669 Ry
     estimated scf accuracy    <          3.9E-09 Ry

     iteration #  8     ecut=    60.00 Ry     beta= 0.30
     Davidson diagonalization with overlap
     ethr =  3.25E-12,  avg # of iterations =  4.0

     total cpu time spent up to now is    14505.0 secs

     total energy              =   -1926.27338669 Ry
     estimated scf accuracy    <          8.7E-09 Ry

     iteration #  9     ecut=    60.00 Ry     beta= 0.30
     Davidson diagonalization with overlap
     ethr =  3.25E-12,  avg # of iterations =  2.0

     total cpu time spent up to now is    14528.6 secs

     total energy              =   -1926.27338669 Ry
     estimated scf accuracy    <          4.7E-10 Ry

     iteration # 10     ecut=    60.00 Ry     beta= 0.30
     Davidson diagonalization with overlap
     ethr =  3.91E-13,  avg # of iterations =  2.0

     total cpu time spent up to now is    14552.6 secs

     total energy              =   -1926.27338669 Ry
     estimated scf accuracy    <          1.0E-10 Ry

     iteration # 11     ecut=    60.00 Ry     beta= 0.30
     Davidson diagonalization with overlap
     ethr =  1.00E-13,  avg # of iterations =  1.4

     total cpu time spent up to now is    14574.8 secs

     total energy              =   -1926.27338669 Ry
     estimated scf accuracy    <          2.0E-11 Ry

     iteration # 12     ecut=    60.00 Ry     beta= 0.30
     Davidson diagonalization with overlap
     ethr =  1.00E-13,  avg # of iterations =  1.0

     total cpu time spent up to now is    14593.4 secs

     total energy              =   -1926.27338669 Ry
     estimated scf accuracy    <          1.1E-11 Ry

     iteration # 13     ecut=    60.00 Ry     beta= 0.30
     Davidson diagonalization with overlap
     ethr =  1.00E-13,  avg # of iterations =  1.0

     total cpu time spent up to now is    14612.0 secs

     End of self-consistent calculation

     Number of k-points >= 100: set verbosity='high' to print the bands.

     the Fermi energy is     6.9716 ev

!    total energy              =   -1926.27338669 Ry
     estimated scf accuracy    <          6.0E-13 Ry
     smearing contrib. (-TS)   =      -0.00027741 Ry
     internal energy E=F+TS    =   -1926.27310928 Ry

     The total energy is F=E-TS. E is the sum of the following terms:
     one-electron contribution =   -1695.72159088 Ry
     hartree contribution      =     882.72118243 Ry
     xc contribution           =    -198.32766948 Ry
     ewald contribution        =    -695.52221028 Ry
     DFT-D3 Dispersion         =      -0.36891952 Ry
     one-center paw contrib.   =    -219.05390155 Ry

     convergence has been achieved in  13 iterations

     Forces acting on atoms (cartesian axes, Ry/au):

     atom    1 type  1   force =    -0.00004009   -0.00012309    0.00007265
     atom    2 type  2   force =    -0.00009910    0.00008543   -0.00006081
     atom    3 type  2   force =     0.00008649   -0.00001570    0.00013067
     atom    4 type  2   force =    -0.00004916   -0.00005795    0.00007666
     atom    5 type  2   force =    -0.00004419    0.00010578   -0.00000962
     atom    6 type  2   force =    -0.00009471   -0.00011343    0.00011488
     atom    7 type  2   force =     0.00005528   -0.00002583    0.00006118
     atom    8 type  2   force =     0.00009742    0.00000622    0.00004148
     atom    9 type  3   force =     0.00003154    0.00004158   -0.00015951
     atom   10 type  3   force =    -0.00005306   -0.00017966   -0.00001641
     atom   11 type  3   force =     0.00006338   -0.00003619    0.00008701
     atom   12 type  3   force =    -0.00002586    0.00013660    0.00004762
     atom   13 type  4   force =    -0.00006797    0.00002001   -0.00004308
     atom   14 type  4   force =    -0.00007620   -0.00003679   -0.00000147
     atom   15 type  4   force =    -0.00003900   -0.00002801   -0.00003200
     atom   16 type  4   force =     0.00013169   -0.00012820   -0.00000517
     atom   17 type  4   force =     0.00002073    0.00003602   -0.00002269
     atom   18 type  4   force =     0.00002912   -0.00001306   -0.00006065
     atom   19 type  4   force =     0.00008835   -0.00000137    0.00002529
     atom   20 type  4   force =     0.00001309    0.00006456   -0.00014517
     atom   21 type  4   force =    -0.00009554    0.00007840   -0.00002574
     atom   22 type  4   force =    -0.00001483   -0.00004290   -0.00002940
     atom   23 type  4   force =    -0.00007882   -0.00001307    0.00004105
     atom   24 type  4   force =    -0.00004357    0.00005117   -0.00006040
     atom   25 type  4   force =     0.00001666    0.00006844   -0.00002215
     atom   26 type  4   force =     0.00011792    0.00014562   -0.00013513
     atom   27 type  4   force =     0.00001024    0.00000491    0.00003001
     atom   28 type  4   force =     0.00006019   -0.00002949    0.00010091

     Total force =     0.000668     Total SCF correction =     0.000003


     Computing stress (Cartesian axis) and pressure

          total   stress  (Ry/bohr**3)                   (kbar)     P=        0.20
   0.00000085   0.00000024  -0.00000003            0.12        0.04       -0.00
   0.00000024   0.00000167   0.00000031            0.04        0.25        0.05
  -0.00000003   0.00000031   0.00000161           -0.00        0.05        0.24

     Energy error            =      1.2E-06 Ry
     Gradient error          =      1.8E-04 Ry/Bohr
     Cell gradient error     =      2.5E-01 kbar

     number of scf cycles    =  38
     number of bfgs steps    =  37

     enthalpy           old  =   -1926.2733854675 Ry
     enthalpy           new  =   -1926.2733866913 Ry

     CASE: enthalpy          _new < enthalpy          _old

     new trust radius        =       0.0028040588 bohr
     new conv_thr            =            1.0E-11 Ry

     new unit-cell volume =   1648.09424 a.u.^3 (   244.22237 Ang^3 )
     density =      3.26345 g/cm^3

CELL_PARAMETERS (angstrom)
   7.529658023   0.006812520  -0.109271520
  -5.029676313   5.780683921   0.192596782
  -2.328400549   1.157110868   5.664222356

ATOMIC_POSITIONS (angstrom)
Co              -4.2262399643        5.3258844188        5.5263734365
Mg              -3.0232880442        4.8919300996        2.7699589747
Mg               3.2097431230        2.0389756718        2.9327590643
Mg               4.4469122098        1.5659335733        0.0870148938
Mg               0.7873640826        6.5732799308        4.3930220262
Mg              -0.5778520279        0.3279228360        1.4255090417
Mg              -0.5930257331        3.7873947131        4.2643774363
Mg               0.5854283437        3.1997792195        1.4017471242
Ni              -1.7742842947        6.1311017629        5.1620118857
Ni              -1.8220921478        2.5159641074        2.2983428639
Ni               2.0187714433        4.3593754373        3.4208480716
Ni               1.9165693863        0.8483873199        0.5963020054
H               -0.5190338968        5.3451577803        5.6296927941
H               -0.3925006010        2.1155126040        2.7643693903
H                0.5903199929        4.8134034441        2.9948265052
H                0.5988927064        1.4919041944        0.1467775279
H                5.0464109488        1.1318560819        2.0419545898
H                3.8068342363        1.7931056048        4.9476859214
H               -3.2056298904        5.0258336050        0.4889417406
H               -4.9104307542        5.7599285106        4.0790116947
H               -3.1728445533        6.2108342105        4.4484041890
H               -2.5732974746        3.3427865303        1.1274458570
H                3.2008493750        3.9667894661        4.4970404039
H                2.9853610881        0.6433272224        1.6659031069
H                0.4363677364        2.3414810553        4.9780013102
H                2.5923386732        3.7818257553        2.1090509267
H               -2.4382324452        3.1453147332        3.5694505306
H               -0.5912752652        4.7495124306        0.6988433278



     Writing config-only to output data dir ./outdir/mg2nih4_co.save/ :
     XML data file
     NEW-OLD atomic charge density approx. for the potential
     New effective cutoffs (rho, wfc):  491.71   61.47

     Check: negative core charge=   -0.000003

     total cpu time spent up to now is    14627.7 secs

     Self-consistent Calculation

     iteration #  1     ecut=    60.00 Ry     beta= 0.30
     Davidson diagonalization with overlap
     ethr =  1.00E-06,  avg # of iterations =  2.0

     Threshold (ethr) on eigenvalues was too large:
     Diagonalizing with lowered threshold

     Davidson diagonalization with overlap
     ethr =  2.28E-09,  avg # of iterations =  2.0

     total cpu time spent up to now is    14677.9 secs

     total energy              =   -1926.27338708 Ry
     estimated scf accuracy    <       0.00000278 Ry

     iteration #  2     ecut=    60.00 Ry     beta= 0.30
     Davidson diagonalization with overlap
     ethr =  2.34E-09,  avg # of iterations =  3.0

     total cpu time spent up to now is    14706.6 secs

     total energy              =   -1926.27338586 Ry
     estimated scf accuracy    <       0.00003784 Ry

     iteration #  3     ecut=    60.00 Ry     beta= 0.30
     Davidson diagonalization with overlap
     ethr =  2.34E-09,  avg # of iterations =  3.0

     total cpu time spent up to now is    14734.3 secs

     total energy              =   -1926.27338771 Ry
     estimated scf accuracy    <       0.00000065 Ry

     iteration #  4     ecut=    60.00 Ry     beta= 0.30
     Davidson diagonalization with overlap
     ethr =  5.50E-10,  avg # of iterations =  2.0

     total cpu time spent up to now is    14758.6 secs

     total energy              =   -1926.27338771 Ry
     estimated scf accuracy    <       0.00000088 Ry

     iteration #  5     ecut=    60.00 Ry     beta= 0.30
     Davidson diagonalization with overlap
     ethr =  5.50E-10,  avg # of iterations =  1.5

     total cpu time spent up to now is    14782.3 secs

     total energy              =   -1926.27338776 Ry
     estimated scf accuracy    <       0.00000009 Ry

     iteration #  6     ecut=    60.00 Ry     beta= 0.30
     Davidson diagonalization with overlap
     ethr =  7.51E-11,  avg # of iterations =  2.0

     total cpu time spent up to now is    14806.4 secs

     total energy              =   -1926.27338777 Ry
     estimated scf accuracy    <       0.00000006 Ry

     iteration #  7     ecut=    60.00 Ry     beta= 0.30
     Davidson diagonalization with overlap
     ethr =  5.05E-11,  avg # of iterations =  1.0

     total cpu time spent up to now is    14825.4 secs

     total energy              =   -1926.27338778 Ry
     estimated scf accuracy    <          3.6E-09 Ry

     iteration #  8     ecut=    60.00 Ry     beta= 0.30
     Davidson diagonalization with overlap
     ethr =  3.03E-12,  avg # of iterations =  4.2

     total cpu time spent up to now is    14862.4 secs

     total energy              =   -1926.27338778 Ry
     estimated scf accuracy    <          9.1E-10 Ry

     iteration #  9     ecut=    60.00 Ry     beta= 0.30
     Davidson diagonalization with overlap
     ethr =  7.64E-13,  avg # of iterations =  2.0

     total cpu time spent up to now is    14885.7 secs

     total energy              =   -1926.27338778 Ry
     estimated scf accuracy    <          1.0E-09 Ry

     iteration # 10     ecut=    60.00 Ry     beta= 0.30
     Davidson diagonalization with overlap
     ethr =  7.64E-13,  avg # of iterations =  1.5

     total cpu time spent up to now is    14908.3 secs

     total energy              =   -1926.27338778 Ry
     estimated scf accuracy    <          7.6E-11 Ry

     iteration # 11     ecut=    60.00 Ry     beta= 0.30
     Davidson diagonalization with overlap
     ethr =  1.00E-13,  avg # of iterations =  2.0

     total cpu time spent up to now is    14931.6 secs

     total energy              =   -1926.27338778 Ry
     estimated scf accuracy    <          1.5E-11 Ry

     iteration # 12     ecut=    60.00 Ry     beta= 0.30
     Davidson diagonalization with overlap
     ethr =  1.00E-13,  avg # of iterations =  1.0

     total cpu time spent up to now is    14950.2 secs

     End of self-consistent calculation

     Number of k-points >= 100: set verbosity='high' to print the bands.

     the Fermi energy is     6.9705 ev

!    total energy              =   -1926.27338778 Ry
     estimated scf accuracy    <          4.5E-12 Ry
     smearing contrib. (-TS)   =      -0.00027713 Ry
     internal energy E=F+TS    =   -1926.27311065 Ry

     The total energy is F=E-TS. E is the sum of the following terms:
     one-electron contribution =   -1695.72798876 Ry
     hartree contribution      =     882.72036129 Ry
     xc contribution           =    -198.32678883 Ry
     ewald contribution        =    -695.51598494 Ry
     DFT-D3 Dispersion         =      -0.36888464 Ry
     one-center paw contrib.   =    -219.05382477 Ry

     convergence has been achieved in  12 iterations

     Forces acting on atoms (cartesian axes, Ry/au):

     atom    1 type  1   force =    -0.00007922   -0.00013154    0.00004185
     atom    2 type  2   force =    -0.00010416   -0.00000487   -0.00003249
     atom    3 type  2   force =     0.00007022    0.00000225    0.00015227
     atom    4 type  2   force =    -0.00008895   -0.00004623    0.00003544
     atom    5 type  2   force =     0.00000761    0.00010626    0.00005140
     atom    6 type  2   force =    -0.00006139   -0.00014747    0.00012810
     atom    7 type  2   force =     0.00004253   -0.00004581    0.00004521
     atom    8 type  2   force =     0.00011109    0.00003628   -0.00000314
     atom    9 type  3   force =    -0.00001996    0.00007005   -0.00010930
     atom   10 type  3   force =    -0.00003508   -0.00000448   -0.00016965
     atom   11 type  3   force =     0.00009983   -0.00000507   -0.00000304
     atom   12 type  3   force =    -0.00000390    0.00006422    0.00000576
     atom   13 type  4   force =    -0.00005759    0.00003867   -0.00003186
     atom   14 type  4   force =    -0.00006950   -0.00004733    0.00000272
     atom   15 type  4   force =    -0.00003317   -0.00005894   -0.00000704
     atom   16 type  4   force =     0.00011854   -0.00012593   -0.00002203
     atom   17 type  4   force =     0.00000719   -0.00007012    0.00000140
     atom   18 type  4   force =     0.00001245   -0.00007653   -0.00006069
     atom   19 type  4   force =     0.00008729    0.00005230    0.00001064
     atom   20 type  4   force =     0.00001680    0.00003086   -0.00011984
     atom   21 type  4   force =    -0.00006032    0.00006940   -0.00000913
     atom   22 type  4   force =     0.00004741   -0.00003918    0.00000066
     atom   23 type  4   force =    -0.00007122    0.00003507    0.00004469
     atom   24 type  4   force =    -0.00003725    0.00006035   -0.00009229
     atom   25 type  4   force =     0.00001428    0.00005207    0.00002992
     atom   26 type  4   force =     0.00008033    0.00015134   -0.00005134
     atom   27 type  4   force =    -0.00003543    0.00006203    0.00010027
     atom   28 type  4   force =     0.00004157   -0.00002764    0.00006153

     Total force =     0.000627     Total SCF correction =     0.000003


     Computing stress (Cartesian axis) and pressure

          total   stress  (Ry/bohr**3)                   (kbar)     P=        0.10
   0.00000037   0.00000018  -0.00000008            0.05        0.03       -0.01
   0.00000018   0.00000096   0.00000037            0.03        0.14        0.05
  -0.00000008   0.00000037   0.00000078           -0.01        0.05        0.12

     Energy error            =      1.1E-06 Ry
     Gradient error          =      1.7E-04 Ry/Bohr
     Cell gradient error     =      1.4E-01 kbar

     number of scf cycles    =  39
     number of bfgs steps    =  38

     enthalpy           old  =   -1926.2733866913 Ry
     enthalpy           new  =   -1926.2733877775 Ry

     CASE: enthalpy          _new < enthalpy          _old

     new trust radius        =       0.0018309153 bohr
     new conv_thr            =            1.0E-11 Ry

     new unit-cell volume =   1648.31103 a.u.^3 (   244.25449 Ang^3 )
     density =      3.26302 g/cm^3

CELL_PARAMETERS (angstrom)
   7.529846492   0.006904216  -0.109386113
  -5.029733469   5.780959929   0.192699761
  -2.328528499   1.157171101   5.664535070

ATOMIC_POSITIONS (angstrom)
Co              -4.2262913622        5.3259851103        5.5268955231
Mg              -3.0233945787        4.8924401099        2.7701283105
Mg               3.2099187253        2.0393661130        2.9328530553
Mg               4.4470552117        1.5658507523        0.0869957182
Mg               0.7872541101        6.5737545773        4.3931653626
Mg              -0.5780253677        0.3278252867        1.4256443007
Mg              -0.5930126167        3.7876239901        4.2646219387
Mg               0.5855730486        3.1998570411        1.4019747570
Ni              -1.7743189562        6.1314337299        5.1620829632
Ni              -1.8221952116        2.5158301308        2.2984967475
Ni               2.0188901177        4.3596602911        3.4210478872
Ni               1.9166089424        0.8486268372        0.5963849509
H               -0.5191752700        5.3453144665        5.6298031898
H               -0.3926012753        2.1155137629        2.7645651141
H                0.5903754947        4.8137110900        2.9948318738
H                0.5989645317        1.4918827261        0.1468476361
H                5.0463398902        1.1320602547        2.0417287670
H                3.8069280827        1.7931909797        4.9477347960
H               -3.2053740916        5.0261179594        0.4890742312
H               -4.9105595145        5.7602196882        4.0793412440
H               -3.1731699806        6.2113440263        4.4488756141
H               -2.5734577361        3.3427424657        1.1274957493
H                3.2006875800        3.9668777784        4.4973218666
H                2.9851963007        0.6434846410        1.6661149310
H                0.4363137876        2.3419305639        4.9783343690
H                2.5929001630        3.7828905263        2.1088886031
H               -2.4382647664        3.1454306750        3.5695676070
H               -0.5909819203        4.7495278783        0.6990649372



     Writing config-only to output data dir ./outdir/mg2nih4_co.save/ :
     XML data file
     NEW-OLD atomic charge density approx. for the potential
     New effective cutoffs (rho, wfc):  491.69   61.46

     Check: negative core charge=   -0.000003

     total cpu time spent up to now is    14965.6 secs

     Self-consistent Calculation

     iteration #  1     ecut=    60.00 Ry     beta= 0.30
     Davidson diagonalization with overlap
     ethr =  1.00E-06,  avg # of iterations =  2.0

     Threshold (ethr) on eigenvalues was too large:
     Diagonalizing with lowered threshold

     Davidson diagonalization with overlap
     ethr =  1.26E-09,  avg # of iterations =  2.0

     total cpu time spent up to now is    15016.1 secs

     total energy              =   -1926.27338846 Ry
     estimated scf accuracy    <       0.00000151 Ry

     iteration #  2     ecut=    60.00 Ry     beta= 0.30
     Davidson diagonalization with overlap
     ethr =  1.27E-09,  avg # of iterations =  3.0

     total cpu time spent up to now is    15045.1 secs

     total energy              =   -1926.27338798 Ry
     estimated scf accuracy    <       0.00001375 Ry

     iteration #  3     ecut=    60.00 Ry     beta= 0.30
     Davidson diagonalization with overlap
     ethr =  1.27E-09,  avg # of iterations =  3.0

     total cpu time spent up to now is    15072.8 secs

     total energy              =   -1926.27338873 Ry
     estimated scf accuracy    <       0.00000124 Ry

     iteration #  4     ecut=    60.00 Ry     beta= 0.30
     Davidson diagonalization with overlap
     ethr =  1.04E-09,  avg # of iterations =  1.4

     total cpu time spent up to now is    15094.8 secs

     total energy              =   -1926.27338881 Ry
     estimated scf accuracy    <       0.00000023 Ry

     iteration #  5     ecut=    60.00 Ry     beta= 0.30
     Davidson diagonalization with overlap
     ethr =  1.97E-10,  avg # of iterations =  2.0

     total cpu time spent up to now is    15117.9 secs

     total energy              =   -1926.27338882 Ry
     estimated scf accuracy    <       0.00000008 Ry

     iteration #  6     ecut=    60.00 Ry     beta= 0.30
     Davidson diagonalization with overlap
     ethr =  7.05E-11,  avg # of iterations =  2.0

     total cpu time spent up to now is    15141.4 secs

     total energy              =   -1926.27338883 Ry
     estimated scf accuracy    <       0.00000002 Ry

     iteration #  7     ecut=    60.00 Ry     beta= 0.30
     Davidson diagonalization with overlap
     ethr =  1.94E-11,  avg # of iterations =  1.0

     total cpu time spent up to now is    15160.1 secs

     total energy              =   -1926.27338883 Ry
     estimated scf accuracy    <          3.2E-09 Ry

     iteration #  8     ecut=    60.00 Ry     beta= 0.30
     Davidson diagonalization with overlap
     ethr =  2.66E-12,  avg # of iterations =  2.8

     total cpu time spent up to now is    15191.3 secs

     total energy              =   -1926.27338883 Ry
     estimated scf accuracy    <          3.9E-09 Ry

     iteration #  9     ecut=    60.00 Ry     beta= 0.30
     Davidson diagonalization with overlap
     ethr =  2.66E-12,  avg # of iterations =  1.1

     total cpu time spent up to now is    15210.9 secs

     total energy              =   -1926.27338883 Ry
     estimated scf accuracy    <          1.7E-10 Ry

     iteration # 10     ecut=    60.00 Ry     beta= 0.30
     Davidson diagonalization with overlap
     ethr =  1.45E-13,  avg # of iterations =  4.0

     total cpu time spent up to now is    15255.2 secs

     total energy              =   -1926.27338883 Ry
     estimated scf accuracy    <          5.8E-11 Ry

     iteration # 11     ecut=    60.00 Ry     beta= 0.30
     Davidson diagonalization with overlap
     ethr =  1.00E-13,  avg # of iterations =  1.0

     total cpu time spent up to now is    15274.1 secs

     total energy              =   -1926.27338883 Ry
     estimated scf accuracy    <          3.1E-11 Ry

     iteration # 12     ecut=    60.00 Ry     beta= 0.30
     Davidson diagonalization with overlap
     ethr =  1.00E-13,  avg # of iterations =  1.0

     total cpu time spent up to now is    15293.1 secs

     End of self-consistent calculation

     Number of k-points >= 100: set verbosity='high' to print the bands.

     the Fermi energy is     6.9691 ev

!    total energy              =   -1926.27338883 Ry
     estimated scf accuracy    <          4.4E-12 Ry
     smearing contrib. (-TS)   =      -0.00027708 Ry
     internal energy E=F+TS    =   -1926.27311175 Ry

     The total energy is F=E-TS. E is the sum of the following terms:
     one-electron contribution =   -1695.76502982 Ry
     hartree contribution      =     882.73356174 Ry
     xc contribution           =    -198.32575417 Ry
     ewald contribution        =    -695.49334090 Ry
     DFT-D3 Dispersion         =      -0.36883842 Ry
     one-center paw contrib.   =    -219.05371019 Ry

     convergence has been achieved in  12 iterations

     Forces acting on atoms (cartesian axes, Ry/au):

     atom    1 type  1   force =    -0.00007297   -0.00009029    0.00000612
     atom    2 type  2   force =    -0.00008455   -0.00005796   -0.00001060
     atom    3 type  2   force =     0.00004687    0.00001456    0.00013214
     atom    4 type  2   force =    -0.00009421   -0.00003413    0.00001068
     atom    5 type  2   force =     0.00004798    0.00009137    0.00008900
     atom    6 type  2   force =    -0.00003437   -0.00013899    0.00011227
     atom    7 type  2   force =     0.00002311   -0.00004592    0.00001740
     atom    8 type  2   force =     0.00010093    0.00003599   -0.00002683
     atom    9 type  3   force =    -0.00007537    0.00005636   -0.00003606
     atom   10 type  3   force =    -0.00002232    0.00010641   -0.00018692
     atom   11 type  3   force =     0.00008401    0.00002850   -0.00006721
     atom   12 type  3   force =     0.00001859   -0.00001122   -0.00002491
     atom   13 type  4   force =    -0.00004793    0.00004625   -0.00002816
     atom   14 type  4   force =    -0.00005912   -0.00004708    0.00000048
     atom   15 type  4   force =    -0.00000928   -0.00008453    0.00001620
     atom   16 type  4   force =     0.00006079   -0.00010457   -0.00003857
     atom   17 type  4   force =     0.00000288   -0.00011781    0.00001778
     atom   18 type  4   force =     0.00000421   -0.00010271   -0.00005200
     atom   19 type  4   force =     0.00008643    0.00008851   -0.00000211
     atom   20 type  4   force =     0.00001845   -0.00000470   -0.00008688
     atom   21 type  4   force =    -0.00003321    0.00005721    0.00000412
     atom   22 type  4   force =     0.00006810   -0.00003338    0.00001105
     atom   23 type  4   force =    -0.00006275    0.00005119    0.00005005
     atom   24 type  4   force =    -0.00001366    0.00006922   -0.00008246
     atom   25 type  4   force =     0.00000764    0.00003559    0.00006528
     atom   26 type  4   force =     0.00005552    0.00015073    0.00001589
     atom   27 type  4   force =    -0.00003734    0.00007676    0.00008780
     atom   28 type  4   force =     0.00002158   -0.00003535    0.00000647

     Total force =     0.000597     Total SCF correction =     0.000008


     Computing stress (Cartesian axis) and pressure

          total   stress  (Ry/bohr**3)                   (kbar)     P=       -0.02
  -0.00000021   0.00000006  -0.00000001           -0.03        0.01       -0.00
   0.00000006   0.00000001   0.00000023            0.01        0.00        0.03
  -0.00000001   0.00000023  -0.00000022           -0.00        0.03       -0.03

     Energy error            =      1.1E-06 Ry
     Gradient error          =      1.9E-04 Ry/Bohr
     Cell gradient error     =      3.4E-02 kbar

     number of scf cycles    =  40
     number of bfgs steps    =  39

     enthalpy           old  =   -1926.2733877775 Ry
     enthalpy           new  =   -1926.2733888320 Ry

     CASE: enthalpy          _new < enthalpy          _old

     new trust radius        =       0.0017624108 bohr
     new conv_thr            =            1.0E-11 Ry

     new unit-cell volume =   1648.47687 a.u.^3 (   244.27907 Ang^3 )
     density =      3.26269 g/cm^3

CELL_PARAMETERS (angstrom)
   7.529966043   0.006999949  -0.109512719
  -5.029741590   5.781192942   0.192845613
  -2.328643855   1.157258291   5.664776389

ATOMIC_POSITIONS (angstrom)
Co              -4.2263809704        5.3260847079        5.5273513737
Mg              -3.0235335061        4.8928332835        2.7703271931
Mg               3.2100485784        2.0397271089        2.9329748298
Mg               4.4470821206        1.5658000597        0.0869634787
Mg               0.7871767645        6.5742726536        4.3933672785
Mg              -0.5781918500        0.3276503747        1.4258554646
Mg              -0.5929713741        3.7878084517        4.2648554196
Mg               0.5857521686        3.1999843954        1.4021396410
Ni              -1.7744102695        6.1317987605        5.1621178124
Ni              -1.8222860498        2.5158156982        2.2985183610
Ni               2.0190206371        4.3599646794        3.4211659557
Ni               1.9166558439        0.8488159799        0.5964526347
H               -0.5193520501        5.3455443891        5.6298774900
H               -0.3927238191        2.1155102527        2.7647360393
H                0.5903815967        4.8139166050        2.9948649976
H                0.5990708599        1.4917731956        0.1468980332
H                5.0462753690        1.1321844098        2.0415194548
H                3.8069788261        1.7932327197        4.9476727292
H               -3.2050718690        5.0264256226        0.4892350592
H               -4.9106215696        5.7604785682        4.0795635393
H               -3.1734757700        6.2119175574        4.4493041332
H               -2.5735161256        3.3427108955        1.1275831530
H                3.2004881602        3.9670668199        4.4975708555
H                2.9851166096        0.6436059820        1.6661772495
H                0.4362496844        2.3423260812        4.9786542027
H                2.5933895964        3.7839396461        2.1087587162
H               -2.4382998012        3.1455883800        3.5697541533
H               -0.5907234139        4.7495392627        0.6992707116



     Writing config-only to output data dir ./outdir/mg2nih4_co.save/ :
     XML data file
     NEW-OLD atomic charge density approx. for the potential
     New effective cutoffs (rho, wfc):  491.68   61.46

     Check: negative core charge=   -0.000003

     total cpu time spent up to now is    15308.6 secs

     Self-consistent Calculation

     iteration #  1     ecut=    60.00 Ry     beta= 0.30
     Davidson diagonalization with overlap
     ethr =  1.00E-06,  avg # of iterations =  2.0

     Threshold (ethr) on eigenvalues was too large:
     Diagonalizing with lowered threshold

     Davidson diagonalization with overlap
     ethr =  7.61E-10,  avg # of iterations =  2.0

     total cpu time spent up to now is    15359.5 secs

     total energy              =   -1926.27338931 Ry
     estimated scf accuracy    <       0.00000091 Ry

     iteration #  2     ecut=    60.00 Ry     beta= 0.30
     Davidson diagonalization with overlap
     ethr =  7.64E-10,  avg # of iterations =  2.2

     total cpu time spent up to now is    15386.2 secs

     total energy              =   -1926.27338928 Ry
     estimated scf accuracy    <       0.00000160 Ry

     iteration #  3     ecut=    60.00 Ry     beta= 0.30
     Davidson diagonalization with overlap
     ethr =  7.64E-10,  avg # of iterations =  2.0

     total cpu time spent up to now is    15410.4 secs

     total energy              =   -1926.27338938 Ry
     estimated scf accuracy    <       0.00000101 Ry

     iteration #  4     ecut=    60.00 Ry     beta= 0.30
     Davidson diagonalization with overlap
     ethr =  7.64E-10,  avg # of iterations =  2.0

     total cpu time spent up to now is    15433.3 secs

     total energy              =   -1926.27338943 Ry
     estimated scf accuracy    <       0.00000066 Ry

     iteration #  5     ecut=    60.00 Ry     beta= 0.30
     Davidson diagonalization with overlap
     ethr =  5.52E-10,  avg # of iterations =  1.0

     total cpu time spent up to now is    15452.1 secs

     total energy              =   -1926.27338945 Ry
     estimated scf accuracy    <       0.00000006 Ry

     iteration #  6     ecut=    60.00 Ry     beta= 0.30
     Davidson diagonalization with overlap
     ethr =  5.35E-11,  avg # of iterations =  2.0

     total cpu time spent up to now is    15475.8 secs

     total energy              =   -1926.27338946 Ry
     estimated scf accuracy    <       0.00000003 Ry

     iteration #  7     ecut=    60.00 Ry     beta= 0.30
     Davidson diagonalization with overlap
     ethr =  2.22E-11,  avg # of iterations =  1.0

     total cpu time spent up to now is    15494.6 secs

     total energy              =   -1926.27338946 Ry
     estimated scf accuracy    <          1.5E-09 Ry

     iteration #  8     ecut=    60.00 Ry     beta= 0.30
     Davidson diagonalization with overlap
     ethr =  1.27E-12,  avg # of iterations =  4.3

     total cpu time spent up to now is    15533.1 secs

     total energy              =   -1926.27338946 Ry
     estimated scf accuracy    <          3.1E-09 Ry

     iteration #  9     ecut=    60.00 Ry     beta= 0.30
     Davidson diagonalization with overlap
     ethr =  1.27E-12,  avg # of iterations =  1.8

     total cpu time spent up to now is    15556.4 secs

     total energy              =   -1926.27338946 Ry
     estimated scf accuracy    <          2.1E-10 Ry

     iteration # 10     ecut=    60.00 Ry     beta= 0.30
     Davidson diagonalization with overlap
     ethr =  1.73E-13,  avg # of iterations =  2.0

     total cpu time spent up to now is    15580.8 secs

     total energy              =   -1926.27338946 Ry
     estimated scf accuracy    <          6.2E-11 Ry

     iteration # 11     ecut=    60.00 Ry     beta= 0.30
     Davidson diagonalization with overlap
     ethr =  1.00E-13,  avg # of iterations =  1.0

     total cpu time spent up to now is    15599.8 secs

     total energy              =   -1926.27338946 Ry
     estimated scf accuracy    <          4.2E-11 Ry

     iteration # 12     ecut=    60.00 Ry     beta= 0.30
     Davidson diagonalization with overlap
     ethr =  1.00E-13,  avg # of iterations =  1.0

     total cpu time spent up to now is    15618.5 secs

     End of self-consistent calculation

     Number of k-points >= 100: set verbosity='high' to print the bands.

     the Fermi energy is     6.9680 ev

!    total energy              =   -1926.27338946 Ry
     estimated scf accuracy    <          3.3E-12 Ry
     smearing contrib. (-TS)   =      -0.00027706 Ry
     internal energy E=F+TS    =   -1926.27311240 Ry

     The total energy is F=E-TS. E is the sum of the following terms:
     one-electron contribution =   -1695.80643635 Ry
     hartree contribution      =     882.75009702 Ry
     xc contribution           =    -198.32501420 Ry
     ewald contribution        =    -695.46934426 Ry
     DFT-D3 Dispersion         =      -0.36880269 Ry
     one-center paw contrib.   =    -219.05361192 Ry

     convergence has been achieved in  12 iterations

     Forces acting on atoms (cartesian axes, Ry/au):

     atom    1 type  1   force =    -0.00003318   -0.00003181   -0.00002713
     atom    2 type  2   force =    -0.00005040   -0.00008086    0.00000618
     atom    3 type  2   force =     0.00001968    0.00001716    0.00008700
     atom    4 type  2   force =    -0.00007480   -0.00002213   -0.00000241
     atom    5 type  2   force =     0.00007960    0.00006787    0.00010592
     atom    6 type  2   force =    -0.00001349   -0.00010033    0.00007762
     atom    7 type  2   force =     0.00000254   -0.00003435   -0.00001715
     atom    8 type  2   force =     0.00007888    0.00001299   -0.00003461
     atom    9 type  3   force =    -0.00011402    0.00001603    0.00003559
     atom   10 type  3   force =    -0.00001549    0.00013972   -0.00011086
     atom   11 type  3   force =     0.00003072    0.00004960   -0.00008722
     atom   12 type  3   force =     0.00003006   -0.00006005   -0.00002896
     atom   13 type  4   force =    -0.00003443    0.00004620   -0.00002586
     atom   14 type  4   force =    -0.00004989   -0.00003924   -0.00000750
     atom   15 type  4   force =     0.00001422   -0.00010008    0.00003509
     atom   16 type  4   force =    -0.00001522   -0.00007580   -0.00005537
     atom   17 type  4   force =     0.00001411   -0.00011454    0.00003468
     atom   18 type  4   force =     0.00000666   -0.00009333   -0.00003867
     atom   19 type  4   force =     0.00007515    0.00009936   -0.00001400
     atom   20 type  4   force =     0.00001698   -0.00002112   -0.00005565
     atom   21 type  4   force =    -0.00002016    0.00004323    0.00000808
     atom   22 type  4   force =     0.00005210   -0.00001541   -0.00000007
     atom   23 type  4   force =    -0.00004769    0.00004336    0.00005462
     atom   24 type  4   force =     0.00001599    0.00007926   -0.00004790
     atom   25 type  4   force =     0.00000203    0.00002064    0.00007352
     atom   26 type  4   force =     0.00004757    0.00013451    0.00004767
     atom   27 type  4   force =    -0.00001520    0.00006361    0.00003035
     atom   28 type  4   force =    -0.00000231   -0.00004447   -0.00004298

     Total force =     0.000518     Total SCF correction =     0.000006


     Computing stress (Cartesian axis) and pressure

          total   stress  (Ry/bohr**3)                   (kbar)     P=       -0.10
  -0.00000048  -0.00000009   0.00000014           -0.07       -0.01        0.02
  -0.00000009  -0.00000069  -0.00000001           -0.01       -0.10       -0.00
   0.00000014  -0.00000001  -0.00000089            0.02       -0.00       -0.13

     Energy error            =      6.3E-07 Ry
     Gradient error          =      1.4E-04 Ry/Bohr
     Cell gradient error     =      1.3E-01 kbar

     number of scf cycles    =  41
     number of bfgs steps    =  40

     enthalpy           old  =   -1926.2733888320 Ry
     enthalpy           new  =   -1926.2733894635 Ry

     CASE: enthalpy          _new < enthalpy          _old

     new trust radius        =       0.0020266272 bohr
     new conv_thr            =            1.0E-11 Ry

     new unit-cell volume =   1648.56150 a.u.^3 (   244.29161 Ang^3 )
     density =      3.26252 g/cm^3

CELL_PARAMETERS (angstrom)
   7.530024692   0.007062430  -0.109607182
  -5.029733995   5.781342379   0.192961515
  -2.328721989   1.157329076   5.664877214

ATOMIC_POSITIONS (angstrom)
Co              -4.2264562306        5.3260923155        5.5276471138
Mg              -3.0236823593        4.8930852387        2.7704501993
Mg               3.2101696704        2.0400716716        2.9330995638
Mg               4.4469979585        1.5656722080        0.0869397749
Mg               0.7871306947        6.5747013131        4.3935363004
Mg              -0.5783483501        0.3273973254        1.4260947970
Mg              -0.5929253617        3.7878991854        4.2649687227
Mg               0.5859782763        3.2000606670        1.4022361886
Ni              -1.7745701237        6.1320494044        5.1620383452
Ni              -1.8223609446        2.5158583719        2.2984015342
Ni               2.0191368944        4.3602165913        3.4211534224
Ni               1.9166951535        0.8489358886        0.5964915601
H               -0.5195565018        5.3457002946        5.6297925564
H               -0.3928755072        2.1154250957        2.7648513182
H                0.5903712748        4.8139492844        2.9948413977
H                0.5991436001        1.4915710828        0.1469136070
H                5.0461792381        1.1321983047        2.0412976790
H                3.8070144869        1.7931457597        4.9474779230
H               -3.2046858232        5.0267229056        0.4893572379
H               -4.9106167323        5.7606092352        4.0796448430
H               -3.1737803706        6.2124429099        4.4496258842
H               -2.5735278244        3.3426112886        1.1276306934
H                3.2002085894        3.9672074829        4.4977670663
H                2.9850351866        0.6437504794        1.6661757461
H                0.4361880197        2.3426989616        4.9789145273
H                2.5939044322        3.7850440297        2.1086126656
H               -2.4383155364        3.1457470736        3.5698659526
H               -0.5904899082        4.7494100264        0.6994150415



     Writing config-only to output data dir ./outdir/mg2nih4_co.save/ :
     XML data file
     NEW-OLD atomic charge density approx. for the potential
     New effective cutoffs (rho, wfc):  491.68   61.46

     Check: negative core charge=   -0.000003

     total cpu time spent up to now is    15634.1 secs

     Self-consistent Calculation

     iteration #  1     ecut=    60.00 Ry     beta= 0.30
     Davidson diagonalization with overlap
     ethr =  1.00E-06,  avg # of iterations =  2.0

     Threshold (ethr) on eigenvalues was too large:
     Diagonalizing with lowered threshold

     Davidson diagonalization with overlap
     ethr =  8.28E-10,  avg # of iterations =  2.0

     total cpu time spent up to now is    15684.8 secs

     total energy              =   -1926.27338989 Ry
     estimated scf accuracy    <       0.00000103 Ry

     iteration #  2     ecut=    60.00 Ry     beta= 0.30
     Davidson diagonalization with overlap
     ethr =  8.68E-10,  avg # of iterations =  3.0

     total cpu time spent up to now is    15714.4 secs

     total energy              =   -1926.27338967 Ry
     estimated scf accuracy    <       0.00000537 Ry

     iteration #  3     ecut=    60.00 Ry     beta= 0.30
     Davidson diagonalization with overlap
     ethr =  8.68E-10,  avg # of iterations =  3.0

     total cpu time spent up to now is    15742.1 secs

     total energy              =   -1926.27338998 Ry
     estimated scf accuracy    <       0.00000120 Ry

     iteration #  4     ecut=    60.00 Ry     beta= 0.30
     Davidson diagonalization with overlap
     ethr =  8.68E-10,  avg # of iterations =  1.1

     total cpu time spent up to now is    15761.7 secs

     total energy              =   -1926.27339004 Ry
     estimated scf accuracy    <       0.00000033 Ry

     iteration #  5     ecut=    60.00 Ry     beta= 0.30
     Davidson diagonalization with overlap
     ethr =  2.74E-10,  avg # of iterations =  1.9

     total cpu time spent up to now is    15785.6 secs

     total energy              =   -1926.27339006 Ry
     estimated scf accuracy    <       0.00000007 Ry

     iteration #  6     ecut=    60.00 Ry     beta= 0.30
     Davidson diagonalization with overlap
     ethr =  6.03E-11,  avg # of iterations =  2.0

     total cpu time spent up to now is    15808.9 secs

     total energy              =   -1926.27339006 Ry
     estimated scf accuracy    <       0.00000003 Ry

     iteration #  7     ecut=    60.00 Ry     beta= 0.30
     Davidson diagonalization with overlap
     ethr =  2.75E-11,  avg # of iterations =  1.0

     total cpu time spent up to now is    15827.9 secs

     total energy              =   -1926.27339007 Ry
     estimated scf accuracy    <          2.7E-09 Ry

     iteration #  8     ecut=    60.00 Ry     beta= 0.30
     Davidson diagonalization with overlap
     ethr =  2.25E-12,  avg # of iterations =  3.1

     total cpu time spent up to now is    15862.3 secs

     total energy              =   -1926.27339007 Ry
     estimated scf accuracy    <          4.7E-09 Ry

     iteration #  9     ecut=    60.00 Ry     beta= 0.30
     Davidson diagonalization with overlap
     ethr =  2.25E-12,  avg # of iterations =  2.0

     total cpu time spent up to now is    15885.5 secs

     total energy              =   -1926.27339007 Ry
     estimated scf accuracy    <          2.8E-10 Ry

     iteration # 10     ecut=    60.00 Ry     beta= 0.30
     Davidson diagonalization with overlap
     ethr =  2.32E-13,  avg # of iterations =  4.1

     total cpu time spent up to now is    15926.7 secs

     total energy              =   -1926.27339007 Ry
     estimated scf accuracy    <          1.2E-10 Ry

     iteration # 11     ecut=    60.00 Ry     beta= 0.30
     Davidson diagonalization with overlap
     ethr =  1.04E-13,  avg # of iterations =  1.4

     total cpu time spent up to now is    15949.5 secs

     total energy              =   -1926.27339007 Ry
     estimated scf accuracy    <          3.3E-11 Ry

     iteration # 12     ecut=    60.00 Ry     beta= 0.30
     Davidson diagonalization with overlap
     ethr =  1.00E-13,  avg # of iterations =  1.0

     total cpu time spent up to now is    15968.2 secs

     End of self-consistent calculation

     Number of k-points >= 100: set verbosity='high' to print the bands.

     the Fermi energy is     6.9675 ev

!    total energy              =   -1926.27339007 Ry
     estimated scf accuracy    <          3.0E-12 Ry
     smearing contrib. (-TS)   =      -0.00027704 Ry
     internal energy E=F+TS    =   -1926.27311303 Ry

     The total energy is F=E-TS. E is the sum of the following terms:
     one-electron contribution =   -1695.84383806 Ry
     hartree contribution      =     882.76645451 Ry
     xc contribution           =    -198.32473996 Ry
     ewald contribution        =    -695.44865391 Ry
     DFT-D3 Dispersion         =      -0.36878411 Ry
     one-center paw contrib.   =    -219.05355149 Ry

     convergence has been achieved in  12 iterations

     Forces acting on atoms (cartesian axes, Ry/au):

     atom    1 type  1   force =     0.00002178    0.00003178   -0.00005441
     atom    2 type  2   force =    -0.00000882   -0.00007995    0.00001955
     atom    3 type  2   force =    -0.00001124    0.00001290    0.00002844
     atom    4 type  2   force =    -0.00003573   -0.00000909   -0.00000668
     atom    5 type  2   force =     0.00010093    0.00003855    0.00010464
     atom    6 type  2   force =     0.00000126   -0.00004081    0.00003059
     atom    7 type  2   force =    -0.00001545   -0.00001614   -0.00005237
     atom    8 type  2   force =     0.00004971   -0.00002644   -0.00002893
     atom    9 type  3   force =    -0.00011943   -0.00003661    0.00009413
     atom   10 type  3   force =    -0.00000762    0.00010678    0.00000530
     atom   11 type  3   force =    -0.00004117    0.00005227   -0.00006077
     atom   12 type  3   force =     0.00001740   -0.00006878   -0.00000822
     atom   13 type  4   force =    -0.00001800    0.00004189   -0.00002194
     atom   14 type  4   force =    -0.00004104   -0.00002581   -0.00001985
     atom   15 type  4   force =     0.00002511   -0.00010265    0.00004701
     atom   16 type  4   force =    -0.00008697   -0.00005048   -0.00006891
     atom   17 type  4   force =     0.00003855   -0.00007588    0.00005464
     atom   18 type  4   force =     0.00001773   -0.00005677   -0.00002260
     atom   19 type  4   force =     0.00004997    0.00008085   -0.00002441
     atom   20 type  4   force =     0.00001319   -0.00001302   -0.00003007
     atom   21 type  4   force =    -0.00002208    0.00003032    0.00000147
     atom   22 type  4   force =     0.00001109    0.00001382   -0.00002483
     atom   23 type  4   force =    -0.00002646    0.00001618    0.00005340
     atom   24 type  4   force =     0.00005038    0.00008552    0.00000022
     atom   25 type  4   force =    -0.00000059    0.00000646    0.00005213
     atom   26 type  4   force =     0.00005652    0.00009807    0.00003955
     atom   27 type  4   force =     0.00001201    0.00003822   -0.00003508
     atom   28 type  4   force =    -0.00003101   -0.00005117   -0.00007202

     Total force =     0.000446     Total SCF correction =     0.000007


     Computing stress (Cartesian axis) and pressure

          total   stress  (Ry/bohr**3)                   (kbar)     P=       -0.13
  -0.00000047  -0.00000020   0.00000028           -0.07       -0.03        0.04
  -0.00000020  -0.00000109  -0.00000027           -0.03       -0.16       -0.04
   0.00000028  -0.00000027  -0.00000115            0.04       -0.04       -0.17

     Energy error            =      6.0E-07 Ry
     Gradient error          =      1.2E-04 Ry/Bohr
     Cell gradient error     =      1.7E-01 kbar

     number of scf cycles    =  42
     number of bfgs steps    =  41

     enthalpy           old  =   -1926.2733894635 Ry
     enthalpy           new  =   -1926.2733900677 Ry

     CASE: enthalpy          _new < enthalpy          _old

     new trust radius        =       0.0020628430 bohr
     new conv_thr            =            1.0E-11 Ry

     new unit-cell volume =   1648.51174 a.u.^3 (   244.28424 Ang^3 )
     density =      3.26262 g/cm^3

CELL_PARAMETERS (angstrom)
   7.530009509   0.007082348  -0.109677669
  -5.029709968   5.781310153   0.192982262
  -2.328767019   1.157297442   5.664754485

ATOMIC_POSITIONS (angstrom)
Co              -4.2264790765        5.3259211117        5.5276171401
Mg              -3.0238019609        4.8930751715        2.7704771550
Mg               3.2101970565        2.0402837008        2.9330366132
Mg               4.4468660856        1.5655019724        0.0868569829
Mg               0.7871047577        6.5748237804        4.3935197704
Mg              -0.5784633085        0.3271366176        1.4262668530
Mg              -0.5928829254        3.7877874272        4.2648469527
Mg               0.5861629550        3.1999893364        1.4022099984
Ni              -1.7747970386        6.1319853980        5.1617666387
Ni              -1.8224130259        2.5158643795        2.2981921156
Ni               2.0191552487        4.3602818575        3.4209397591
Ni               1.9167208476        0.8489479732        0.5965344856
H               -0.5197649597        5.3456143414        5.6294433769
H               -0.3930219485        2.1152339300        2.7648358379
H                0.5903258428        4.8137107156        2.9946824915
H                0.5991321184        1.4913009261        0.1468920263
H                5.0460750117        1.1320826023        2.0410328690
H                3.8070310662        1.7928911402        4.9470734603
H               -3.2043151445        5.0268725661        0.4893732802
H               -4.9105854976        5.7605030281        4.0794968011
H               -3.1741047533        6.2127645846        4.4497113328
H               -2.5735157192        3.3424467920        1.1275800303
H                3.1999111614        3.9671541435        4.4977628786
H                2.9850512919        0.6437803185        1.6661032249
H                0.4361088150        2.3428559926        4.9790006281
H                2.5943831783        3.7859915412        2.1083656647
H               -2.4383101861        3.1457566978        3.5698008326
H               -0.5903145684        4.7491011486        0.6994078802



     Writing config-only to output data dir ./outdir/mg2nih4_co.save/ :
     XML data file
     NEW-OLD atomic charge density approx. for the potential
     New effective cutoffs (rho, wfc):  491.70   61.46

     Check: negative core charge=   -0.000003

     total cpu time spent up to now is    15983.8 secs

     Self-consistent Calculation

     iteration #  1     ecut=    60.00 Ry     beta= 0.30
     Davidson diagonalization with overlap
     ethr =  1.00E-06,  avg # of iterations =  2.0

     Threshold (ethr) on eigenvalues was too large:
     Diagonalizing with lowered threshold

     Davidson diagonalization with overlap
     ethr =  9.43E-10,  avg # of iterations =  2.0

     total cpu time spent up to now is    16033.6 secs

     total energy              =   -1926.27339004 Ry
     estimated scf accuracy    <       0.00000119 Ry

     iteration #  2     ecut=    60.00 Ry     beta= 0.30
     Davidson diagonalization with overlap
     ethr =  1.00E-09,  avg # of iterations =  3.0

     total cpu time spent up to now is    16062.4 secs

     total energy              =   -1926.27338955 Ry
     estimated scf accuracy    <       0.00001504 Ry

     iteration #  3     ecut=    60.00 Ry     beta= 0.30
     Davidson diagonalization with overlap
     ethr =  1.00E-09,  avg # of iterations =  3.0

     total cpu time spent up to now is    16090.3 secs

     total energy              =   -1926.27339031 Ry
     estimated scf accuracy    <       0.00000029 Ry

     iteration #  4     ecut=    60.00 Ry     beta= 0.30
     Davidson diagonalization with overlap
     ethr =  2.43E-10,  avg # of iterations =  2.0

     total cpu time spent up to now is    16113.4 secs

     total energy              =   -1926.27339031 Ry
     estimated scf accuracy    <       0.00000031 Ry

     iteration #  5     ecut=    60.00 Ry     beta= 0.30
     Davidson diagonalization with overlap
     ethr =  2.43E-10,  avg # of iterations =  1.0

     total cpu time spent up to now is    16132.2 secs

     total energy              =   -1926.27339033 Ry
     estimated scf accuracy    <       0.00000002 Ry

     iteration #  6     ecut=    60.00 Ry     beta= 0.30
     Davidson diagonalization with overlap
     ethr =  2.00E-11,  avg # of iterations =  2.0

     total cpu time spent up to now is    16156.6 secs

     total energy              =   -1926.27339033 Ry
     estimated scf accuracy    <       0.00000002 Ry

     iteration #  7     ecut=    60.00 Ry     beta= 0.30
     Davidson diagonalization with overlap
     ethr =  1.97E-11,  avg # of iterations =  1.5

     total cpu time spent up to now is    16180.3 secs

     total energy              =   -1926.27339033 Ry
     estimated scf accuracy    <          3.1E-09 Ry

     iteration #  8     ecut=    60.00 Ry     beta= 0.30
     Davidson diagonalization with overlap
     ethr =  2.64E-12,  avg # of iterations =  2.0

     total cpu time spent up to now is    16204.6 secs

     total energy              =   -1926.27339033 Ry
     estimated scf accuracy    <          3.0E-09 Ry

     iteration #  9     ecut=    60.00 Ry     beta= 0.30
     Davidson diagonalization with overlap
     ethr =  2.49E-12,  avg # of iterations =  1.3

     total cpu time spent up to now is    16226.4 secs

     total energy              =   -1926.27339033 Ry
     estimated scf accuracy    <          4.2E-10 Ry

     iteration # 10     ecut=    60.00 Ry     beta= 0.30
     Davidson diagonalization with overlap
     ethr =  3.50E-13,  avg # of iterations =  4.0

     total cpu time spent up to now is    16264.9 secs

     total energy              =   -1926.27339033 Ry
     estimated scf accuracy    <          6.0E-11 Ry

     iteration # 11     ecut=    60.00 Ry     beta= 0.30
     Davidson diagonalization with overlap
     ethr =  1.00E-13,  avg # of iterations =  1.0

     total cpu time spent up to now is    16283.6 secs

     total energy              =   -1926.27339033 Ry
     estimated scf accuracy    <          3.8E-11 Ry

     iteration # 12     ecut=    60.00 Ry     beta= 0.30
     Davidson diagonalization with overlap
     ethr =  1.00E-13,  avg # of iterations =  1.0

     total cpu time spent up to now is    16302.3 secs

     End of self-consistent calculation

     Number of k-points >= 100: set verbosity='high' to print the bands.

     the Fermi energy is     6.9679 ev

!    total energy              =   -1926.27339033 Ry
     estimated scf accuracy    <          4.0E-12 Ry
     smearing contrib. (-TS)   =      -0.00027702 Ry
     internal energy E=F+TS    =   -1926.27311332 Ry

     The total energy is F=E-TS. E is the sum of the following terms:
     one-electron contribution =   -1695.85521233 Ry
     hartree contribution      =     882.77301552 Ry
     xc contribution           =    -198.32509277 Ry
     ewald contribution        =    -695.44346877 Ry
     DFT-D3 Dispersion         =      -0.36879399 Ry
     one-center paw contrib.   =    -219.05356098 Ry

     convergence has been achieved in  12 iterations

     Forces acting on atoms (cartesian axes, Ry/au):

     atom    1 type  1   force =     0.00006042    0.00007367   -0.00006519
     atom    2 type  2   force =     0.00002283   -0.00006094    0.00002437
     atom    3 type  2   force =    -0.00003464    0.00000846   -0.00001550
     atom    4 type  2   force =     0.00000310   -0.00000003   -0.00000364
     atom    5 type  2   force =     0.00010253    0.00001237    0.00008674
     atom    6 type  2   force =     0.00000774    0.00001287   -0.00000869
     atom    7 type  2   force =    -0.00002390    0.00000009   -0.00007323
     atom    8 type  2   force =     0.00002622   -0.00006340   -0.00001531
     atom    9 type  3   force =    -0.00008376   -0.00006985    0.00010958
     atom   10 type  3   force =     0.00000062    0.00003652    0.00008604
     atom   11 type  3   force =    -0.00008993    0.00002924   -0.00000506
     atom   12 type  3   force =    -0.00001149   -0.00003134    0.00002662
     atom   13 type  4   force =    -0.00000292    0.00003535   -0.00001520
     atom   14 type  4   force =    -0.00003248   -0.00001347   -0.00002998
     atom   15 type  4   force =     0.00001320   -0.00008950    0.00004617
     atom   16 type  4   force =    -0.00012025   -0.00004123   -0.00007299
     atom   17 type  4   force =     0.00006282   -0.00002921    0.00007193
     atom   18 type  4   force =     0.00002983   -0.00001483   -0.00000974
     atom   19 type  4   force =     0.00001881    0.00003963   -0.00002909
     atom   20 type  4   force =     0.00001094    0.00001347   -0.00001629
     atom   21 type  4   force =    -0.00002972    0.00002201   -0.00000887
     atom   22 type  4   force =    -0.00003069    0.00004105   -0.00004587
     atom   23 type  4   force =    -0.00000734   -0.00001535    0.00004170
     atom   24 type  4   force =     0.00006725    0.00008361    0.00003328
     atom   25 type  4   force =    -0.00000010   -0.00000142    0.00001244
     atom   26 type  4   force =     0.00007444    0.00005523    0.00000403
     atom   27 type  4   force =     0.00002367    0.00001948   -0.00006457
     atom   28 type  4   force =    -0.00005720   -0.00005249   -0.00006367

     Total force =     0.000433     Total SCF correction =     0.000006


     Computing stress (Cartesian axis) and pressure

          total   stress  (Ry/bohr**3)                   (kbar)     P=       -0.09
  -0.00000009  -0.00000022   0.00000033           -0.01       -0.03        0.05
  -0.00000022  -0.00000092  -0.00000038           -0.03       -0.13       -0.06
   0.00000033  -0.00000038  -0.00000081            0.05       -0.06       -0.12

     Energy error            =      2.7E-07 Ry
     Gradient error          =      1.2E-04 Ry/Bohr
     Cell gradient error     =      1.3E-01 kbar

     number of scf cycles    =  43
     number of bfgs steps    =  42

     enthalpy           old  =   -1926.2733900677 Ry
     enthalpy           new  =   -1926.2733903350 Ry

     CASE: enthalpy          _new < enthalpy          _old

     new trust radius        =       0.0020438881 bohr
     new conv_thr            =            1.0E-11 Ry

     new unit-cell volume =   1648.38577 a.u.^3 (   244.26557 Ang^3 )
     density =      3.26287 g/cm^3

CELL_PARAMETERS (angstrom)
   7.530008843   0.007043613  -0.109653133
  -5.029739491   5.781156233   0.192867193
  -2.328754506   1.157182864   5.664471211

ATOMIC_POSITIONS (angstrom)
Co              -4.2264356444        5.3256153573        5.5273071902
Mg              -3.0238989484        4.8928786428        2.7703470689
Mg               3.2102305735        2.0403824600        2.9329214783
Mg               4.4467468182        1.5652499777        0.0868110347
Mg               0.7871601250        6.5746935199        4.3933890518
Mg              -0.5785492842        0.3268869778        1.4263657506
Mg              -0.5928488755        3.7875365160        4.2645227160
Mg               0.5863528281        3.1997563550        1.4021155424
Ni              -1.7750447973        6.1316494281        5.1613850615
Ni              -1.8224507425        2.5158069049        2.2979384353
Ni               2.0191210800        4.3601764049        3.4206404214
Ni               1.9167270270        0.8489053119        0.5965859348
H               -0.5199256633        5.3453340259        5.6289072049
H               -0.3931637551        2.1149510822        2.7647068362
H                0.5902973385        4.8132593006        2.9944425371
H                0.5990233834        1.4909780558        0.1468031216
H                5.0460357912        1.1318575041        2.0408367592
H                3.8071191872        1.7925057262        4.9466111186
H               -3.2039934904        5.0269142067        0.4892534123
H               -4.9105524547        5.7602450277        4.0791444992
H               -3.1744203175        6.2128521669        4.4495697480
H               -2.5735514380        3.3422293924        1.1273971835
H                3.1996540830        3.9668915540        4.4976783839
H                2.9850967298        0.6438378246        1.6660671120
H                0.4360821305        2.3428943888        4.9789432265
H                2.5948962349        3.7867610346        2.1080703972
H               -2.4382809016        3.1456787652        3.5695464309
H               -0.5902191663        4.7486300287        0.6992861303



     Writing config-only to output data dir ./outdir/mg2nih4_co.save/ :
     XML data file
     NEW-OLD atomic charge density approx. for the potential
     New effective cutoffs (rho, wfc):  491.73   61.47

     Check: negative core charge=   -0.000003

     total cpu time spent up to now is    16317.8 secs

     Self-consistent Calculation

     iteration #  1     ecut=    60.00 Ry     beta= 0.30
     Davidson diagonalization with overlap
     ethr =  1.00E-06,  avg # of iterations =  2.0

     Threshold (ethr) on eigenvalues was too large:
     Diagonalizing with lowered threshold

     Davidson diagonalization with overlap
     ethr =  1.04E-09,  avg # of iterations =  2.0

     total cpu time spent up to now is    16367.0 secs

     total energy              =   -1926.27339040 Ry
     estimated scf accuracy    <       0.00000128 Ry

     iteration #  2     ecut=    60.00 Ry     beta= 0.30
     Davidson diagonalization with overlap
     ethr =  1.07E-09,  avg # of iterations =  3.0

     total cpu time spent up to now is    16396.0 secs

     total energy              =   -1926.27338981 Ry
     estimated scf accuracy    <       0.00001843 Ry

     iteration #  3     ecut=    60.00 Ry     beta= 0.30
     Davidson diagonalization with overlap
     ethr =  1.07E-09,  avg # of iterations =  3.0

     total cpu time spent up to now is    16423.9 secs

     total energy              =   -1926.27339072 Ry
     estimated scf accuracy    <       0.00000032 Ry

     iteration #  4     ecut=    60.00 Ry     beta= 0.30
     Davidson diagonalization with overlap
     ethr =  2.67E-10,  avg # of iterations =  2.0

     total cpu time spent up to now is    16447.5 secs

     total energy              =   -1926.27339073 Ry
     estimated scf accuracy    <       0.00000028 Ry

     iteration #  5     ecut=    60.00 Ry     beta= 0.30
     Davidson diagonalization with overlap
     ethr =  2.37E-10,  avg # of iterations =  1.3

     total cpu time spent up to now is    16469.0 secs

     total energy              =   -1926.27339075 Ry
     estimated scf accuracy    <       0.00000004 Ry

     iteration #  6     ecut=    60.00 Ry     beta= 0.30
     Davidson diagonalization with overlap
     ethr =  3.54E-11,  avg # of iterations =  2.0

     total cpu time spent up to now is    16493.0 secs

     total energy              =   -1926.27339075 Ry
     estimated scf accuracy    <       0.00000003 Ry

     iteration #  7     ecut=    60.00 Ry     beta= 0.30
     Davidson diagonalization with overlap
     ethr =  2.72E-11,  avg # of iterations =  1.0

     total cpu time spent up to now is    16511.7 secs

     total energy              =   -1926.27339075 Ry
     estimated scf accuracy    <          2.1E-09 Ry

     iteration #  8     ecut=    60.00 Ry     beta= 0.30
     Davidson diagonalization with overlap
     ethr =  1.73E-12,  avg # of iterations =  3.9

     total cpu time spent up to now is    16548.7 secs

     total energy              =   -1926.27339075 Ry
     estimated scf accuracy    <          2.6E-09 Ry

     iteration #  9     ecut=    60.00 Ry     beta= 0.30
     Davidson diagonalization with overlap
     ethr =  1.73E-12,  avg # of iterations =  1.1

     total cpu time spent up to now is    16568.8 secs

     total energy              =   -1926.27339075 Ry
     estimated scf accuracy    <          2.0E-10 Ry

     iteration # 10     ecut=    60.00 Ry     beta= 0.30
     Davidson diagonalization with overlap
     ethr =  1.67E-13,  avg # of iterations =  4.1

     total cpu time spent up to now is    16607.1 secs

     total energy              =   -1926.27339075 Ry
     estimated scf accuracy    <          5.3E-11 Ry

     iteration # 11     ecut=    60.00 Ry     beta= 0.30
     Davidson diagonalization with overlap
     ethr =  1.00E-13,  avg # of iterations =  1.0

     total cpu time spent up to now is    16626.0 secs

     End of self-consistent calculation

     Number of k-points >= 100: set verbosity='high' to print the bands.

     the Fermi energy is     6.9688 ev

!    total energy              =   -1926.27339075 Ry
     estimated scf accuracy    <          8.4E-12 Ry
     smearing contrib. (-TS)   =      -0.00027705 Ry
     internal energy E=F+TS    =   -1926.27311370 Ry

     The total energy is F=E-TS. E is the sum of the following terms:
     one-electron contribution =   -1695.84789323 Ry
     hartree contribution      =     882.77220125 Ry
     xc contribution           =    -198.32580826 Ry
     ewald contribution        =    -695.44917820 Ry
     DFT-D3 Dispersion         =      -0.36882027 Ry
     one-center paw contrib.   =    -219.05361498 Ry

     convergence has been achieved in  11 iterations

     Forces acting on atoms (cartesian axes, Ry/au):

     atom    1 type  1   force =     0.00006980    0.00009190   -0.00006467
     atom    2 type  2   force =     0.00004072   -0.00003204    0.00002223
     atom    3 type  2   force =    -0.00004974    0.00001018   -0.00003925
     atom    4 type  2   force =     0.00003411    0.00000566    0.00000291
     atom    5 type  2   force =     0.00008459   -0.00001090    0.00005763
     atom    6 type  2   force =     0.00000904    0.00005189   -0.00003571
     atom    7 type  2   force =    -0.00002362    0.00001234   -0.00007683
     atom    8 type  2   force =     0.00000901   -0.00008921    0.00000067
     atom    9 type  3   force =    -0.00001735   -0.00007216    0.00008362
     atom   10 type  3   force =     0.00000726   -0.00003586    0.00010572
     atom   11 type  3   force =    -0.00010060   -0.00001230    0.00005449
     atom   12 type  3   force =    -0.00004636    0.00003503    0.00005951
     atom   13 type  4   force =     0.00000934    0.00002762   -0.00000516
     atom   14 type  4   force =    -0.00002148   -0.00000346   -0.00003544
     atom   15 type  4   force =    -0.00001503   -0.00006516    0.00003483
     atom   16 type  4   force =    -0.00011345   -0.00004776   -0.00006648
     atom   17 type  4   force =     0.00007794    0.00000678    0.00008459
     atom   18 type  4   force =     0.00003661    0.00001769   -0.00000007
     atom   19 type  4   force =    -0.00001165   -0.00001128   -0.00002712
     atom   20 type  4   force =     0.00001179    0.00004243   -0.00000993
     atom   21 type  4   force =    -0.00003177    0.00001844   -0.00001505
     atom   22 type  4   force =    -0.00005662    0.00005807   -0.00005193
     atom   23 type  4   force =     0.00000484   -0.00004200    0.00001793
     atom   24 type  4   force =     0.00006552    0.00007012    0.00004315
     atom   25 type  4   force =    -0.00000115   -0.00000483   -0.00002852
     atom   26 type  4   force =     0.00009072    0.00001492   -0.00003464
     atom   27 type  4   force =     0.00001594    0.00001349   -0.00005126
     atom   28 type  4   force =    -0.00007840   -0.00004961   -0.00002520

     Total force =     0.000439     Total SCF correction =     0.000010


     Computing stress (Cartesian axis) and pressure

          total   stress  (Ry/bohr**3)                   (kbar)     P=        0.00
   0.00000046  -0.00000014   0.00000024            0.07       -0.02        0.04
  -0.00000014  -0.00000034  -0.00000033           -0.02       -0.05       -0.05
   0.00000024  -0.00000033  -0.00000010            0.04       -0.05       -0.02

     Energy error            =      4.2E-07 Ry
     Gradient error          =      1.1E-04 Ry/Bohr
     Cell gradient error     =      6.8E-02 kbar

     number of scf cycles    =  44
     number of bfgs steps    =  43

     enthalpy           old  =   -1926.2733903350 Ry
     enthalpy           new  =   -1926.2733907536 Ry

     CASE: enthalpy          _new < enthalpy          _old

     new trust radius        =       0.0016159585 bohr
     new conv_thr            =            1.0E-11 Ry

     new unit-cell volume =   1648.28638 a.u.^3 (   244.25084 Ang^3 )
     density =      3.26307 g/cm^3

CELL_PARAMETERS (angstrom)
   7.530116331   0.006974321  -0.109542129
  -5.029863589   5.780991346   0.192659095
  -2.328714335   1.157035575   5.664192696

ATOMIC_POSITIONS (angstrom)
Co              -4.2263736615        5.3253208963        5.5268930653
Mg              -3.0239793974        4.8926367734        2.7701326920
Mg               3.2103158540        2.0403955698        2.9328536625
Mg               4.4467301320        1.5649964773        0.0868368977
Mg               0.7873129438        6.5744555720        4.3932598569
Mg              -0.5786077742        0.3267103353        1.4263954731
Mg              -0.5928283861        3.7872738223        4.2641481123
Mg               0.5865292793        3.1994473232        1.4020198860
Ni              -1.7752386025        6.1312231274        5.1610604467
Ni              -1.8224891011        2.5156961067        2.2977495286
Ni               2.0190828050        4.3599827200        3.4204159733
Ni               1.9167206034        0.8488800063        0.5966600906
H               -0.5200002456        5.3450194889        5.6284154156
H               -0.3932810401        2.1146716768        2.7645424378
H                0.5903017594        4.8127801573        2.9942295671
H                0.5988602504        1.4906759518        0.1466669782
H                5.0461434331        1.1316184990        2.0408056220
H                3.8073153742        1.7921308127        4.9462921561
H               -3.2038151865        5.0268920632        0.4890438288
H               -4.9105645135        5.7599967526        4.0787356969
H               -3.1746845880        6.2127840371        4.4493190869
H               -2.5736549454        3.3420512624        1.1271432645
H                3.1995257064        3.9665321054        4.4976178788
H                2.9851864724        0.6439638918        1.6661011457
H                0.4361203645        2.3428712213        4.9788296598
H                2.5953989914        3.7872558297        2.1078125356
H               -2.4382615644        3.1455932277        3.5692303648
H               -0.5902272719        4.7481616684        0.6991239434



     Writing config-only to output data dir ./outdir/mg2nih4_co.save/ :
     XML data file
     NEW-OLD atomic charge density approx. for the potential
     New effective cutoffs (rho, wfc):  491.73   61.47

     Check: negative core charge=   -0.000003

     total cpu time spent up to now is    16641.5 secs

     Self-consistent Calculation

     iteration #  1     ecut=    60.00 Ry     beta= 0.30
     Davidson diagonalization with overlap
     ethr =  1.00E-06,  avg # of iterations =  2.0

     Threshold (ethr) on eigenvalues was too large:
     Diagonalizing with lowered threshold

     Davidson diagonalization with overlap
     ethr =  4.87E-10,  avg # of iterations =  2.0

     total cpu time spent up to now is    16691.7 secs

     total energy              =   -1926.27339099 Ry
     estimated scf accuracy    <       0.00000060 Ry

     iteration #  2     ecut=    60.00 Ry     beta= 0.30
     Davidson diagonalization with overlap
     ethr =  5.06E-10,  avg # of iterations =  3.0

     total cpu time spent up to now is    16720.5 secs

     total energy              =   -1926.27339078 Ry
     estimated scf accuracy    <       0.00000624 Ry

     iteration #  3     ecut=    60.00 Ry     beta= 0.30
     Davidson diagonalization with overlap
     ethr =  5.06E-10,  avg # of iterations =  3.0

     total cpu time spent up to now is    16748.2 secs

     total energy              =   -1926.27339110 Ry
     estimated scf accuracy    <       0.00000028 Ry

     iteration #  4     ecut=    60.00 Ry     beta= 0.30
     Davidson diagonalization with overlap
     ethr =  2.35E-10,  avg # of iterations =  2.0

     total cpu time spent up to now is    16771.4 secs

     total energy              =   -1926.27339111 Ry
     estimated scf accuracy    <       0.00000020 Ry

     iteration #  5     ecut=    60.00 Ry     beta= 0.30
     Davidson diagonalization with overlap
     ethr =  1.66E-10,  avg # of iterations =  1.2

     total cpu time spent up to now is    16791.8 secs

     total energy              =   -1926.27339112 Ry
     estimated scf accuracy    <       0.00000004 Ry

     iteration #  6     ecut=    60.00 Ry     beta= 0.30
     Davidson diagonalization with overlap
     ethr =  3.04E-11,  avg # of iterations =  2.0

     total cpu time spent up to now is    16815.2 secs

     total energy              =   -1926.27339112 Ry
     estimated scf accuracy    <       0.00000001 Ry

     iteration #  7     ecut=    60.00 Ry     beta= 0.30
     Davidson diagonalization with overlap
     ethr =  1.10E-11,  avg # of iterations =  1.0

     total cpu time spent up to now is    16834.1 secs

     total energy              =   -1926.27339112 Ry
     estimated scf accuracy    <          1.3E-09 Ry

     iteration #  8     ecut=    60.00 Ry     beta= 0.30
     Davidson diagonalization with overlap
     ethr =  1.13E-12,  avg # of iterations =  4.0

     total cpu time spent up to now is    16869.7 secs

     total energy              =   -1926.27339112 Ry
     estimated scf accuracy    <          1.2E-09 Ry

     iteration #  9     ecut=    60.00 Ry     beta= 0.30
     Davidson diagonalization with overlap
     ethr =  1.04E-12,  avg # of iterations =  1.1

     total cpu time spent up to now is    16889.2 secs

     total energy              =   -1926.27339112 Ry
     estimated scf accuracy    <          1.1E-10 Ry

     iteration # 10     ecut=    60.00 Ry     beta= 0.30
     Davidson diagonalization with overlap
     ethr =  1.00E-13,  avg # of iterations =  3.9

     total cpu time spent up to now is    16926.7 secs

     total energy              =   -1926.27339112 Ry
     estimated scf accuracy    <          3.4E-11 Ry

     iteration # 11     ecut=    60.00 Ry     beta= 0.30
     Davidson diagonalization with overlap
     ethr =  1.00E-13,  avg # of iterations =  1.0

     total cpu time spent up to now is    16945.4 secs

     total energy              =   -1926.27339112 Ry
     estimated scf accuracy    <          1.2E-11 Ry

     iteration # 12     ecut=    60.00 Ry     beta= 0.30
     Davidson diagonalization with overlap
     ethr =  1.00E-13,  avg # of iterations =  1.0

     total cpu time spent up to now is    16964.1 secs

     End of self-consistent calculation

     Number of k-points >= 100: set verbosity='high' to print the bands.

     the Fermi energy is     6.9696 ev

!    total energy              =   -1926.27339112 Ry
     estimated scf accuracy    <          1.7E-12 Ry
     smearing contrib. (-TS)   =      -0.00027719 Ry
     internal energy E=F+TS    =   -1926.27311394 Ry

     The total energy is F=E-TS. E is the sum of the following terms:
     one-electron contribution =   -1695.83546889 Ry
     hartree contribution      =     882.76839358 Ry
     xc contribution           =    -198.32634250 Ry
     ewald contribution        =    -695.45719293 Ry
     DFT-D3 Dispersion         =      -0.36884100 Ry
     one-center paw contrib.   =    -219.05366219 Ry

     convergence has been achieved in  12 iterations

     Forces acting on atoms (cartesian axes, Ry/au):

     atom    1 type  1   force =     0.00004722    0.00008617   -0.00005381
     atom    2 type  2   force =     0.00004075   -0.00000479    0.00001472
     atom    3 type  2   force =    -0.00005253    0.00001896   -0.00003951
     atom    4 type  2   force =     0.00004654    0.00000702    0.00000883
     atom    5 type  2   force =     0.00005477   -0.00002759    0.00002869
     atom    6 type  2   force =     0.00000782    0.00006437   -0.00004398
     atom    7 type  2   force =    -0.00001718    0.00001781   -0.00006332
     atom    8 type  2   force =     0.00000096   -0.00009381    0.00001142
     atom    9 type  3   force =     0.00003719   -0.00004547    0.00003629
     atom   10 type  3   force =     0.00000630   -0.00006710    0.00006220
     atom   11 type  3   force =    -0.00006989   -0.00004741    0.00007761
     atom   12 type  3   force =    -0.00006059    0.00009022    0.00007024
     atom   13 type  4   force =     0.00001631    0.00001957    0.00000490
     atom   14 type  4   force =    -0.00000997    0.00000301   -0.00003527
     atom   15 type  4   force =    -0.00003938   -0.00004193    0.00002089
     atom   16 type  4   force =    -0.00007816   -0.00006306   -0.00005286
     atom   17 type  4   force =     0.00007592    0.00001560    0.00008839
     atom   18 type  4   force =     0.00003300    0.00002625    0.00000498
     atom   19 type  4   force =    -0.00002859   -0.00004525   -0.00001909
     atom   20 type  4   force =     0.00001421    0.00005340   -0.00000806
     atom   21 type  4   force =    -0.00001826    0.00001684   -0.00000905
     atom   22 type  4   force =    -0.00005272    0.00005689   -0.00003833
     atom   23 type  4   force =     0.00000594   -0.00005147   -0.00000982
     atom   24 type  4   force =     0.00004344    0.00004952    0.00002648
     atom   25 type  4   force =    -0.00000677   -0.00000465   -0.00004580
     atom   26 type  4   force =     0.00009255   -0.00000612   -0.00004499
     atom   27 type  4   force =    -0.00000299    0.00001827   -0.00001134
     atom   28 type  4   force =    -0.00008592   -0.00004528    0.00001958

     Total force =     0.000410     Total SCF correction =     0.000005


     Computing stress (Cartesian axis) and pressure

          total   stress  (Ry/bohr**3)                   (kbar)     P=        0.06
   0.00000073   0.00000000   0.00000007            0.11        0.00        0.01
   0.00000000   0.00000017  -0.00000014            0.00        0.02       -0.02
   0.00000007  -0.00000014   0.00000041            0.01       -0.02        0.06

     Energy error            =      3.7E-07 Ry
     Gradient error          =      9.4E-05 Ry/Bohr
     Cell gradient error     =      1.1E-01 kbar

     bfgs converged in  45 scf cycles and  44 bfgs steps
     (criteria: energy <  1.0E-05 Ry, force <  1.0E-04 Ry/Bohr, cell <  5.0E-01 kbar)

     End of BFGS Geometry Optimization

     Final enthalpy           =   -1926.2733911248 Ry

     File ./outdir/mg2nih4_co.bfgs deleted, as requested
Begin final coordinates
     new unit-cell volume =   1648.28638 a.u.^3 (   244.25084 Ang^3 )
     density =      3.26307 g/cm^3

CELL_PARAMETERS (angstrom)
   7.530116331   0.006974321  -0.109542129
  -5.029863589   5.780991346   0.192659095
  -2.328714335   1.157035575   5.664192696

ATOMIC_POSITIONS (angstrom)
Co              -4.2263736615        5.3253208963        5.5268930653
Mg              -3.0239793974        4.8926367734        2.7701326920
Mg               3.2103158540        2.0403955698        2.9328536625
Mg               4.4467301320        1.5649964773        0.0868368977
Mg               0.7873129438        6.5744555720        4.3932598569
Mg              -0.5786077742        0.3267103353        1.4263954731
Mg              -0.5928283861        3.7872738223        4.2641481123
Mg               0.5865292793        3.1994473232        1.4020198860
Ni              -1.7752386025        6.1312231274        5.1610604467
Ni              -1.8224891011        2.5156961067        2.2977495286
Ni               2.0190828050        4.3599827200        3.4204159733
Ni               1.9167206034        0.8488800063        0.5966600906
H               -0.5200002456        5.3450194889        5.6284154156
H               -0.3932810401        2.1146716768        2.7645424378
H                0.5903017594        4.8127801573        2.9942295671
H                0.5988602504        1.4906759518        0.1466669782
H                5.0461434331        1.1316184990        2.0408056220
H                3.8073153742        1.7921308127        4.9462921561
H               -3.2038151865        5.0268920632        0.4890438288
H               -4.9105645135        5.7599967526        4.0787356969
H               -3.1746845880        6.2127840371        4.4493190869
H               -2.5736549454        3.3420512624        1.1271432645
H                3.1995257064        3.9665321054        4.4976178788
H                2.9851864724        0.6439638918        1.6661011457
H                0.4361203645        2.3428712213        4.9788296598
H                2.5953989914        3.7872558297        2.1078125356
H               -2.4382615644        3.1455932277        3.5692303648
H               -0.5902272719        4.7481616684        0.6991239434
End final coordinates



     Writing config-only to output data dir ./outdir/mg2nih4_co.save/ :
     XML data file

     Final scf calculation at the relaxed structure.
     The G-vectors are recalculated for the final unit cell
     Results may differ from those at the preceding step.
 
     G-vector sticks info
     --------------------
     sticks:   dense  smooth     PW     G-vecs:    dense   smooth      PW
     Sum        5953    2975    857               292759   103449   16183
 
     Using Slab Decomposition
 


     bravais-lattice index     =            0
     lattice parameter (alat)  =      14.2522  a.u.
     unit-cell volume          =    1648.2864 (a.u.)^3
     number of atoms/cell      =           28
     number of atomic types    =            4
     number of electrons       =       119.00
     number of Kohn-Sham states=           72
     kinetic-energy cutoff     =      60.0000  Ry
     charge density cutoff     =     480.0000  Ry
     scf convergence threshold =      1.0E-11
     mixing beta               =       0.3000
     number of iterations used =           12  plain     mixing
     press convergence thresh. =      5.0E-01
     Exchange-correlation= PBE
                           (   1   4   3   4   0   0   0)

     GPU acceleration is ACTIVE.  1 visible GPUs per MPI rank


     celldm(1)=  14.252238  celldm(2)=   0.000000  celldm(3)=   0.000000
     celldm(4)=   0.000000  celldm(5)=   0.000000  celldm(6)=   0.000000

     crystal axes: (cart. coord. in units of alat)
               a(1) = (   0.998430   0.000925  -0.014524 )  
               a(2) = (  -0.666917   0.766511   0.025545 )  
               a(3) = (  -0.308768   0.153413   0.751024 )  

     reciprocal axes: (cart. coord. in units 2 pi/alat)
               b(1) = (  1.004204  0.865862  0.235986 )  
               b(2) = ( -0.005133  1.309130 -0.269529 )  
               b(3) = (  0.019595 -0.027783  1.345247 )  


     PseudoPot. # 1 for Co read from file:
     /home/x/Workspace/3-hEspesso/pseudo/Co_pbe_v1.2.uspp.F.UPF
     MD5 check sum: 5f91765df6ddd3222702df6e7b74a16d
     Pseudo is Ultrasoft + core correction, Zval = 17.0
     Generated by new atomic code, or converted to UPF format
     Using radial grid of  863 points,  6 beta functions with: 
                l(1) =   0
                l(2) =   0
                l(3) =   1
                l(4) =   1
                l(5) =   2
                l(6) =   2
     Q(r) pseudized with  8 coefficients,  rinner =    1.200   1.200   1.200
                                                       1.200   1.200

     PseudoPot. # 2 for Mg read from file:
     /home/x/Workspace/3-hEspesso/pseudo/Mg.pbe-n-kjpaw_psl.0.3.0.UPF
     MD5 check sum: 24ecedc7f3e3cbe212e682f4413594e4
     Pseudo is Projector augmented-wave + core cor, Zval =  2.0
     Generated using "atomic" code by A. Dal Corso  v.5.0.99 svn rev. 10869
     Shape of augmentation charge: PSQ
     Using radial grid of 1129 points,  4 beta functions with: 
                l(1) =   0
                l(2) =   0
                l(3) =   1
                l(4) =   1
     Q(r) pseudized with 0 coefficients 


     PseudoPot. # 3 for Ni read from file:
     /home/x/Workspace/3-hEspesso/pseudo/ni_pbe_v1.4.uspp.F.UPF
     MD5 check sum: 1ee80287db30b12d2bc1f57a5b5d6409
     Pseudo is Ultrasoft + core correction, Zval = 18.0
     Generated by new atomic code, or converted to UPF format
     Using radial grid of  865 points,  6 beta functions with: 
                l(1) =   0
                l(2) =   0
                l(3) =   1
                l(4) =   1
                l(5) =   2
                l(6) =   2
     Q(r) pseudized with 10 coefficients,  rinner =    0.980   0.980   0.980
                                                       0.980   0.980

     PseudoPot. # 4 for H  read from file:
     /home/x/Workspace/3-hEspesso/pseudo/H.pbe-rrkjus_psl.1.0.0.UPF
     MD5 check sum: f52b6d4d1c606e5624b1dc7b2218f220
     Pseudo is Ultrasoft, Zval =  1.0
     Generated using "atomic" code by A. Dal Corso  v.5.1
     Using radial grid of  929 points,  2 beta functions with: 
                l(1) =   0
                l(2) =   0
     Q(r) pseudized with 0 coefficients 


     atomic species   valence    mass     pseudopotential
     Co               17.00    58.93320     Co( 1.00)
     Mg                2.00    24.30500     Mg( 1.00)
     Ni               18.00    58.69340     Ni( 1.00)
     H                 1.00     1.00794     H ( 1.00)

     No symmetry found



   Cartesian axes

     site n.     atom                  positions (alat units)
         1        Co     tau(   1) = (  -0.5603814   0.7060925   0.7328192  )
         2        Mg     tau(   2) = (  -0.4009541   0.6487222   0.3672961  )
         3        Mg     tau(   3) = (   0.4256607   0.2705392   0.3888716  )
         4        Mg     tau(   4) = (   0.5895988   0.2075053   0.0115138  )
         5        Mg     tau(   5) = (   0.1043910   0.8717171   0.5825091  )
         6        Mg     tau(   6) = (  -0.0767185   0.0433190   0.1891280  )
         7        Mg     tau(   7) = (  -0.0786040   0.5021604   0.5653899  )
         8        Mg     tau(   8) = (   0.0777688   0.4242196   0.1858960  )
         9        Ni     tau(   9) = (  -0.2353816   0.8129483   0.6843129  )
        10        Ni     tau(  10) = (  -0.2416466   0.3335600   0.3046621  )
        11        Ni     tau(  11) = (   0.2677133   0.5780968   0.4535182  )
        12        Ni     tau(  12) = (   0.2541409   0.1125543   0.0791121  )
        13        H      tau(  13) = (  -0.0689476   0.7087043   0.7462802  )
        14        H      tau(  14) = (  -0.0521457   0.2803876   0.3665549  )
        15        H      tau(  15) = (   0.0782690   0.6381339   0.3970095  )
        16        H      tau(  16) = (   0.0794038   0.1976510   0.0194468  )
        17        H      tau(  17) = (   0.6690759   0.1500430   0.2705935  )
        18        H      tau(  18) = (   0.5048178   0.2376214   0.6558365  )
        19        H      tau(  19) = (  -0.4247988   0.6665233   0.0648431  )
        20        H      tau(  20) = (  -0.6510993   0.7637268   0.5408058  )
        21        H      tau(  21) = (  -0.4209363   0.8237626   0.5899420  )
        22        H      tau(  22) = (  -0.3412449   0.4431277   0.1494497  )
        23        H      tau(  23) = (   0.4242300   0.5259286   0.5963460  )
        24        H      tau(  24) = (   0.3958104   0.0853842   0.2209109  )
        25        H      tau(  25) = (   0.0578259   0.3106449   0.6601507  )
        26        H      tau(  26) = (   0.3441279   0.5021581   0.2794781  )
        27        H      tau(  27) = (  -0.3232928   0.4170790   0.4732497  )
        28        H      tau(  28) = (  -0.0782591   0.6295660   0.0926979  )

     --------------------------------------------
     DFT-D3 Dispersion Correction (3-body terms):
     --------------------------------------------
       Reference C6 values for interpolation: 

         atom   Coordination number   C6
         H          0.912             6.05
         H          0.000            15.18
         Mg         0.000          1366.75
         Mg         0.963           902.54
         Mg         1.950           351.12
         Co         0.000          1065.56
         Co         1.715           373.09
         Co         2.926           296.13
         Co         7.779           236.57
         Ni         0.000          1149.49
         Ni         1.794           356.66
         Ni         6.546           257.56
         Ni         6.292           283.75

       Values used:

         atom   Coordination number  R0_AB[au]  C6      C8
         Co         8.221            3.243    236.57  20800.86
         Mg         9.644            3.292    351.12  31436.69
         Mg        10.305            3.292    351.12  31436.69
         Mg        10.379            3.292    351.12  31436.69
         Mg        10.179            3.292    351.12  31436.69
         Mg        10.013            3.292    351.12  31436.69
         Mg        10.878            3.292    351.12  31436.69
         Mg        10.206            3.292    351.12  31436.69
         Ni         9.522            3.162    257.61  21585.74
         Ni         9.810            3.162    257.59  21584.09
         Ni         9.708            3.162    257.59  21584.57
         Ni         9.364            3.162    257.63  21587.15
         H          2.291            2.062      6.05     73.18
         H          2.168            2.062      6.05     73.18
         H          2.124            2.062      6.05     73.18
         H          2.254            2.062      6.05     73.18
         H          2.180            2.062      6.05     73.18
         H          2.302            2.062      6.05     73.18
         H          2.172            2.062      6.05     73.18
         H          2.229            2.062      6.05     73.18
         H          1.904            2.062      6.05     73.18
         H          2.265            2.062      6.05     73.18
         H          2.196            2.062      6.05     73.18
         H          2.532            2.062      6.05     73.18
         H          2.561            2.062      6.05     73.18
         H          2.116            2.062      6.05     73.18
         H          2.396            2.062      6.05     73.18
         H          2.006            2.062      6.05     73.18

         Molecular C6 ( Ry / a.u.^6 ) =     61523.73


     number of k points=   384  Marzari-Vanderbilt smearing, width (Ry)=  0.0100

     Number of k-points >= 100: set verbosity='high' to print them.

     Dense  grid:   292759 G-vectors     FFT dimensions: ( 100, 108,  90)

     Smooth grid:   103449 G-vectors     FFT dimensions: (  72,  72,  60)

     Estimated max dynamical RAM per process >       6.66 GB

     Check: negative core charge=   -0.000003

     Initial potential from superposition of free atoms

     starting charge     109.9934, renormalised to     119.0000
     Starting wfcs are  109 randomized atomic wfcs

     total cpu time spent up to now is    16988.4 secs

     Self-consistent Calculation

     iteration #  1     ecut=    60.00 Ry     beta= 0.30
     Davidson diagonalization with overlap
     c_bands:  1 eigenvalues not converged
     c_bands:  1 eigenvalues not converged
     c_bands:  1 eigenvalues not converged
     c_bands:  1 eigenvalues not converged
     c_bands:  1 eigenvalues not converged
     c_bands:  1 eigenvalues not converged
     c_bands:  1 eigenvalues not converged
     c_bands:  1 eigenvalues not converged
     c_bands:  1 eigenvalues not converged
     ethr =  1.00E-06,  avg # of iterations = 18.6

     total cpu time spent up to now is    17138.3 secs

     total energy              =   -1840.90861928 Ry
     estimated scf accuracy    <     255.15569331 Ry

     iteration #  2     ecut=    60.00 Ry     beta= 0.30
     Davidson diagonalization with overlap
     ethr =  1.00E-02,  avg # of iterations =  4.0

     total cpu time spent up to now is    17188.1 secs

     total energy              =   -1925.69065194 Ry
     estimated scf accuracy    <     107.70446567 Ry

     iteration #  3     ecut=    60.00 Ry     beta= 0.30
     Davidson diagonalization with overlap
     ethr =  1.00E-02,  avg # of iterations =  2.1

     total cpu time spent up to now is    17217.5 secs

     total energy              =   -1927.66934756 Ry
     estimated scf accuracy    <      22.95115977 Ry

     iteration #  4     ecut=    60.00 Ry     beta= 0.30
     Davidson diagonalization with overlap
     ethr =  1.00E-02,  avg # of iterations =  1.0

     total cpu time spent up to now is    17236.2 secs

     total energy              =   -1927.69156861 Ry
     estimated scf accuracy    <       9.60668011 Ry

     iteration #  5     ecut=    60.00 Ry     beta= 0.30
     Davidson diagonalization with overlap
     ethr =  8.07E-03,  avg # of iterations =  1.0

     total cpu time spent up to now is    17254.9 secs

     total energy              =   -1924.27152069 Ry
     estimated scf accuracy    <       7.44902802 Ry

     iteration #  6     ecut=    60.00 Ry     beta= 0.30
     Davidson diagonalization with overlap
     ethr =  6.26E-03,  avg # of iterations =  3.0

     total cpu time spent up to now is    17285.8 secs

     total energy              =   -1925.89638266 Ry
     estimated scf accuracy    <      12.89774269 Ry

     iteration #  7     ecut=    60.00 Ry     beta= 0.30
     Davidson diagonalization with overlap
     ethr =  6.26E-03,  avg # of iterations =  1.0

     total cpu time spent up to now is    17304.5 secs

     total energy              =   -1925.62247117 Ry
     estimated scf accuracy    <       3.52489346 Ry

     iteration #  8     ecut=    60.00 Ry     beta= 0.30
     Davidson diagonalization with overlap
     ethr =  2.96E-03,  avg # of iterations =  2.0

     total cpu time spent up to now is    17328.9 secs

     total energy              =   -1926.55689331 Ry
     estimated scf accuracy    <       1.90711203 Ry

     iteration #  9     ecut=    60.00 Ry     beta= 0.30
     Davidson diagonalization with overlap
     ethr =  1.60E-03,  avg # of iterations =  1.0

     total cpu time spent up to now is    17347.5 secs

     total energy              =   -1926.13412773 Ry
     estimated scf accuracy    <       2.37287560 Ry

     iteration # 10     ecut=    60.00 Ry     beta= 0.30
     Davidson diagonalization with overlap
     ethr =  1.60E-03,  avg # of iterations =  1.0

     total cpu time spent up to now is    17366.2 secs

     total energy              =   -1926.26436852 Ry
     estimated scf accuracy    <       0.18338580 Ry

     iteration # 11     ecut=    60.00 Ry     beta= 0.30
     Davidson diagonalization with overlap
     ethr =  1.54E-04,  avg # of iterations =  2.0

     total cpu time spent up to now is    17389.7 secs

     total energy              =   -1926.27665300 Ry
     estimated scf accuracy    <       0.04904738 Ry

     iteration # 12     ecut=    60.00 Ry     beta= 0.30
     Davidson diagonalization with overlap
     ethr =  4.12E-05,  avg # of iterations =  1.7

     total cpu time spent up to now is    17415.7 secs

     total energy              =   -1926.27093818 Ry
     estimated scf accuracy    <       0.03815066 Ry

     iteration # 13     ecut=    60.00 Ry     beta= 0.30
     Davidson diagonalization with overlap
     ethr =  3.21E-05,  avg # of iterations =  1.1

     total cpu time spent up to now is    17435.4 secs

     total energy              =   -1926.27194017 Ry
     estimated scf accuracy    <       0.00390653 Ry

     iteration # 14     ecut=    60.00 Ry     beta= 0.30
     Davidson diagonalization with overlap
     ethr =  3.28E-06,  avg # of iterations =  4.4

     total cpu time spent up to now is    17479.3 secs

     total energy              =   -1926.27389919 Ry
     estimated scf accuracy    <       0.00258405 Ry

     iteration # 15     ecut=    60.00 Ry     beta= 0.30
     Davidson diagonalization with overlap
     ethr =  2.17E-06,  avg # of iterations =  1.0

     total cpu time spent up to now is    17498.0 secs

     total energy              =   -1926.27341571 Ry
     estimated scf accuracy    <       0.00720008 Ry

     iteration # 16     ecut=    60.00 Ry     beta= 0.30
     Davidson diagonalization with overlap
     ethr =  2.17E-06,  avg # of iterations =  1.0

     total cpu time spent up to now is    17516.7 secs

     total energy              =   -1926.27328545 Ry
     estimated scf accuracy    <       0.00262340 Ry

     iteration # 17     ecut=    60.00 Ry     beta= 0.30
     Davidson diagonalization with overlap
     ethr =  2.17E-06,  avg # of iterations =  1.0

     total cpu time spent up to now is    17535.4 secs

     total energy              =   -1926.27335349 Ry
     estimated scf accuracy    <       0.00043039 Ry

     iteration # 18     ecut=    60.00 Ry     beta= 0.30
     Davidson diagonalization with overlap
     ethr =  3.62E-07,  avg # of iterations =  1.9

     total cpu time spent up to now is    17559.2 secs

     total energy              =   -1926.27336595 Ry
     estimated scf accuracy    <       0.00009542 Ry

     iteration # 19     ecut=    60.00 Ry     beta= 0.30
     Davidson diagonalization with overlap
     ethr =  8.02E-08,  avg # of iterations =  2.0

     total cpu time spent up to now is    17582.3 secs

     total energy              =   -1926.27337101 Ry
     estimated scf accuracy    <       0.00001692 Ry

     iteration # 20     ecut=    60.00 Ry     beta= 0.30
     Davidson diagonalization with overlap
     ethr =  1.42E-08,  avg # of iterations =  1.2

     total cpu time spent up to now is    17603.3 secs

     total energy              =   -1926.27337134 Ry
     estimated scf accuracy    <       0.00000311 Ry

     iteration # 21     ecut=    60.00 Ry     beta= 0.30
     Davidson diagonalization with overlap
     ethr =  2.62E-09,  avg # of iterations =  1.9

     total cpu time spent up to now is    17628.4 secs

     total energy              =   -1926.27337133 Ry
     estimated scf accuracy    <       0.00000064 Ry

     iteration # 22     ecut=    60.00 Ry     beta= 0.30
     Davidson diagonalization with overlap
     ethr =  5.35E-10,  avg # of iterations =  3.0

     total cpu time spent up to now is    17658.0 secs

     total energy              =   -1926.27337146 Ry
     estimated scf accuracy    <       0.00000062 Ry

     iteration # 23     ecut=    60.00 Ry     beta= 0.30
     Davidson diagonalization with overlap
     ethr =  5.21E-10,  avg # of iterations =  1.7

     total cpu time spent up to now is    17681.9 secs

     total energy              =   -1926.27337151 Ry
     estimated scf accuracy    <          7.5E-09 Ry

     iteration # 24     ecut=    60.00 Ry     beta= 0.30
     Davidson diagonalization with overlap
     ethr =  6.28E-12,  avg # of iterations =  4.0

     total cpu time spent up to now is    17726.5 secs

     total energy              =   -1926.27337153 Ry
     estimated scf accuracy    <          1.5E-09 Ry

     iteration # 25     ecut=    60.00 Ry     beta= 0.30
     Davidson diagonalization with overlap
     ethr =  1.30E-12,  avg # of iterations =  2.0

     total cpu time spent up to now is    17749.6 secs

     total energy              =   -1926.27337153 Ry
     estimated scf accuracy    <          2.2E-10 Ry

     iteration # 26     ecut=    60.00 Ry     beta= 0.30
     Davidson diagonalization with overlap
     ethr =  1.81E-13,  avg # of iterations =  2.0

     total cpu time spent up to now is    17773.6 secs

     total energy              =   -1926.27337153 Ry
     estimated scf accuracy    <          1.2E-11 Ry

     iteration # 27     ecut=    60.00 Ry     beta= 0.30
     Davidson diagonalization with overlap
     ethr =  1.00E-13,  avg # of iterations =  1.0

     total cpu time spent up to now is    17792.2 secs

     total energy              =   -1926.27337153 Ry
     estimated scf accuracy    <          2.0E-11 Ry

     iteration # 28     ecut=    60.00 Ry     beta= 0.30
     Davidson diagonalization with overlap
     ethr =  1.00E-13,  avg # of iterations =  1.0

     total cpu time spent up to now is    17810.9 secs

     End of self-consistent calculation

     Number of k-points >= 100: set verbosity='high' to print the bands.

     the Fermi energy is     6.9696 ev

!    total energy              =   -1926.27337153 Ry
     estimated scf accuracy    <          5.3E-13 Ry
     smearing contrib. (-TS)   =      -0.00027719 Ry
     internal energy E=F+TS    =   -1926.27309433 Ry

     The total energy is F=E-TS. E is the sum of the following terms:
     one-electron contribution =   -1695.83545027 Ry
     hartree contribution      =     882.76839820 Ry
     xc contribution           =    -198.32634638 Ry
     ewald contribution        =    -695.45719293 Ry
     DFT-D3 Dispersion         =      -0.36884100 Ry
     one-center paw contrib.   =    -219.05366196 Ry

     convergence has been achieved in  28 iterations

     Forces acting on atoms (cartesian axes, Ry/au):

     atom    1 type  1   force =     0.00004808    0.00008685   -0.00005290
     atom    2 type  2   force =     0.00004088   -0.00000485    0.00001436
     atom    3 type  2   force =    -0.00005248    0.00001880   -0.00003961
     atom    4 type  2   force =     0.00004665    0.00000713    0.00000855
     atom    5 type  2   force =     0.00005488   -0.00002763    0.00002859
     atom    6 type  2   force =     0.00000785    0.00006443   -0.00004423
     atom    7 type  2   force =    -0.00001695    0.00001785   -0.00006343
     atom    8 type  2   force =     0.00000140   -0.00009367    0.00001144
     atom    9 type  3   force =     0.00003504   -0.00004498    0.00003819
     atom   10 type  3   force =     0.00000518   -0.00006776    0.00006112
     atom   11 type  3   force =    -0.00007057   -0.00004842    0.00007658
     atom   12 type  3   force =    -0.00006004    0.00009073    0.00006826
     atom   13 type  4   force =     0.00001838    0.00001830    0.00000572
     atom   14 type  4   force =    -0.00000764    0.00000239   -0.00003459
     atom   15 type  4   force =    -0.00004149   -0.00004135    0.00002026
     atom   16 type  4   force =    -0.00008033   -0.00006225   -0.00005358
     atom   17 type  4   force =     0.00007611    0.00001555    0.00008883
     atom   18 type  4   force =     0.00003340    0.00002596    0.00000471
     atom   19 type  4   force =    -0.00002835   -0.00004544   -0.00001905
     atom   20 type  4   force =     0.00001492    0.00005419   -0.00000768
     atom   21 type  4   force =    -0.00002093    0.00001689   -0.00001036
     atom   22 type  4   force =    -0.00005318    0.00005768   -0.00003933
     atom   23 type  4   force =     0.00000693   -0.00005187   -0.00000871
     atom   24 type  4   force =     0.00004576    0.00004904    0.00002854
     atom   25 type  4   force =    -0.00000766   -0.00000485   -0.00004440
     atom   26 type  4   force =     0.00009283   -0.00000622   -0.00004571
     atom   27 type  4   force =    -0.00000311    0.00001858   -0.00001079
     atom   28 type  4   force =    -0.00008557   -0.00004509    0.00001925

     Total force =     0.000412     Total SCF correction =     0.000002


     Computing stress (Cartesian axis) and pressure

          total   stress  (Ry/bohr**3)                   (kbar)     P=        0.05
   0.00000067   0.00000011  -0.00000015            0.10        0.02       -0.02
   0.00000011   0.00000012  -0.00000025            0.02        0.02       -0.04
  -0.00000015  -0.00000025   0.00000027           -0.02       -0.04        0.04


     Writing all to output data dir ./outdir/mg2nih4_co.save/ :
     XML data file, charge density, pseudopotentials, collected wavefunctions
 
     init_run     :     51.04s CPU     25.70s WALL (       2 calls)
     electrons    :  18356.22s CPU  17083.01s WALL (      46 calls)
     update_pot   :     35.01s CPU      3.04s WALL (      44 calls)
     forces       :    214.71s CPU    201.03s WALL (      46 calls)
     force_dftd3  :     33.89s CPU     32.66s WALL (      46 calls)
     stress       :    463.46s CPU    429.11s WALL (      46 calls)
     stres_dftd3  :     34.08s CPU     32.68s WALL (      46 calls)

     Called by init_run:
     wfcinit      :     21.92s CPU     22.19s WALL (       2 calls)
     potinit      :     27.15s CPU      1.65s WALL (       2 calls)
     hinit0       :      0.90s CPU      0.67s WALL (       2 calls)

     Called by electrons:
     c_bands      :  15622.52s CPU  15007.07s WALL (     661 calls)
     sum_band     :   2140.19s CPU   1919.68s WALL (     661 calls)
     v_of_rho     :      3.90s CPU      3.42s WALL (     669 calls)
     newd         :    103.51s CPU     96.65s WALL (     669 calls)
     PAW_pot      :    430.56s CPU     24.55s WALL (     713 calls)
     mix_rho      :      6.12s CPU      5.07s WALL (     661 calls)
     energy_dftd3 :     29.34s CPU     29.22s WALL (      46 calls)

     Called by c_bands:
     init_us_2    :    365.10s CPU    319.90s WALL (  560640 calls)
     cegterg      :  14558.66s CPU  13963.22s WALL (  253824 calls)

     Called by *egterg:
     cdiaghg      :   4418.05s CPU   4701.73s WALL (  756559 calls)
                                     4696.78s GPU  (  756559 calls)
     h_psi        :   5075.84s CPU   4544.16s WALL (  788815 calls)
     s_psi        :   1283.87s CPU   1283.58s WALL (  788815 calls)
     g_psi        :     25.19s CPU     24.65s WALL (  534223 calls)

     Called by h_psi:
     h_psi:calbec :     19.34s CPU     18.01s WALL (  788815 calls)
     vloc_psi     :   3705.13s CPU   3176.63s WALL (  788815 calls)
                                     3174.51s GPU  (  788815 calls)
     add_vuspsi   :   1324.00s CPU   1328.06s WALL (  788815 calls)

     General routines
     calbec       :     25.22s CPU     23.36s WALL ( 1359823 calls)
     fft          :     53.12s CPU      4.02s WALL (    9837 calls)
                                        1.34s GPU  (    9168 calls)
     ffts         :     18.14s CPU      1.03s WALL (    1330 calls)
                                        0.04s GPU  (     661 calls)
     fftw         :     51.30s CPU   3263.85s WALL ( 7405946 calls)
                                     3239.80s GPU  ( 7405946 calls)
     interpolate  :     74.83s CPU      4.96s WALL (     669 calls)
 
 
     PWSCF        :      5h20m CPU      4h57m WALL

 
   This run was terminated on:  22:46:36  11Jun2026            

=------------------------------------------------------------------------------=
   JOB DONE.
=------------------------------------------------------------------------------=
