
     Program PWSCF v.7.5 starts on 10Jun2026 at  0:11:57 

     This program is part of the open-source Quantum ESPRESSO suite
     for quantum simulation of materials; please cite
         "P. Giannozzi et al., J. Phys.:Condens. Matter 21 395502 (2009);
         "P. Giannozzi et al., J. Phys.:Condens. Matter 29 465901 (2017);
         "P. Giannozzi et al., J. Chem. Phys. 152 154105 (2020);
          URL http://www.quantum-espresso.org", 
     in publications or presentations arising from this work. More details at
     http://www.quantum-espresso.org/quote

     Serial multi-threaded version, running on   32 processor cores
     21796 MiB available memory on the printing compute node when the environment starts
 
     Reading input from inputs/mg2ni.in

     Current dimensions of program PWSCF are:
     Max number of different atomic species (ntypx) = 10
     Max number of k-points (npk) =  40000
     Max angular momentum in pseudopotentials (lmaxx) =  4
     file Mg.pbe-n-kjpaw_psl.0.3.0.UPF: wavefunction(s)  3S renormalized
     Message from routine setup:
     using ibrav=0 with symmetry is DISCOURAGED, use correct ibrav instead
 
 
     G-vector sticks info
     --------------------
     sticks:   dense  smooth     PW     G-vecs:    dense   smooth      PW
     Sum        3205    1597    439               370373   130803   19151
 
     Using Slab Decomposition
 


     bravais-lattice index     =            0
     lattice parameter (alat)  =       9.8218  a.u.
     unit-cell volume          =    2084.3061 (a.u.)^3
     number of atoms/cell      =           18
     number of atomic types    =            2
     number of electrons       =       132.00
     number of Kohn-Sham states=           79
     kinetic-energy cutoff     =      60.0000  Ry
     charge density cutoff     =     480.0000  Ry
     scf convergence threshold =      1.0E-09
     mixing beta               =       0.3000
     number of iterations used =           12  plain     mixing
     energy convergence thresh.=      1.0E-05
     force convergence thresh. =      1.0E-04
     press convergence thresh. =      5.0E-01
     Exchange-correlation=  SLA  PW   PBX  PBC
                           (   1   4   3   4   0   0   0)
     nstep                     =          200


     GPU acceleration is ACTIVE.  1 visible GPUs per MPI rank


     celldm(1)=   9.821759  celldm(2)=   0.000000  celldm(3)=   0.000000
     celldm(4)=   0.000000  celldm(5)=   0.000000  celldm(6)=   0.000000

     crystal axes: (cart. coord. in units of alat)
               a(1) = (   1.000000   0.000000   0.000000 )  
               a(2) = (  -0.500000   0.866025   0.000000 )  
               a(3) = (   0.000000   0.000000   2.540171 )  

     reciprocal axes: (cart. coord. in units 2 pi/alat)
               b(1) = (  1.000000  0.577350 -0.000000 )  
               b(2) = (  0.000000  1.154701  0.000000 )  
               b(3) = (  0.000000 -0.000000  0.393674 )  


     PseudoPot. # 1 for Mg read from file:
     /home/x/Workspace/3-hEspesso/pseudo/Mg.pbe-n-kjpaw_psl.0.3.0.UPF
     MD5 check sum: 24ecedc7f3e3cbe212e682f4413594e4
     Pseudo is Projector augmented-wave + core cor, Zval =  2.0
     Generated using "atomic" code by A. Dal Corso  v.5.0.99 svn rev. 10869
     Shape of augmentation charge: PSQ
     Using radial grid of 1129 points,  4 beta functions with: 
                l(1) =   0
                l(2) =   0
                l(3) =   1
                l(4) =   1
     Q(r) pseudized with 0 coefficients 


     PseudoPot. # 2 for Ni read from file:
     /home/x/Workspace/3-hEspesso/pseudo/ni_pbe_v1.4.uspp.F.UPF
     MD5 check sum: 1ee80287db30b12d2bc1f57a5b5d6409
     Pseudo is Ultrasoft + core correction, Zval = 18.0
     Generated by new atomic code, or converted to UPF format
     Using radial grid of  865 points,  6 beta functions with: 
                l(1) =   0
                l(2) =   0
                l(3) =   1
                l(4) =   1
                l(5) =   2
                l(6) =   2
     Q(r) pseudized with 10 coefficients,  rinner =    0.980   0.980   0.980
                                                       0.980   0.980

     atomic species   valence    mass     pseudopotential
     Mg                2.00    24.30500     Mg( 1.00)
     Ni               18.00    58.69340     Ni( 1.00)

     12 Sym. Ops. (no inversion) found ( 8 have fractional translation)



   Cartesian axes

     site n.     atom                  positions (alat units)
         1        Mg     tau(   1) = (  -0.2534639   0.7236877   2.1168096  )
         2        Mg     tau(   2) = (   0.0000000   0.2846753   1.2700857  )
         3        Mg     tau(   3) = (   0.7534639   0.1423377   2.1168096  )
         4        Mg     tau(   4) = (   0.5000000   0.5813501   1.2700857  )
         5        Mg     tau(   5) = (   0.2534639   0.7236877   0.4233619  )
         6        Mg     tau(   6) = (   0.2465361   0.1423377   0.4233619  )
         7        Mg     tau(   7) = (   0.2500000   0.4330127   1.8222430  )
         8        Mg     tau(   8) = (   0.5000000   0.0000000   1.5646523  )
         9        Mg     tau(   9) = (   0.2500000   0.4330127   2.4113762  )
        10        Mg     tau(  10) = (   0.5000000   0.0000000   0.9755192  )
        11        Mg     tau(  11) = (   0.7500000   0.4330127   0.7179285  )
        12        Mg     tau(  12) = (   0.7500000   0.4330127   0.1287953  )
        13        Ni     tau(  13) = (   0.2500000   0.4330127   0.8467238  )
        14        Ni     tau(  14) = (   0.5000000   0.0000000   0.0000000  )
        15        Ni     tau(  15) = (   0.7500000   0.4330127   1.6934477  )
        16        Ni     tau(  16) = (   0.0000000   0.0000000   0.8467238  )
        17        Ni     tau(  17) = (   0.0000000   0.0000000   0.0000000  )
        18        Ni     tau(  18) = (   0.0000000   0.0000000   1.6934477  )

     --------------------------------------------
     DFT-D3 Dispersion Correction (3-body terms):
     --------------------------------------------
       Reference C6 values for interpolation: 

         atom   Coordination number   C6
         Mg         0.000          1366.75
         Mg         0.963           902.54
         Mg         1.950           351.12
         Ni         0.000          1149.49
         Ni         1.794           356.66
         Ni         6.546           257.56
         Ni         6.292           283.75

       Values used:

         atom   Coordination number  R0_AB[au]  C6      C8
         Mg        10.186            3.292    351.12  31436.69
         Mg        10.186            3.292    351.12  31436.69
         Mg        10.186            3.292    351.12  31436.69
         Mg        10.186            3.292    351.12  31436.69
         Mg        10.186            3.292    351.12  31436.69
         Mg        10.186            3.292    351.12  31436.69
         Mg        10.165            3.292    351.12  31436.69
         Mg        10.165            3.292    351.12  31436.69
         Mg        10.165            3.292    351.12  31436.69
         Mg        10.165            3.292    351.12  31436.69
         Mg        10.165            3.292    351.12  31436.69
         Mg        10.165            3.292    351.12  31436.69
         Ni         8.139            3.162    258.29  21642.45
         Ni         8.139            3.162    258.29  21642.45
         Ni         8.139            3.162    258.29  21642.45
         Ni         8.189            3.162    258.22  21636.71
         Ni         8.189            3.162    258.22  21636.71
         Ni         8.189            3.162    258.22  21636.71

         Molecular C6 ( Ry / a.u.^6 ) =    102393.85


     number of k points=    30  Marzari-Vanderbilt smearing, width (Ry)=  0.0100
                       cart. coord. in units 2pi/alat
        k(    1) = (   0.0000000   0.0000000   0.0000000), wk =   0.0078125
        k(    2) = (   0.0000000   0.0000000   0.0984186), wk =   0.0156250
        k(    3) = (   0.0000000   0.0000000  -0.1968371), wk =   0.0078125
        k(    4) = (   0.0000000   0.1443376   0.0000000), wk =   0.0468750
        k(    5) = (   0.0000000   0.1443376   0.0984186), wk =   0.0937500
        k(    6) = (   0.0000000   0.1443376  -0.1968371), wk =   0.0468750
        k(    7) = (   0.0000000   0.2886751   0.0000000), wk =   0.0468750
        k(    8) = (   0.0000000   0.2886751   0.0984186), wk =   0.0937500
        k(    9) = (   0.0000000   0.2886751  -0.1968371), wk =   0.0468750
        k(   10) = (   0.0000000   0.4330127   0.0000000), wk =   0.0468750
        k(   11) = (   0.0000000   0.4330127   0.0984186), wk =   0.0937500
        k(   12) = (   0.0000000   0.4330127  -0.1968371), wk =   0.0468750
        k(   13) = (   0.0000000  -0.5773503   0.0000000), wk =   0.0234375
        k(   14) = (   0.0000000  -0.5773503   0.0984186), wk =   0.0468750
        k(   15) = (   0.0000000  -0.5773503  -0.1968371), wk =   0.0234375
        k(   16) = (   0.1250000   0.2165064   0.0000000), wk =   0.0468750
        k(   17) = (   0.1250000   0.2165064   0.0984186), wk =   0.0937500
        k(   18) = (   0.1250000   0.2165064  -0.1968371), wk =   0.0468750
        k(   19) = (   0.1250000   0.3608439   0.0000000), wk =   0.0937500
        k(   20) = (   0.1250000   0.3608439   0.0984186), wk =   0.1875000
        k(   21) = (   0.1250000   0.3608439  -0.1968371), wk =   0.0937500
        k(   22) = (   0.1250000   0.5051815   0.0000000), wk =   0.0937500
        k(   23) = (   0.1250000   0.5051815   0.0984186), wk =   0.1875000
        k(   24) = (   0.1250000   0.5051815  -0.1968371), wk =   0.0937500
        k(   25) = (   0.2500000   0.4330127   0.0000000), wk =   0.0468750
        k(   26) = (   0.2500000   0.4330127   0.0984186), wk =   0.0937500
        k(   27) = (   0.2500000   0.4330127  -0.1968371), wk =   0.0468750
        k(   28) = (   0.2500000   0.5773503   0.0000000), wk =   0.0468750
        k(   29) = (   0.2500000   0.5773503   0.0984186), wk =   0.0937500
        k(   30) = (   0.2500000   0.5773503  -0.1968371), wk =   0.0468750

     Dense  grid:   370373 G-vectors     FFT dimensions: (  72,  72, 180)

     Smooth grid:   130803 G-vectors     FFT dimensions: (  50,  50, 135)

     Estimated max dynamical RAM per process >       2.14 GB

     Check: negative core charge=   -0.000001

     Initial potential from superposition of free atoms

     starting charge     119.9889, renormalised to     132.0000
     Starting wfcs are  126 randomized atomic wfcs

     total cpu time spent up to now is        9.6 secs

     Self-consistent Calculation

     iteration #  1     ecut=    60.00 Ry     beta= 0.30
     Davidson diagonalization with overlap
     ethr =  1.00E-02,  avg # of iterations =  6.0

     total cpu time spent up to now is       16.4 secs

     total energy              =   -2344.39570952 Ry
     estimated scf accuracy    <     382.27173188 Ry

     iteration #  2     ecut=    60.00 Ry     beta= 0.30
     Davidson diagonalization with overlap
     ethr =  1.00E-02,  avg # of iterations =  5.2

     total cpu time spent up to now is       22.0 secs

     total energy              =   -2466.08970475 Ry
     estimated scf accuracy    <     126.65622716 Ry

     iteration #  3     ecut=    60.00 Ry     beta= 0.30
     Davidson diagonalization with overlap
     ethr =  1.00E-02,  avg # of iterations =  2.5

     total cpu time spent up to now is       25.8 secs

     total energy              =   -2467.76705941 Ry
     estimated scf accuracy    <      33.24579411 Ry

     iteration #  4     ecut=    60.00 Ry     beta= 0.30
     Davidson diagonalization with overlap
     ethr =  1.00E-02,  avg # of iterations =  1.0

     total cpu time spent up to now is       28.3 secs

     total energy              =   -2463.37769419 Ry
     estimated scf accuracy    <      19.45459215 Ry

     iteration #  5     ecut=    60.00 Ry     beta= 0.30
     Davidson diagonalization with overlap
     ethr =  1.00E-02,  avg # of iterations =  2.4

     total cpu time spent up to now is       31.6 secs

     total energy              =   -2461.07837534 Ry
     estimated scf accuracy    <       8.89128640 Ry

     iteration #  6     ecut=    60.00 Ry     beta= 0.30
     Davidson diagonalization with overlap
     ethr =  6.74E-03,  avg # of iterations =  3.3

     total cpu time spent up to now is       35.4 secs

     total energy              =   -2466.42314720 Ry
     estimated scf accuracy    <      37.33045344 Ry

     iteration #  7     ecut=    60.00 Ry     beta= 0.30
     Davidson diagonalization with overlap
     ethr =  6.74E-03,  avg # of iterations =  1.2

     total cpu time spent up to now is       38.1 secs

     total energy              =   -2466.60960040 Ry
     estimated scf accuracy    <      44.32757316 Ry

     iteration #  8     ecut=    60.00 Ry     beta= 0.30
     Davidson diagonalization with overlap
     ethr =  6.74E-03,  avg # of iterations =  1.0

     total cpu time spent up to now is       40.4 secs

     total energy              =   -2466.13572206 Ry
     estimated scf accuracy    <      46.74465144 Ry

     iteration #  9     ecut=    60.00 Ry     beta= 0.30
     Davidson diagonalization with overlap
     ethr =  6.74E-03,  avg # of iterations =  1.0

     total cpu time spent up to now is       42.9 secs

     total energy              =   -2465.96563809 Ry
     estimated scf accuracy    <      41.76149813 Ry

     iteration # 10     ecut=    60.00 Ry     beta= 0.30
     Davidson diagonalization with overlap
     ethr =  6.74E-03,  avg # of iterations =  1.0

     total cpu time spent up to now is       45.3 secs

     total energy              =   -2461.82099616 Ry
     estimated scf accuracy    <      40.11095998 Ry

     iteration # 11     ecut=    60.00 Ry     beta= 0.30
     Davidson diagonalization with overlap
     ethr =  6.74E-03,  avg # of iterations =  2.9

     total cpu time spent up to now is       48.8 secs

     total energy              =   -2463.61121761 Ry
     estimated scf accuracy    <       0.32831071 Ry

     iteration # 12     ecut=    60.00 Ry     beta= 0.30
     Davidson diagonalization with overlap
     ethr =  2.49E-04,  avg # of iterations =  3.2

     total cpu time spent up to now is       52.8 secs

     total energy              =   -2464.15340391 Ry
     estimated scf accuracy    <       2.14028860 Ry

     iteration # 13     ecut=    60.00 Ry     beta= 0.30
     Davidson diagonalization with overlap
     ethr =  2.49E-04,  avg # of iterations =  2.0

     total cpu time spent up to now is       55.7 secs

     total energy              =   -2463.77455567 Ry
     estimated scf accuracy    <       4.19368852 Ry

     iteration # 14     ecut=    60.00 Ry     beta= 0.30
     Davidson diagonalization with overlap
     ethr =  2.49E-04,  avg # of iterations =  2.3

     total cpu time spent up to now is       59.3 secs

     total energy              =   -2463.77828281 Ry
     estimated scf accuracy    <       1.28668206 Ry

     iteration # 15     ecut=    60.00 Ry     beta= 0.30
     Davidson diagonalization with overlap
     ethr =  2.49E-04,  avg # of iterations =  1.0

     total cpu time spent up to now is       61.6 secs

     total energy              =   -2463.76623013 Ry
     estimated scf accuracy    <       0.65417545 Ry

     iteration # 16     ecut=    60.00 Ry     beta= 0.30
     Davidson diagonalization with overlap
     ethr =  2.49E-04,  avg # of iterations =  1.0

     total cpu time spent up to now is       64.1 secs

     total energy              =   -2463.78829247 Ry
     estimated scf accuracy    <       0.41816280 Ry

     iteration # 17     ecut=    60.00 Ry     beta= 0.30
     Davidson diagonalization with overlap
     ethr =  2.49E-04,  avg # of iterations =  1.0

     total cpu time spent up to now is       66.6 secs

     total energy              =   -2463.78646080 Ry
     estimated scf accuracy    <       0.58069411 Ry

     iteration # 18     ecut=    60.00 Ry     beta= 0.30
     Davidson diagonalization with overlap
     ethr =  2.49E-04,  avg # of iterations =  1.0

     total cpu time spent up to now is       69.0 secs

     total energy              =   -2463.77286354 Ry
     estimated scf accuracy    <       0.54087294 Ry

     iteration # 19     ecut=    60.00 Ry     beta= 0.30
     Davidson diagonalization with overlap
     ethr =  2.49E-04,  avg # of iterations =  1.0

     total cpu time spent up to now is       71.3 secs

     total energy              =   -2463.76325579 Ry
     estimated scf accuracy    <       0.39970219 Ry

     iteration # 20     ecut=    60.00 Ry     beta= 0.30
     Davidson diagonalization with overlap
     ethr =  2.49E-04,  avg # of iterations =  1.0

     total cpu time spent up to now is       73.8 secs

     total energy              =   -2463.75982911 Ry
     estimated scf accuracy    <       0.26479721 Ry

     iteration # 21     ecut=    60.00 Ry     beta= 0.30
     Davidson diagonalization with overlap
     ethr =  2.01E-04,  avg # of iterations =  1.0

     total cpu time spent up to now is       76.4 secs

     total energy              =   -2463.75749931 Ry
     estimated scf accuracy    <       0.23589186 Ry

     iteration # 22     ecut=    60.00 Ry     beta= 0.30
     Davidson diagonalization with overlap
     ethr =  1.79E-04,  avg # of iterations =  1.0

     total cpu time spent up to now is       78.8 secs

     total energy              =   -2463.75572181 Ry
     estimated scf accuracy    <       0.24192845 Ry

     iteration # 23     ecut=    60.00 Ry     beta= 0.30
     Davidson diagonalization with overlap
     ethr =  1.79E-04,  avg # of iterations =  1.0

     total cpu time spent up to now is       81.3 secs

     total energy              =   -2463.71365736 Ry
     estimated scf accuracy    <       0.22361765 Ry

     iteration # 24     ecut=    60.00 Ry     beta= 0.30
     Davidson diagonalization with overlap
     ethr =  1.69E-04,  avg # of iterations =  1.1

     total cpu time spent up to now is       83.8 secs

     total energy              =   -2463.73176170 Ry
     estimated scf accuracy    <       0.00316187 Ry

     iteration # 25     ecut=    60.00 Ry     beta= 0.30
     Davidson diagonalization with overlap
     ethr =  2.40E-06,  avg # of iterations =  4.7

     total cpu time spent up to now is       88.7 secs

     total energy              =   -2463.73258261 Ry
     estimated scf accuracy    <       0.00289326 Ry

     iteration # 26     ecut=    60.00 Ry     beta= 0.30
     Davidson diagonalization with overlap
     ethr =  2.19E-06,  avg # of iterations =  1.0

     total cpu time spent up to now is       91.5 secs

     total energy              =   -2463.73258275 Ry
     estimated scf accuracy    <       0.00335139 Ry

     iteration # 27     ecut=    60.00 Ry     beta= 0.30
     Davidson diagonalization with overlap
     ethr =  2.19E-06,  avg # of iterations =  1.0

     total cpu time spent up to now is       93.9 secs

     total energy              =   -2463.73166863 Ry
     estimated scf accuracy    <       0.00494813 Ry

     iteration # 28     ecut=    60.00 Ry     beta= 0.30
     Davidson diagonalization with overlap
     ethr =  2.19E-06,  avg # of iterations =  2.1

     total cpu time spent up to now is       96.8 secs

     total energy              =   -2463.73216899 Ry
     estimated scf accuracy    <       0.00041030 Ry

     iteration # 29     ecut=    60.00 Ry     beta= 0.30
     Davidson diagonalization with overlap
     ethr =  3.11E-07,  avg # of iterations =  2.5

     total cpu time spent up to now is      100.1 secs

     total energy              =   -2463.73222638 Ry
     estimated scf accuracy    <       0.00016572 Ry

     iteration # 30     ecut=    60.00 Ry     beta= 0.30
     Davidson diagonalization with overlap
     ethr =  1.26E-07,  avg # of iterations =  2.8

     total cpu time spent up to now is      103.8 secs

     total energy              =   -2463.73224145 Ry
     estimated scf accuracy    <       0.00001981 Ry

     iteration # 31     ecut=    60.00 Ry     beta= 0.30
     Davidson diagonalization with overlap
     ethr =  1.50E-08,  avg # of iterations =  4.0

     total cpu time spent up to now is      108.7 secs

     total energy              =   -2463.73225547 Ry
     estimated scf accuracy    <       0.00001541 Ry

     iteration # 32     ecut=    60.00 Ry     beta= 0.30
     Davidson diagonalization with overlap
     ethr =  1.17E-08,  avg # of iterations =  1.0

     total cpu time spent up to now is      111.3 secs

     total energy              =   -2463.73225538 Ry
     estimated scf accuracy    <       0.00000248 Ry

     iteration # 33     ecut=    60.00 Ry     beta= 0.30
     Davidson diagonalization with overlap
     ethr =  1.88E-09,  avg # of iterations =  1.2

     total cpu time spent up to now is      113.7 secs

     total energy              =   -2463.73225546 Ry
     estimated scf accuracy    <       0.00000077 Ry

     iteration # 34     ecut=    60.00 Ry     beta= 0.30
     Davidson diagonalization with overlap
     ethr =  5.83E-10,  avg # of iterations =  1.2

     total cpu time spent up to now is      116.4 secs

     total energy              =   -2463.73225532 Ry
     estimated scf accuracy    <       0.00000051 Ry

     iteration # 35     ecut=    60.00 Ry     beta= 0.30
     Davidson diagonalization with overlap
     ethr =  3.83E-10,  avg # of iterations =  2.2

     total cpu time spent up to now is      119.6 secs

     total energy              =   -2463.73225539 Ry
     estimated scf accuracy    <       0.00000002 Ry

     iteration # 36     ecut=    60.00 Ry     beta= 0.30
     Davidson diagonalization with overlap
     ethr =  1.50E-11,  avg # of iterations =  4.2

     total cpu time spent up to now is      124.0 secs

     total energy              =   -2463.73225541 Ry
     estimated scf accuracy    <          2.1E-09 Ry

     iteration # 37     ecut=    60.00 Ry     beta= 0.30
     Davidson diagonalization with overlap
     ethr =  1.58E-12,  avg # of iterations =  3.5

     total cpu time spent up to now is      127.9 secs

     End of self-consistent calculation

          k = 0.0000 0.0000 0.0000 ( 16309 PWs)   bands (ev):

   -95.8145 -95.8145 -95.8145 -95.7496 -95.7496 -95.7496 -56.2309 -56.2309
   -56.2309 -56.2290 -56.2290 -56.2290 -56.2241 -56.2241 -56.2241 -56.1746
   -56.1746 -56.1746 -56.1676 -56.1676 -56.1676 -56.1264 -56.1264 -56.1264
    -0.6167   0.2324   0.2324   2.7805   2.7805   4.4040   4.4040   4.4749
     4.4912   4.5382   4.5437   4.5437   4.6131   4.6823   4.6823   5.1187
     5.1413   5.1795   5.1795   5.2194   5.2194   5.4425   5.4425   5.4992
     5.4992   5.5803   5.6949   5.6996   5.6996   6.2445   6.2445   6.2460
     6.2461   6.2461   6.2461   6.4740   6.4740   6.4756   6.7260   7.1370
     7.2370   7.2370   7.4467   7.4467   7.4929   7.8627   8.0849   8.0849
     8.1688   8.3196   8.3196   8.4852   9.1255   9.1255   9.9348

          k = 0.0000 0.0000 0.0984 ( 16316 PWs)   bands (ev):

   -95.8145 -95.8145 -95.8145 -95.7496 -95.7496 -95.7496 -56.2309 -56.2309
   -56.2309 -56.2290 -56.2290 -56.2290 -56.2241 -56.2241 -56.2241 -56.1746
   -56.1746 -56.1746 -56.1676 -56.1676 -56.1676 -56.1264 -56.1264 -56.1264
    -0.5624  -0.1330   0.6719   2.0982   3.4998   4.4109   4.4138   4.4198
     4.4663   4.5180   4.5338   4.5556   4.6177   4.6540   4.7078   5.1303
     5.1507   5.1509   5.1670   5.1791   5.2857   5.3820   5.4951   5.5032
     5.5614   5.5693   5.6953   5.6980   5.7015   6.2441   6.2450   6.2458
     6.2459   6.2461   6.2462   6.2648   6.5352   6.5440   6.5459   6.9720
     7.0146   7.0160   7.5890   7.6153   7.7033   8.0483   8.1098   8.1100
     8.2754   8.2883   8.3578   8.5734   9.1076   9.1137   9.8108

          k = 0.0000 0.0000-0.1968 ( 16334 PWs)   bands (ev):

   -95.8145 -95.8145 -95.8145 -95.7496 -95.7496 -95.7496 -56.2309 -56.2309
   -56.2309 -56.2290 -56.2290 -56.2290 -56.2241 -56.2241 -56.2241 -56.1746
   -56.1746 -56.1746 -56.1677 -56.1676 -56.1676 -56.1264 -56.1264 -56.1264
    -0.4002  -0.4002   0.9915   1.6940   4.1032   4.1032   4.4200   4.4379
     4.4379   4.5015   4.5486   4.5486   4.6314   4.6314   4.7186   5.1296
     5.1575   5.1575   5.1599   5.1944   5.1944   5.4913   5.5252   5.5252
     5.6217   5.6845   5.6845   5.7001   5.7001   5.7030   6.2439   6.2455
     6.2455   6.2461   6.2462   6.2462   6.6495   6.7035   6.7035   6.7641
     6.7641   6.8289   7.6953   7.6953   7.8542   8.0278   8.1229   8.1229
     8.2780   8.3744   8.3744   8.9388   8.9388   9.1016   9.5888

          k = 0.0000 0.1443 0.0000 ( 16313 PWs)   bands (ev):

   -95.8145 -95.8144 -95.8144 -95.7497 -95.7497 -95.7496 -56.2309 -56.2309
   -56.2308 -56.2290 -56.2290 -56.2290 -56.2241 -56.2222 -56.2222 -56.1746
   -56.1746 -56.1746 -56.1677 -56.1677 -56.1676 -56.1284 -56.1284 -56.1264
    -0.4981   0.3485   0.3500   2.8777   2.8800   4.2113   4.3881   4.4151
     4.4575   4.4952   4.5512   4.5647   4.6458   4.6569   4.6896   4.9411
     4.9992   5.0991   5.1567   5.1935   5.1962   5.3599   5.4121   5.4693
     5.4985   5.5751   5.5793   5.6217   5.6372   6.0333   6.0575   6.0981
     6.1135   6.2148   6.2452   6.2455   6.4083   6.5245   6.6103   6.6229
     6.9359   7.0212   7.0745   7.2501   7.4840   8.1416   8.2804   8.3532
     8.4579   8.5872   8.6059   9.0291   9.1634   9.4680   9.9147

          k = 0.0000 0.1443 0.0984 ( 16313 PWs)   bands (ev):

   -95.8145 -95.8144 -95.8144 -95.7497 -95.7497 -95.7496 -56.2309 -56.2309
   -56.2308 -56.2290 -56.2290 -56.2290 -56.2241 -56.2222 -56.2222 -56.1746
   -56.1746 -56.1746 -56.1677 -56.1676 -56.1676 -56.1284 -56.1284 -56.1264
    -0.4439  -0.0154   0.7885   2.2015   3.5861   4.2321   4.3516   4.4251
     4.4449   4.4983   4.5052   4.5551   4.6380   4.6401   4.7184   4.9121
     4.9951   5.0778   5.1529   5.1836   5.2394   5.3710   5.4462   5.4855
     5.5109   5.5672   5.5856   5.6244   5.6401   6.0081   6.0447   6.0686
     6.1412   6.2209   6.2452   6.2455   6.3942   6.4500   6.5397   6.6316
     6.7399   6.9014   7.0385   7.4425   7.6275   7.8704   8.2714   8.4302
     8.4923   8.6371   8.8259   8.9655   9.2106   9.4865   9.9179

          k = 0.0000 0.1443-0.1968 ( 16334 PWs)   bands (ev):

   -95.8145 -95.8144 -95.8144 -95.7497 -95.7497 -95.7496 -56.2309 -56.2309
   -56.2308 -56.2290 -56.2290 -56.2290 -56.2241 -56.2222 -56.2222 -56.1746
   -56.1746 -56.1746 -56.1677 -56.1676 -56.1676 -56.1284 -56.1284 -56.1264
    -0.2827  -0.2815   1.1099   1.7968   4.1592   4.1699   4.2799   4.2991
     4.4529   4.4599   4.5285   4.5363   4.6269   4.6334   4.7410   4.8817
     4.9903   5.0640   5.1493   5.1833   5.2337   5.4388   5.4758   5.5241
     5.5633   5.5944   5.6179   5.6222   5.6507   5.7142   6.0572   6.0624
     6.1705   6.2302   6.2452   6.2455   6.3154   6.3475   6.5641   6.5839
     6.6931   6.8597   7.1109   7.5796   7.6019   7.8312   8.0593   8.3799
     8.5771   8.7778   8.8068   9.0920   9.2396   9.5379  10.1190

          k = 0.0000 0.2887 0.0000 ( 16389 PWs)   bands (ev):

   -95.8145 -95.8144 -95.8144 -95.7497 -95.7497 -95.7496 -56.2309 -56.2308
   -56.2308 -56.2290 -56.2289 -56.2289 -56.2241 -56.2171 -56.2171 -56.1747
   -56.1747 -56.1746 -56.1677 -56.1677 -56.1676 -56.1335 -56.1335 -56.1264
    -0.1449   0.6929   0.7001   3.1537   3.1701   3.3384   3.9286   3.9531
     4.3811   4.4358   4.5529   4.6163   4.6226   4.6424   4.7287   4.8137
     4.8617   4.8998   5.1246   5.1624   5.1845   5.2490   5.3158   5.4208
     5.4543   5.4732   5.5466   5.5482   5.5909   5.6747   5.7160   5.7461
     5.8668   5.9966   6.0226   6.1403   6.1923   6.2446   6.2453   6.5946
     6.6748   6.8468   7.0423   7.2446   7.5108   7.6372   7.8645   8.5376
     8.5927   8.8857   9.0364   9.4578   9.7663   9.7849  10.5155

          k = 0.0000 0.2887 0.0984 ( 16367 PWs)   bands (ev):

   -95.8145 -95.8144 -95.8144 -95.7497 -95.7497 -95.7496 -56.2309 -56.2308
   -56.2308 -56.2290 -56.2289 -56.2289 -56.2241 -56.2171 -56.2171 -56.1747
   -56.1747 -56.1746 -56.1677 -56.1677 -56.1676 -56.1335 -56.1335 -56.1264
    -0.0911   0.3343   1.1342   2.5053   3.3786   3.6893   3.8333   4.1764
     4.4021   4.4393   4.5481   4.5858   4.5903   4.6376   4.7061   4.7842
     4.8629   4.9117   5.0892   5.1704   5.2070   5.2847   5.3246   5.4282
     5.4543   5.4731   5.5125   5.5784   5.5878   5.6810   5.7274   5.7477
     5.8428   5.9936   6.0296   6.1670   6.2003   6.2447   6.2453   6.5457
     6.5897   6.8801   6.9169   7.1170   7.2515   7.6745   8.2084   8.3840
     8.5118   9.1338   9.2348   9.5793   9.7916   9.9932  10.2668

          k = 0.0000 0.2887-0.1968 ( 16360 PWs)   bands (ev):

   -95.8145 -95.8144 -95.8144 -95.7497 -95.7497 -95.7496 -56.2309 -56.2308
   -56.2308 -56.2290 -56.2289 -56.2289 -56.2241 -56.2171 -56.2171 -56.1747
   -56.1747 -56.1746 -56.1677 -56.1677 -56.1676 -56.1335 -56.1335 -56.1264
     0.0667   0.0723   1.4604   2.1009   3.5019   3.5021   4.2329   4.3030
     4.3998   4.4641   4.4966   4.5195   4.5602   4.6239   4.6696   4.7554
     4.8598   4.9276   5.0597   5.1851   5.2227   5.3018   5.3894   5.4268
     5.4650   5.4749   5.4865   5.5563   5.6034   5.6720   5.7355   5.7635
     5.8052   5.9911   6.0392   6.2000   6.2270   6.2448   6.2453   6.4500
     6.5638   6.6475   6.8337   7.0252   7.3907   7.7735   7.9402   8.3114
     9.0636   9.1800   9.3228   9.5966   9.6041   9.9034  10.7318

          k = 0.0000 0.4330 0.0000 ( 16379 PWs)   bands (ev):

   -95.8145 -95.8143 -95.8143 -95.7498 -95.7498 -95.7496 -56.2309 -56.2307
   -56.2307 -56.2290 -56.2289 -56.2288 -56.2241 -56.2113 -56.2113 -56.1747
   -56.1747 -56.1746 -56.1678 -56.1678 -56.1676 -56.1394 -56.1394 -56.1264
     0.4332   1.2454   1.2742   2.2545   2.9954   2.9964   3.6109   3.6182
     4.2259   4.3827   4.4887   4.5617   4.6190   4.7197   4.7237   4.8279
     4.8726   4.9418   5.0596   5.1737   5.1824   5.2180   5.2643   5.3693
     5.3729   5.3871   5.4259   5.4751   5.4926   5.5009   5.5352   5.6311
     5.6715   5.6787   5.7283   5.9281   6.1039   6.2427   6.2453   6.4535
     6.4923   6.7264   6.7642   6.9144   6.9687   7.6893   8.1068   8.5293
     8.8403   8.8944   9.1308   9.7153  10.3083  10.5125  10.7088

          k = 0.0000 0.4330 0.0984 ( 16368 PWs)   bands (ev):

   -95.8145 -95.8143 -95.8143 -95.7498 -95.7498 -95.7496 -56.2309 -56.2307
   -56.2307 -56.2290 -56.2289 -56.2288 -56.2241 -56.2113 -56.2113 -56.1747
   -56.1747 -56.1746 -56.1678 -56.1678 -56.1676 -56.1394 -56.1394 -56.1264
     0.4861   0.9045   1.6875   2.3052   2.6775   2.9945   3.3996   4.0689
     4.2509   4.3684   4.4276   4.5257   4.5733   4.6984   4.7532   4.8306
     4.8938   4.9661   5.0779   5.1506   5.1760   5.2410   5.2884   5.3445
     5.3790   5.3983   5.4143   5.4780   5.4813   5.5007   5.5505   5.6324
     5.6712   5.6809   5.7147   5.9267   6.1474   6.2427   6.2453   6.3384
     6.4723   6.6579   6.8495   7.0557   7.2029   7.6481   7.8198   8.2004
     8.4282   9.0731   9.5374   9.9784  10.1727  10.6173  10.8562

          k = 0.0000 0.4330-0.1968 ( 16370 PWs)   bands (ev):

   -95.8145 -95.8143 -95.8143 -95.7498 -95.7498 -95.7496 -56.2309 -56.2307
   -56.2307 -56.2290 -56.2289 -56.2288 -56.2241 -56.2113 -56.2113 -56.1747
   -56.1747 -56.1746 -56.1678 -56.1678 -56.1676 -56.1394 -56.1394 -56.1264
     0.6345   0.6541   2.0043   2.4266   2.4897   2.5917   3.7300   3.9076
     4.2842   4.3715   4.4568   4.5745   4.6313   4.6372   4.7302   4.8057
     4.9474   4.9736   5.0737   5.1421   5.1640   5.2833   5.3050   5.3122
     5.3896   5.4047   5.4214   5.4364   5.4865   5.5039   5.5691   5.6333
     5.6716   5.6871   5.6934   5.9230   6.1621   6.2427   6.2453   6.3114
     6.4726   6.8057   6.8113   7.0223   7.2415   7.5605   7.9740   8.1804
     8.2570   8.4141  10.0504  10.3117  10.4468  10.5533  11.0974

          k = 0.0000-0.5774 0.0000 ( 16352 PWs)   bands (ev):

   -95.8145 -95.8143 -95.8143 -95.7498 -95.7498 -95.7496 -56.2309 -56.2307
   -56.2307 -56.2290 -56.2288 -56.2288 -56.2241 -56.2086 -56.2086 -56.1748
   -56.1748 -56.1746 -56.1678 -56.1678 -56.1676 -56.1421 -56.1421 -56.1264
     1.1146   1.3354   1.8982   2.0350   2.0728   2.2497   3.9515   4.0121
     4.1590   4.3549   4.3551   4.3935   4.4870   4.6888   4.7614   4.7970
     4.9202   4.9701   5.0566   5.2184   5.2202   5.2897   5.3200   5.3325
     5.3765   5.3800   5.3841   5.3901   5.4040   5.4058   5.4260   5.4397
     5.5277   5.6573   5.7143   5.8150   6.2047   6.2397   6.2420   6.2455
     6.3499   6.6253   6.6735   6.7684   6.9180   7.6966   8.2957   8.6453
     8.8879   9.0190   9.0534   9.7755   9.9470  10.1334  11.6642

          k = 0.0000-0.5774 0.0984 ( 16378 PWs)   bands (ev):

   -95.8145 -95.8143 -95.8143 -95.7498 -95.7498 -95.7496 -56.2309 -56.2307
   -56.2307 -56.2290 -56.2288 -56.2288 -56.2241 -56.2086 -56.2086 -56.1748
   -56.1748 -56.1746 -56.1678 -56.1678 -56.1676 -56.1421 -56.1421 -56.1264
     1.1602   1.3795   1.6191   1.8175   2.3907   2.5931   3.6003   3.6364
     4.1780   4.3464   4.4871   4.5113   4.6197   4.6913   4.7969   4.8238
     4.8982   5.0340   5.1241   5.1793   5.1856   5.2709   5.3315   5.3345
     5.3558   5.3598   5.3841   5.3902   5.4142   5.4148   5.4307   5.4467
     5.5492   5.6570   5.6728   5.8139   6.1121   6.2418   6.2454   6.2677
     6.4571   6.7186   6.8242   6.8256   7.0819   7.6229   8.0386   8.3161
     8.3375   8.5241   9.5607   9.9983  10.6784  10.7992  11.4977

          k = 0.0000-0.5774-0.1968 ( 16368 PWs)   bands (ev):

   -95.8145 -95.8143 -95.8143 -95.7498 -95.7498 -95.7496 -56.2309 -56.2307
   -56.2307 -56.2290 -56.2288 -56.2288 -56.2241 -56.2086 -56.2086 -56.1748
   -56.1748 -56.1746 -56.1678 -56.1678 -56.1676 -56.1421 -56.1421 -56.1264
     1.2418   1.4393   1.4591   1.6439   2.7009   2.9915   3.2013   3.2560
     4.2064   4.3293   4.4452   4.6023   4.6646   4.7057   4.7968   4.9115
     5.0003   5.0610   5.0987   5.1652   5.2105   5.2309   5.3168   5.3254
     5.3493   5.3523   5.3849   5.3872   5.4167   5.4176   5.4341   5.4661
     5.5894   5.6121   5.6566   5.8119   6.0724   6.2416   6.2453   6.2670
     6.4562   6.9422   7.0587   7.0846   7.2024   7.4883   7.6155   8.0213
     8.0717   8.1348  10.0937  10.5482  10.6589  10.9248  11.6685

          k = 0.1250 0.2165 0.0000 ( 16312 PWs)   bands (ev):

   -95.8144 -95.8144 -95.8144 -95.7497 -95.7497 -95.7497 -56.2309 -56.2309
   -56.2308 -56.2290 -56.2290 -56.2289 -56.2222 -56.2222 -56.2171 -56.1747
   -56.1746 -56.1746 -56.1677 -56.1677 -56.1676 -56.1335 -56.1284 -56.1284
    -0.2622   0.5793   0.5835   3.0673   3.0742   3.8980   3.9077   4.2460
     4.2904   4.3713   4.4608   4.6001   4.6748   4.6852   4.7156   4.7958
     4.8285   4.9418   5.1157   5.1700   5.2424   5.2718   5.3124   5.4487
     5.4982   5.5083   5.5412   5.5655   5.6124   5.7786   5.8084   5.8121
     5.9206   6.0435   6.1470   6.1949   6.2128   6.2626   6.3583   6.3715
     6.4108   7.1107   7.2660   7.7930   7.8600   8.0234   8.1132   8.2114
     8.2143   8.3817   8.7549   8.9038   9.4463  10.3006  10.4115

          k = 0.1250 0.2165 0.0984 ( 16346 PWs)   bands (ev):

   -95.8144 -95.8144 -95.8144 -95.7497 -95.7497 -95.7497 -56.2309 -56.2309
   -56.2308 -56.2290 -56.2290 -56.2289 -56.2222 -56.2222 -56.2171 -56.1747
   -56.1746 -56.1746 -56.1677 -56.1677 -56.1676 -56.1335 -56.1284 -56.1284
    -0.2082   0.2182   1.0198   2.4054   3.7491   3.9333   3.9394   4.1575
     4.1803   4.4368   4.5117   4.5793   4.6446   4.6873   4.7116   4.8024
     4.8211   4.9428   5.0981   5.1891   5.2313   5.3009   5.3388   5.4586
     5.4911   5.5038   5.5541   5.5595   5.6171   5.7669   5.7951   5.8315
     5.9090   6.0446   6.1337   6.1914   6.2213   6.2638   6.2829   6.4181
     6.5908   6.8018   7.1675   7.4937   7.6080   7.6820   8.2216   8.4422
     8.6540   8.7097   8.8955   9.1022   9.6669  10.1799  10.3466

          k = 0.1250 0.2165-0.1968 ( 16360 PWs)   bands (ev):

   -95.8144 -95.8144 -95.8144 -95.7497 -95.7497 -95.7497 -56.2309 -56.2309
   -56.2308 -56.2290 -56.2290 -56.2289 -56.2222 -56.2222 -56.2171 -56.1747
   -56.1746 -56.1746 -56.1677 -56.1677 -56.1676 -56.1335 -56.1284 -56.1284
    -0.0489  -0.0455   1.3446   2.0003   4.0030   4.0281   4.0326   4.0627
     4.2664   4.2914   4.5434   4.5639   4.6215   4.6607   4.7368   4.7694
     4.8490   4.9273   5.0888   5.1962   5.2366   5.3282   5.4115   5.4290
     5.4880   5.5331   5.5388   5.5716   5.6251   5.7170   5.8010   5.8177
     5.9088   6.0468   6.1188   6.1887   6.2300   6.2507   6.3352   6.4173
     6.5084   6.7683   7.0942   7.2520   7.4849   7.5087   8.3225   8.5572
     8.7238   8.8028   9.4132   9.5384   9.7556   9.7741  10.1874

          k = 0.1250 0.3608 0.0000 ( 16370 PWs)   bands (ev):

   -95.8144 -95.8144 -95.8143 -95.7498 -95.7497 -95.7497 -56.2309 -56.2308
   -56.2307 -56.2290 -56.2289 -56.2288 -56.2222 -56.2171 -56.2113 -56.1747
   -56.1747 -56.1746 -56.1678 -56.1677 -56.1676 -56.1394 -56.1335 -56.1284
     0.2042   1.0320   1.0447   2.8608   3.3926   3.4398   3.5543   3.5911
     3.6210   4.1473   4.1881   4.6556   4.6770   4.7006   4.7726   4.8403
     4.9232   4.9449   5.0938   5.1381   5.1878   5.2046   5.2971   5.3987
     5.4328   5.4501   5.4943   5.5076   5.5346   5.5564   5.5794   5.6109
     5.7018   5.7321   5.9356   6.0037   6.1148   6.1628   6.2139   6.2339
     6.3293   7.0354   7.1032   7.4825   7.5815   7.7882   8.0738   8.2940
     8.3890   8.8243   9.2282   9.5353   9.8924  10.6114  10.6962

          k = 0.1250 0.3608 0.0984 ( 16342 PWs)   bands (ev):

   -95.8144 -95.8144 -95.8143 -95.7498 -95.7497 -95.7497 -56.2309 -56.2308
   -56.2307 -56.2290 -56.2289 -56.2288 -56.2222 -56.2171 -56.2113 -56.1747
   -56.1747 -56.1746 -56.1678 -56.1677 -56.1676 -56.1394 -56.1335 -56.1284
     0.2575   0.6793   1.4731   2.7938   2.9133   3.2663   3.6502   3.8762
     3.9597   4.0386   4.3782   4.5556   4.6699   4.7087   4.7694   4.8237
     4.9092   4.9570   5.0397   5.1394   5.2074   5.2376   5.3055   5.3989
     5.4081   5.4503   5.4736   5.5194   5.5426   5.5511   5.5887   5.6159
     5.7083   5.7409   5.9307   6.0062   6.1086   6.1601   6.2274   6.2774
     6.4223   6.6634   7.0663   7.3045   7.5453   7.8407   8.0291   8.4850
     8.6863   9.0999   9.2526   9.4480   9.7570  10.1781  10.5409

          k = 0.1250 0.3608-0.1968 ( 16364 PWs)   bands (ev):

   -95.8144 -95.8144 -95.8143 -95.7498 -95.7497 -95.7497 -56.2309 -56.2308
   -56.2307 -56.2290 -56.2289 -56.2288 -56.2222 -56.2171 -56.2113 -56.1747
   -56.1747 -56.1746 -56.1678 -56.1677 -56.1676 -56.1394 -56.1335 -56.1284
     0.4121   0.4216   1.8021   2.3977   3.0340   3.0586   3.7619   3.7669
     4.1659   4.2317   4.4804   4.5269   4.6029   4.6734   4.7632   4.8055
     4.9019   4.9682   5.0051   5.1377   5.2130   5.2845   5.3236   5.3455
     5.4140   5.4555   5.4636   5.4968   5.5517   5.5726   5.5906   5.6183
     5.7137   5.7524   5.9253   6.0080   6.1067   6.1603   6.2397   6.3762
     6.5052   6.6131   6.7270   6.9708   7.5741   7.7800   8.5955   8.7026
     8.8780   8.9136   9.2155   9.3838   9.6508   9.7517  11.0644

          k = 0.1250 0.5052 0.0000 ( 16377 PWs)   bands (ev):

   -95.8144 -95.8143 -95.8143 -95.7498 -95.7498 -95.7497 -56.2309 -56.2307
   -56.2307 -56.2290 -56.2289 -56.2288 -56.2222 -56.2113 -56.2086 -56.1748
   -56.1748 -56.1746 -56.1678 -56.1678 -56.1676 -56.1421 -56.1394 -56.1284
     0.8824   1.6180   1.7205   1.8864   2.5842   2.6231   3.4461   3.8883
     3.9210   4.0397   4.0561   4.4725   4.5335   4.7168   4.8081   4.8514
     5.0005   5.0460   5.0792   5.1608   5.2151   5.2642   5.3137   5.3312
     5.3434   5.3545   5.3837   5.4266   5.4469   5.4648   5.4889   5.5301
     5.6225   5.6481   5.6873   5.8948   6.0921   6.1356   6.1992   6.2509
     6.3079   6.4905   6.6157   7.3882   7.4378   7.8278   8.0682   8.3197
     8.7521   9.3704   9.7639  10.0844  10.2304  10.3773  10.5294

          k = 0.1250 0.5052 0.0984 ( 16380 PWs)   bands (ev):

   -95.8144 -95.8143 -95.8143 -95.7498 -95.7498 -95.7497 -56.2309 -56.2307
   -56.2307 -56.2290 -56.2289 -56.2288 -56.2222 -56.2113 -56.2086 -56.1748
   -56.1748 -56.1746 -56.1678 -56.1678 -56.1676 -56.1421 -56.1394 -56.1284
     0.9340   1.3411   1.8535   2.1233   2.3061   3.0009   3.3755   3.4881
     3.8014   3.9730   4.3051   4.4949   4.6789   4.7360   4.8121   4.8512
     4.9923   5.0302   5.0961   5.1451   5.2079   5.2716   5.3087   5.3239
     5.3451   5.3598   5.3892   5.4205   5.4479   5.4699   5.4886   5.5408
     5.6216   5.6459   5.6783   5.8959   6.0451   6.1347   6.2118   6.2575
     6.3165   6.5386   6.9318   7.0868   7.5574   7.7993   7.9602   8.4515
     8.5158   9.0766   9.4676  10.1554  10.4090  10.6134  10.8768

          k = 0.1250 0.5052-0.1968 ( 16374 PWs)   bands (ev):

   -95.8144 -95.8143 -95.8143 -95.7498 -95.7498 -95.7497 -56.2309 -56.2307
   -56.2307 -56.2290 -56.2289 -56.2288 -56.2222 -56.2113 -56.2086 -56.1748
   -56.1748 -56.1746 -56.1678 -56.1678 -56.1676 -56.1421 -56.1394 -56.1284
     1.0693   1.1094   1.9966   2.0127   2.5137   2.9634   3.3752   3.5923
     3.6135   3.6479   4.4670   4.6033   4.6849   4.7797   4.8149   4.8589
     4.9947   5.0241   5.0719   5.1517   5.2022   5.2692   5.2996   5.3299
     5.3507   5.3651   5.3873   5.4192   5.4383   5.4779   5.4886   5.5575
     5.6208   5.6386   5.6700   5.8957   6.0303   6.1038   6.2124   6.2174
     6.4259   6.7147   6.9814   7.0821   7.5455   7.7351   7.8907   8.0946
     8.7773   8.8566   9.6193   9.6357  10.4697  10.6157  11.6330

          k = 0.2500 0.4330 0.0000 ( 16380 PWs)   bands (ev):

   -95.8144 -95.8144 -95.8143 -95.7498 -95.7497 -95.7497 -56.2308 -56.2308
   -56.2307 -56.2289 -56.2289 -56.2288 -56.2171 -56.2171 -56.2086 -56.1748
   -56.1747 -56.1747 -56.1678 -56.1677 -56.1677 -56.1421 -56.1335 -56.1335
     0.7754   1.5800   1.6036   2.4897   2.6372   3.2319   3.2593   3.3287
     3.3559   3.8430   3.8631   4.5842   4.6888   4.7781   4.8037   4.8928
     4.9236   4.9676   5.1264   5.1385   5.2052   5.2669   5.2691   5.3261
     5.3915   5.4033   5.4166   5.4275   5.4401   5.5348   5.5367   5.5703
     5.5978   5.6014   5.8644   5.8724   5.9693   6.0830   6.1236   6.2439
     6.2690   6.8663   6.8992   6.9518   7.1532   8.4858   8.6659   8.9238
     9.0925   9.2234   9.4365   9.6596  10.1327  10.3145  10.6064

          k = 0.2500 0.4330 0.0984 ( 16361 PWs)   bands (ev):

   -95.8144 -95.8144 -95.8143 -95.7498 -95.7497 -95.7497 -56.2308 -56.2308
   -56.2307 -56.2289 -56.2289 -56.2288 -56.2171 -56.2171 -56.2086 -56.1748
   -56.1747 -56.1747 -56.1678 -56.1677 -56.1677 -56.1421 -56.1335 -56.1335
     0.8277   1.2412   2.0131   2.5363   2.6836   2.9348   3.0437   3.2725
     3.6462   3.6949   4.2430   4.4093   4.6000   4.8294   4.8385   4.9043
     4.9166   4.9715   5.1161   5.1470   5.2106   5.2641   5.2750   5.3343
     5.3620   5.3949   5.4130   5.4327   5.4548   5.5348   5.5474   5.5623
     5.5785   5.6420   5.8553   5.8797   5.9665   6.0872   6.1482   6.1771
     6.4611   6.4865   6.6524   7.3583   7.6337   8.1268   8.5641   8.9003
     9.1320   9.1905   9.4691   9.6910   9.7262   9.8453  10.6801

          k = 0.2500 0.4330-0.1968 ( 16354 PWs)   bands (ev):

   -95.8144 -95.8144 -95.8143 -95.7498 -95.7497 -95.7497 -56.2308 -56.2308
   -56.2307 -56.2289 -56.2289 -56.2288 -56.2171 -56.2171 -56.2086 -56.1748
   -56.1747 -56.1747 -56.1678 -56.1677 -56.1677 -56.1421 -56.1335 -56.1335
     0.9759   0.9923   2.3250   2.6334   2.7497   2.8043   2.8573   2.8887
     3.9933   4.0158   4.0944   4.1071   4.7145   4.7892   4.8663   4.8883
     4.9388   4.9733   5.1112   5.1515   5.2074   5.2670   5.3012   5.3037
     5.3583   5.3857   5.4083   5.4405   5.4623   5.5349   5.5518   5.5616
     5.5689   5.6708   5.8487   5.8841   5.9631   6.0912   6.1782   6.1837
     6.3330   6.4179   6.9939   7.0004   8.1880   8.3890   8.5240   8.6170
     8.7238   9.1109   9.2413   9.3742   9.7953   9.9547  11.1047

          k = 0.2500 0.5774 0.0000 ( 16380 PWs)   bands (ev):

   -95.8144 -95.8143 -95.8143 -95.7498 -95.7498 -95.7497 -56.2308 -56.2307
   -56.2307 -56.2289 -56.2289 -56.2288 -56.2171 -56.2113 -56.2113 -56.1748
   -56.1748 -56.1747 -56.1678 -56.1678 -56.1677 -56.1394 -56.1394 -56.1335
     1.4535   1.6584   2.2004   2.3352   2.3384   2.5429   2.5659   3.2068
     3.2208   4.1727   4.2166   4.3949   4.5471   4.6759   4.8205   4.9186
     4.9712   5.0573   5.0668   5.1457   5.1497   5.2482   5.2495   5.3272
     5.3754   5.4038   5.4151   5.4280   5.4743   5.5100   5.5154   5.5666
     5.5866   5.6466   5.6625   5.8407   5.9977   6.0319   6.0757   6.3679
     6.3834   6.4441   6.6107   6.8391   7.0470   8.6800   9.0370   9.2176
     9.4444   9.8290   9.8478  10.0678  10.2558  10.3420  10.4741

          k = 0.2500 0.5774 0.0984 ( 16361 PWs)   bands (ev):

   -95.8144 -95.8143 -95.8143 -95.7498 -95.7498 -95.7497 -56.2308 -56.2307
   -56.2307 -56.2289 -56.2289 -56.2288 -56.2171 -56.2113 -56.2113 -56.1748
   -56.1748 -56.1747 -56.1678 -56.1678 -56.1677 -56.1394 -56.1394 -56.1335
     1.5010   1.7015   1.9356   2.1161   2.5185   2.7137   2.8598   2.9483
     3.5814   3.8491   3.8725   4.3465   4.7139   4.7711   4.8942   4.9186
     4.9720   5.0616   5.0684   5.1142   5.1360   5.2351   5.2720   5.2942
     5.3670   5.4139   5.4267   5.4455   5.4797   5.4984   5.5312   5.5607
     5.5901   5.6449   5.6617   5.8415   5.9721   6.0638   6.0999   6.1903
     6.2612   6.5112   6.8104   6.9856   7.5120   8.4631   8.7172   8.7712
     9.1438   9.4902   9.8256  10.2399  10.3288  10.4534  10.6001

          k = 0.2500 0.5774-0.1968 ( 16362 PWs)   bands (ev):

   -95.8144 -95.8143 -95.8143 -95.7498 -95.7498 -95.7497 -56.2308 -56.2307
   -56.2307 -56.2289 -56.2289 -56.2288 -56.2171 -56.2113 -56.2113 -56.1748
   -56.1748 -56.1747 -56.1678 -56.1678 -56.1677 -56.1394 -56.1394 -56.1335
     1.5937   1.7459   1.7815   1.9514   2.6414   2.6771   3.0392   3.2943
     3.4613   3.5003   3.9428   4.0473   4.7991   4.9074   4.9173   4.9428
     4.9710   5.0534   5.0702   5.0790   5.1132   5.2482   5.2573   5.2787
     5.3665   5.4142   5.4266   5.4673   5.4857   5.4963   5.5388   5.5566
     5.5922   5.6429   5.6607   5.8423   5.9574   6.1009   6.1330   6.1475
     6.1711   6.3546   7.2777   7.3879   7.7083   8.0044   8.4446   8.5834
     8.8227   9.1751  10.1051  10.1930  10.2960  10.5140  10.5203

     the Fermi energy is     6.8229 ev

!    total energy              =   -2463.73225541 Ry
     estimated scf accuracy    <          7.7E-10 Ry
     smearing contrib. (-TS)   =       0.00079286 Ry
     internal energy E=F+TS    =   -2463.73304827 Ry

     The total energy is F=E-TS. E is the sum of the following terms:
     one-electron contribution =   -2170.95484473 Ry
     hartree contribution      =    1125.63992926 Ry
     xc contribution           =    -233.09240718 Ry
     ewald contribution        =    -809.21959522 Ry
     DFT-D3 Dispersion         =      -0.42479637 Ry
     one-center paw contrib.   =    -375.68133403 Ry

     convergence has been achieved in  37 iterations

     Forces acting on atoms (cartesian axes, Ry/au):

     atom    1 type  1   force =     0.00007367   -0.00004253   -0.00000000
     atom    2 type  1   force =     0.00000000    0.00008506    0.00000000
     atom    3 type  1   force =    -0.00007367    0.00004253   -0.00000000
     atom    4 type  1   force =     0.00000000   -0.00008506   -0.00000000
     atom    5 type  1   force =    -0.00007367   -0.00004253    0.00000000
     atom    6 type  1   force =     0.00007367    0.00004253    0.00000000
     atom    7 type  1   force =     0.00000000    0.00000000    0.00032204
     atom    8 type  1   force =     0.00000000    0.00000000   -0.00032204
     atom    9 type  1   force =     0.00000000    0.00000000   -0.00032204
     atom   10 type  1   force =     0.00000000    0.00000000    0.00032204
     atom   11 type  1   force =     0.00000000    0.00000000   -0.00032204
     atom   12 type  1   force =    -0.00000000   -0.00000000    0.00032204
     atom   13 type  2   force =     0.00000000    0.00000000   -0.00000000
     atom   14 type  2   force =     0.00000000    0.00000000   -0.00000000
     atom   15 type  2   force =     0.00000000    0.00000000   -0.00000000
     atom   16 type  2   force =    -0.00000000   -0.00000000    0.00000000
     atom   17 type  2   force =     0.00000000    0.00000000    0.00000000
     atom   18 type  2   force =     0.00000000    0.00000000    0.00000000

     Total force =     0.000816     Total SCF correction =     0.000003


     Computing stress (Cartesian axis) and pressure

          total   stress  (Ry/bohr**3)                   (kbar)     P=      -28.20
  -0.00018672   0.00000000   0.00000000          -27.47        0.00        0.00
   0.00000000  -0.00018672   0.00000000            0.00      -27.47        0.00
   0.00000000   0.00000000  -0.00020157            0.00        0.00      -29.65


     BFGS Geometry Optimization
     Energy error            =      6.1E-03 Ry
     Gradient error          =      3.2E-04 Ry/Bohr
     Cell gradient error     =      3.0E+01 kbar

     number of scf cycles    =   1
     number of bfgs steps    =   0

     enthalpy           new  =   -2463.7322554067 Ry

     new trust radius        =       0.0460130909 bohr
     new conv_thr            =       0.0000000010 Ry

     new unit-cell volume =   2054.48663 a.u.^3 (   304.44351 Ang^3 )
     density =      3.51162 g/cm^3

CELL_PARAMETERS (angstrom)
   5.173189154   0.000000000   0.000000000
  -2.586594577   4.480113226   0.000000000
   0.000000000   0.000000000  13.135885952

ATOMIC_POSITIONS (angstrom)
Mg              -1.3111779907        3.7437511164       10.9465716268
Mg               0.0000000000        1.4727242187        6.5679429760
Mg               3.8977725677        0.7363621094       10.9465716268
Mg               2.5865945769        3.0073890071        6.5679429760
Mg               1.3111779907        3.7437511164        2.1893143254
Mg               1.2754165862        0.7363621094        2.1893143254
Mg               1.2932972885        2.2400566129        9.4234609553
Mg               2.5865945769        0.0000000000        8.0910536476
Mg               1.2932972885        2.2400566129       12.4696822982
Mg               2.5865945769        0.0000000000        5.0448323046
Mg               3.8798918654        2.2400566129        3.7124249969
Mg               3.8798918654        2.2400566129        0.6662036540
Ni               1.2932972885        2.2400566129        4.3786286507
Ni               2.5865945769        0.0000000000       -0.0000000000
Ni               3.8798918654        2.2400566129        8.7572573014
Ni              -0.0000000000       -0.0000000000        4.3786286507
Ni               0.0000000000        0.0000000000        0.0000000000
Ni               0.0000000000        0.0000000000        8.7572573014



     Writing config-only to output data dir ./outdir/mg2ni.save/ :
     XML data file
     NEW-OLD atomic charge density approx. for the potential
     New effective cutoffs (rho, wfc):  484.79   60.61

     Check: negative core charge=   -0.000001

     total cpu time spent up to now is      131.0 secs

     Self-consistent Calculation

     iteration #  1     ecut=    60.00 Ry     beta= 0.30
     Davidson diagonalization with overlap
     ethr =  1.00E-06,  avg # of iterations =  4.1

     total cpu time spent up to now is      136.5 secs

     total energy              =   -2463.73038046 Ry
     estimated scf accuracy    <       0.01687255 Ry

     iteration #  2     ecut=    60.00 Ry     beta= 0.30
     Davidson diagonalization with overlap
     ethr =  1.28E-05,  avg # of iterations =  3.1

     total cpu time spent up to now is      140.4 secs

     total energy              =   -2463.72990497 Ry
     estimated scf accuracy    <       0.09587041 Ry

     iteration #  3     ecut=    60.00 Ry     beta= 0.30
     Davidson diagonalization with overlap
     ethr =  1.28E-05,  avg # of iterations =  3.0

     total cpu time spent up to now is      143.9 secs

     total energy              =   -2463.73700282 Ry
     estimated scf accuracy    <       0.00028148 Ry

     iteration #  4     ecut=    60.00 Ry     beta= 0.30
     Davidson diagonalization with overlap
     ethr =  2.13E-07,  avg # of iterations =  3.2

     total cpu time spent up to now is      147.8 secs

     total energy              =   -2463.73703987 Ry
     estimated scf accuracy    <       0.00034451 Ry

     iteration #  5     ecut=    60.00 Ry     beta= 0.30
     Davidson diagonalization with overlap
     ethr =  2.13E-07,  avg # of iterations =  1.1

     total cpu time spent up to now is      150.4 secs

     total energy              =   -2463.73705679 Ry
     estimated scf accuracy    <       0.00001055 Ry

     iteration #  6     ecut=    60.00 Ry     beta= 0.30
     Davidson diagonalization with overlap
     ethr =  8.00E-09,  avg # of iterations =  3.0

     total cpu time spent up to now is      154.2 secs

     total energy              =   -2463.73705874 Ry
     estimated scf accuracy    <       0.00000793 Ry

     iteration #  7     ecut=    60.00 Ry     beta= 0.30
     Davidson diagonalization with overlap
     ethr =  6.01E-09,  avg # of iterations =  1.0

     total cpu time spent up to now is      156.6 secs

     total energy              =   -2463.73705905 Ry
     estimated scf accuracy    <       0.00000052 Ry

     iteration #  8     ecut=    60.00 Ry     beta= 0.30
     Davidson diagonalization with overlap
     ethr =  3.97E-10,  avg # of iterations =  4.3

     total cpu time spent up to now is      161.4 secs

     total energy              =   -2463.73705937 Ry
     estimated scf accuracy    <       0.00000007 Ry

     iteration #  9     ecut=    60.00 Ry     beta= 0.30
     Davidson diagonalization with overlap
     ethr =  5.33E-11,  avg # of iterations =  1.2

     total cpu time spent up to now is      164.0 secs

     total energy              =   -2463.73705937 Ry
     estimated scf accuracy    <       0.00000004 Ry

     iteration # 10     ecut=    60.00 Ry     beta= 0.30
     Davidson diagonalization with overlap
     ethr =  2.68E-11,  avg # of iterations =  2.0

     total cpu time spent up to now is      166.9 secs

     total energy              =   -2463.73705938 Ry
     estimated scf accuracy    <       0.00000001 Ry

     iteration # 11     ecut=    60.00 Ry     beta= 0.30
     Davidson diagonalization with overlap
     ethr =  9.63E-12,  avg # of iterations =  1.2

     total cpu time spent up to now is      169.4 secs

     total energy              =   -2463.73705938 Ry
     estimated scf accuracy    <          2.4E-09 Ry

     iteration # 12     ecut=    60.00 Ry     beta= 0.30
     Davidson diagonalization with overlap
     ethr =  1.84E-12,  avg # of iterations =  2.2

     total cpu time spent up to now is      172.2 secs

     End of self-consistent calculation

          k = 0.0000 0.0000 0.0000 ( 16309 PWs)   bands (ev):

   -95.6932 -95.6932 -95.6932 -95.6280 -95.6280 -95.6280 -56.1101 -56.1101
   -56.1101 -56.1081 -56.1081 -56.1081 -56.1039 -56.1039 -56.1039 -56.0535
   -56.0535 -56.0535 -56.0467 -56.0467 -56.0466 -56.0031 -56.0031 -56.0031
    -0.5442   0.3138   0.3138   2.8838   2.8838   4.5024   4.5024   4.5728
     4.5878   4.6428   4.6428   4.6436   4.7130   4.7819   4.7819   5.2250
     5.2555   5.2881   5.2881   5.3319   5.3319   5.5599   5.5599   5.6131
     5.6131   5.6963   5.8141   5.8190   5.8190   6.3744   6.3744   6.3761
     6.3762   6.3762   6.3762   6.6036   6.6058   6.6058   6.8641   7.2734
     7.3746   7.3746   7.5891   7.5891   7.6371   8.0181   8.2354   8.2354
     8.3160   8.4794   8.4794   8.6508   9.3055   9.3055  10.1368

          k = 0.0000 0.0000 0.0989 ( 16316 PWs)   bands (ev):

   -95.6932 -95.6932 -95.6932 -95.6280 -95.6280 -95.6280 -56.1101 -56.1101
   -56.1101 -56.1082 -56.1081 -56.1081 -56.1039 -56.1039 -56.1039 -56.0535
   -56.0535 -56.0535 -56.0467 -56.0467 -56.0466 -56.0031 -56.0031 -56.0031
    -0.4893  -0.0553   0.7579   2.1963   3.6063   4.5094   4.5121   4.5202
     4.5639   4.6170   4.6366   4.6551   4.7175   4.7537   4.8075   5.2369
     5.2613   5.2650   5.2757   5.2873   5.4016   5.4988   5.6091   5.6172
     5.6769   5.6881   5.8144   5.8173   5.8211   6.3739   6.3750   6.3759
     6.3759   6.3762   6.3763   6.3995   6.6667   6.6747   6.6766   7.1083
     7.1494   7.1545   7.7318   7.7588   7.8468   8.1963   8.2607   8.2612
     8.4334   8.4473   8.5195   8.7360   9.2888   9.2897   9.9684

          k = 0.0000 0.0000-0.1978 ( 16334 PWs)   bands (ev):

   -95.6932 -95.6932 -95.6932 -95.6280 -95.6280 -95.6280 -56.1101 -56.1101
   -56.1101 -56.1082 -56.1081 -56.1081 -56.1039 -56.1039 -56.1039 -56.0535
   -56.0535 -56.0535 -56.0467 -56.0466 -56.0466 -56.0031 -56.0031 -56.0031
    -0.3254  -0.3254   1.0811   1.7881   4.2083   4.2083   4.5184   4.5359
     4.5359   4.6005   4.6491   4.6491   4.7312   4.7312   4.8183   5.2394
     5.2648   5.2648   5.2687   5.3092   5.3092   5.6054   5.6399   5.6399
     5.7409   5.8077   5.8077   5.8215   5.8215   5.8228   6.3737   6.3755
     6.3755   6.3762   6.3763   6.3763   6.7792   6.8349   6.8349   6.8988
     6.8988   6.9687   7.8386   7.8386   7.9993   8.1744   8.2734   8.2734
     8.4368   8.5378   8.5378   9.1054   9.1054   9.2841   9.7447

          k =-0.0000 0.1450 0.0000 ( 16313 PWs)   bands (ev):

   -95.6932 -95.6932 -95.6932 -95.6280 -95.6280 -95.6280 -56.1101 -56.1101
   -56.1101 -56.1081 -56.1081 -56.1081 -56.1039 -56.1018 -56.1018 -56.0535
   -56.0535 -56.0535 -56.0467 -56.0467 -56.0466 -56.0052 -56.0052 -56.0031
    -0.4244   0.4310   0.4326   2.9815   2.9838   4.3134   4.4874   4.5150
     4.5565   4.5977   4.6518   4.6647   4.7461   4.7574   4.7905   5.0533
     5.1076   5.2110   5.2649   5.3050   5.3062   5.4756   5.5288   5.5832
     5.6129   5.6910   5.6961   5.7393   5.7553   6.1593   6.1840   6.2256
     6.2419   6.3440   6.3751   6.3756   6.5412   6.6594   6.7454   6.7563
     7.0769   7.1598   7.2125   7.3937   7.6287   8.2972   8.4310   8.5040
     8.6084   8.7471   8.7620   9.1948   9.3373   9.6432  10.0938

          k =-0.0000 0.1450 0.0989 ( 16313 PWs)   bands (ev):

   -95.6932 -95.6932 -95.6932 -95.6280 -95.6280 -95.6280 -56.1101 -56.1101
   -56.1101 -56.1081 -56.1081 -56.1081 -56.1039 -56.1018 -56.1018 -56.0535
   -56.0535 -56.0535 -56.0467 -56.0467 -56.0466 -56.0052 -56.0052 -56.0031
    -0.3697   0.0633   0.8756   2.3003   3.6928   4.3340   4.4519   4.5244
     4.5448   4.5999   4.6068   4.6554   4.7385   4.7405   4.8193   5.0232
     5.1047   5.1882   5.2612   5.2936   5.3519   5.4866   5.5624   5.6008
     5.6261   5.6833   5.7027   5.7423   5.7580   6.1355   6.1710   6.1954
     6.2700   6.3504   6.3751   6.3756   6.5269   6.5838   6.6761   6.7657
     6.8761   7.0393   7.1773   7.5865   7.7733   8.0179   8.4211   8.5831
     8.6508   8.7961   8.9855   9.1306   9.3826   9.6604  10.0913

          k =-0.0000 0.1450-0.1978 ( 16334 PWs)   bands (ev):

   -95.6932 -95.6932 -95.6932 -95.6280 -95.6280 -95.6280 -56.1101 -56.1101
   -56.1101 -56.1081 -56.1081 -56.1081 -56.1039 -56.1018 -56.1018 -56.0535
   -56.0535 -56.0535 -56.0467 -56.0467 -56.0467 -56.0052 -56.0052 -56.0031
    -0.2067  -0.2055   1.2007   1.8916   4.2640   4.2750   4.3808   4.4004
     4.5531   4.5588   4.6295   4.6377   4.7278   4.7334   4.8415   4.9921
     5.1006   5.1737   5.2581   5.2930   5.3449   5.5547   5.5898   5.6392
     5.6805   5.7126   5.7397   5.7400   5.7695   5.8396   6.1833   6.1890
     6.2997   6.3601   6.3751   6.3757   6.4472   6.4790   6.7000   6.7171
     6.8284   6.9956   7.2519   7.7240   7.7475   7.9785   8.2072   8.5316
     8.7392   8.9416   8.9695   9.2604   9.4031   9.7138  10.2833

          k =-0.0000 0.2900 0.0000 ( 16389 PWs)   bands (ev):

   -95.6932 -95.6931 -95.6931 -95.6281 -95.6281 -95.6280 -56.1101 -56.1100
   -56.1100 -56.1081 -56.1080 -56.1080 -56.1039 -56.0963 -56.0963 -56.0536
   -56.0536 -56.0535 -56.0468 -56.0467 -56.0467 -56.0107 -56.0107 -56.0031
    -0.0678   0.7786   0.7860   3.2586   3.2755   3.4431   4.0337   4.0592
     4.4867   4.5392   4.6539   4.7176   4.7242   4.7456   4.8315   4.9222
     4.9668   5.0083   5.2340   5.2715   5.2945   5.3609   5.4299   5.5346
     5.5690   5.5883   5.6627   5.6647   5.7070   5.7957   5.8364   5.8671
     5.9903   6.1212   6.1478   6.2681   6.3236   6.3747   6.3752   6.7302
     6.8112   6.9848   7.1862   7.3879   7.6577   7.7892   8.0160   8.6964
     8.7471   9.0440   9.1962   9.6287   9.9383   9.9653  10.6856

          k =-0.0000 0.2900 0.0989 ( 16367 PWs)   bands (ev):

   -95.6932 -95.6931 -95.6931 -95.6281 -95.6281 -95.6280 -56.1101 -56.1100
   -56.1100 -56.1081 -56.1080 -56.1080 -56.1039 -56.0963 -56.0963 -56.0536
   -56.0536 -56.0535 -56.0468 -56.0467 -56.0467 -56.0107 -56.0107 -56.0031
    -0.0134   0.4164   1.2246   2.6061   3.4834   3.7944   3.9408   4.2799
     4.5075   4.5426   4.6496   4.6878   4.6943   4.7388   4.8117   4.8917
     4.9673   5.0198   5.1979   5.2799   5.3180   5.3976   5.4384   5.5425
     5.5694   5.5882   5.6283   5.6948   5.7043   5.8023   5.8481   5.8690
     5.9663   6.1182   6.1550   6.2957   6.3322   6.3749   6.3752   6.6808
     6.7258   7.0197   7.0561   7.2603   7.3974   7.8259   8.3610   8.5410
     8.6690   9.2944   9.3949   9.7483   9.9645  10.1687  10.4450

          k =-0.0000 0.2900-0.1978 ( 16360 PWs)   bands (ev):

   -95.6932 -95.6931 -95.6931 -95.6281 -95.6281 -95.6280 -56.1101 -56.1100
   -56.1100 -56.1081 -56.1080 -56.1080 -56.1039 -56.0963 -56.0963 -56.0536
   -56.0536 -56.0535 -56.0468 -56.0467 -56.0467 -56.0107 -56.0107 -56.0031
     0.1461   0.1518   1.5545   2.1978   3.6067   3.6078   4.3345   4.4063
     4.5041   4.5681   4.6019   4.6235   4.6623   4.7270   4.7784   4.8603
     4.9639   5.0351   5.1678   5.2948   5.3338   5.4157   5.5024   5.5445
     5.5795   5.5900   5.6019   5.6731   5.7205   5.7934   5.8571   5.8852
     5.9280   6.1156   6.1649   6.3323   6.3579   6.3750   6.3752   6.5856
     6.6983   6.7835   6.9736   7.1663   7.5369   7.9218   8.0950   8.4684
     9.2243   9.3435   9.4848   9.7632   9.7690  10.0777  10.9024

          k =-0.0000 0.4350 0.0000 ( 16379 PWs)   bands (ev):

   -95.6932 -95.6930 -95.6930 -95.6282 -95.6282 -95.6280 -56.1102 -56.1100
   -56.1100 -56.1081 -56.1080 -56.1080 -56.1039 -56.0900 -56.0900 -56.0537
   -56.0537 -56.0535 -56.0468 -56.0468 -56.0467 -56.0171 -56.0171 -56.0031
     0.5159   1.3361   1.3653   2.3527   3.0994   3.0996   3.7175   3.7251
     4.3324   4.4890   4.5899   4.6683   4.7260   4.8211   4.8329   4.9379
     4.9794   5.0494   5.1692   5.2830   5.2921   5.3288   5.3746   5.4827
     5.4860   5.5003   5.5401   5.5903   5.6082   5.6162   5.6511   5.7480
     5.7900   5.7962   5.8492   6.0569   6.2313   6.3729   6.3753   6.5879
     6.6276   6.8630   6.9046   7.0553   7.1122   7.8445   8.2587   8.6860
     9.0016   9.0566   9.2975   9.8993  10.4808  10.6883  10.8885

          k =-0.0000 0.4350 0.0989 ( 16368 PWs)   bands (ev):

   -95.6932 -95.6930 -95.6930 -95.6282 -95.6282 -95.6280 -56.1102 -56.1100
   -56.1100 -56.1081 -56.1080 -56.1080 -56.1039 -56.0900 -56.0900 -56.0537
   -56.0537 -56.0535 -56.0468 -56.0468 -56.0467 -56.0171 -56.0171 -56.0031
     0.5693   0.9919   1.7826   2.4038   2.7792   3.0975   3.5065   4.1720
     4.3575   4.4747   4.5390   4.6298   4.6799   4.8009   4.8585   4.9370
     5.0030   5.0736   5.1867   5.2601   5.2860   5.3518   5.3997   5.4575
     5.4923   5.5117   5.5282   5.5932   5.5968   5.6163   5.6668   5.7493
     5.7901   5.7985   5.8349   6.0557   6.2763   6.3729   6.3753   6.4709
     6.6066   6.7954   6.9888   7.1998   7.3472   7.8004   7.9739   8.3588
     8.5876   9.2365   9.7039  10.1520  10.3530  10.7910  11.0335

          k =-0.0000 0.4350-0.1978 ( 16370 PWs)   bands (ev):

   -95.6932 -95.6930 -95.6930 -95.6282 -95.6282 -95.6280 -56.1102 -56.1100
   -56.1100 -56.1081 -56.1080 -56.1080 -56.1039 -56.0900 -56.0900 -56.0537
   -56.0537 -56.0535 -56.0468 -56.0468 -56.0467 -56.0171 -56.0171 -56.0031
     0.7192   0.7390   2.1030   2.5265   2.5898   2.6914   3.8392   4.0109
     4.3906   4.4768   4.5650   4.6787   4.7382   4.7401   4.8370   4.9115
     5.0560   5.0811   5.1822   5.2514   5.2741   5.3947   5.4174   5.4245
     5.5028   5.5183   5.5358   5.5514   5.6022   5.6195   5.6857   5.7502
     5.7915   5.8058   5.8112   6.0521   6.2914   6.3728   6.3753   6.4428
     6.6072   6.9454   6.9515   7.1653   7.3874   7.7080   8.1319   8.3382
     8.4168   8.5753  10.2192  10.4808  10.6229  10.7259  11.2785

          k = 0.0000-0.5801 0.0000 ( 16352 PWs)   bands (ev):

   -95.6932 -95.6930 -95.6930 -95.6282 -95.6282 -95.6280 -56.1102 -56.1099
   -56.1099 -56.1081 -56.1079 -56.1079 -56.1040 -56.0870 -56.0870 -56.0537
   -56.0537 -56.0535 -56.0469 -56.0468 -56.0467 -56.0201 -56.0201 -56.0031
     1.2036   1.4261   1.9941   2.1333   2.1698   2.3484   4.0548   4.1152
     4.2655   4.4662   4.4704   4.5018   4.5912   4.7997   4.8711   4.8981
     5.0293   5.0767   5.1681   5.3295   5.3301   5.4014   5.4323   5.4446
     5.4896   5.4927   5.4962   5.5032   5.5165   5.5182   5.5385   5.5522
     5.6432   5.7746   5.8366   5.9426   6.3352   6.3708   6.3722   6.3754
     6.4829   6.7632   6.8090   6.9073   7.0613   7.8525   8.4482   8.8046
     9.0495   9.1811   9.2204   9.9471  10.1356  10.3183  11.8320

          k = 0.0000-0.5801 0.0989 ( 16378 PWs)   bands (ev):

   -95.6932 -95.6930 -95.6930 -95.6282 -95.6282 -95.6280 -56.1102 -56.1099
   -56.1099 -56.1081 -56.1079 -56.1079 -56.1040 -56.0870 -56.0870 -56.0537
   -56.0537 -56.0535 -56.0469 -56.0468 -56.0467 -56.0201 -56.0201 -56.0031
     1.2497   1.4706   1.7129   1.9123   2.4917   2.6948   3.7069   3.7415
     4.2845   4.4528   4.5960   4.6137   4.7279   4.8018   4.8980   4.9340
     5.0088   5.1433   5.2347   5.2900   5.2961   5.3825   5.4438   5.4467
     5.4679   5.4724   5.4962   5.5031   5.5271   5.5275   5.5435   5.5599
     5.6651   5.7743   5.7934   5.9417   6.2399   6.3719   6.3753   6.3989
     6.5916   6.8581   6.9644   6.9653   7.2260   7.7749   8.1935   8.4771
     8.4972   8.6849   9.7296  10.1758  10.8615  10.9839  11.6822

          k = 0.0000-0.5801-0.1978 ( 16368 PWs)   bands (ev):

   -95.6932 -95.6930 -95.6930 -95.6282 -95.6282 -95.6280 -56.1102 -56.1099
   -56.1099 -56.1081 -56.1079 -56.1079 -56.1040 -56.0870 -56.0870 -56.0537
   -56.0537 -56.0535 -56.0469 -56.0468 -56.0467 -56.0201 -56.0201 -56.0031
     1.3320   1.5315   1.5510   1.7370   2.8047   3.0995   3.3012   3.3613
     4.3126   4.4346   4.5545   4.7027   4.7687   4.8180   4.8978   5.0213
     5.1117   5.1718   5.2076   5.2777   5.3214   5.3411   5.4301   5.4376
     5.4610   5.4644   5.4969   5.5003   5.5295   5.5303   5.5468   5.5803
     5.7060   5.7312   5.7739   5.9397   6.1991   6.3717   6.3753   6.3977
     6.5903   7.0837   7.2016   7.2284   7.3471   7.6356   7.7692   8.1813
     8.2343   8.2931  10.2634  10.7270  10.8394  11.1071  11.8370

          k = 0.1256 0.2175 0.0000 ( 16312 PWs)   bands (ev):

   -95.6932 -95.6932 -95.6931 -95.6281 -95.6280 -95.6280 -56.1101 -56.1101
   -56.1100 -56.1081 -56.1081 -56.1080 -56.1018 -56.1018 -56.0963 -56.0536
   -56.0535 -56.0535 -56.0468 -56.0467 -56.0467 -56.0107 -56.0052 -56.0052
    -0.1862   0.6640   0.6683   3.1721   3.1791   4.0051   4.0115   4.3482
     4.3931   4.4743   4.5671   4.7021   4.7763   4.7871   4.8179   4.9009
     4.9361   5.0497   5.2237   5.2795   5.3525   5.3853   5.4264   5.5637
     5.6127   5.6245   5.6571   5.6813   5.7298   5.9002   5.9318   5.9349
     6.0451   6.1692   6.2755   6.3239   6.3421   6.3932   6.4917   6.5044
     6.5447   7.2494   7.4084   7.9378   8.0059   8.1741   8.2670   8.3634
     8.3707   8.5371   8.9238   9.0697   9.6249  10.4767  10.5914

          k = 0.1256 0.2175 0.0989 ( 16346 PWs)   bands (ev):

   -95.6932 -95.6932 -95.6931 -95.6281 -95.6280 -95.6280 -56.1101 -56.1101
   -56.1100 -56.1081 -56.1081 -56.1080 -56.1018 -56.1018 -56.0963 -56.0536
   -56.0535 -56.0535 -56.0468 -56.0467 -56.0467 -56.0107 -56.0052 -56.0052
    -0.1317   0.2993   1.1091   2.5055   3.8560   4.0403   4.0431   4.2611
     4.2861   4.5372   4.6151   4.6818   4.7461   4.7898   4.8152   4.9087
     4.9261   5.0509   5.2064   5.2997   5.3415   5.4139   5.4540   5.5739
     5.6066   5.6188   5.6700   5.6759   5.7345   5.8897   5.9166   5.9553
     6.0336   6.1704   6.2621   6.3201   6.3511   6.3944   6.4143   6.5524
     6.7272   6.9424   7.3057   7.6383   7.7550   7.8289   8.3721   8.6005
     8.8157   8.8680   9.0597   9.2658   9.8417  10.3526  10.5189

          k = 0.1256 0.2175-0.1978 ( 16360 PWs)   bands (ev):

   -95.6932 -95.6932 -95.6931 -95.6281 -95.6280 -95.6280 -56.1101 -56.1101
   -56.1100 -56.1081 -56.1081 -56.1080 -56.1018 -56.1018 -56.0963 -56.0536
   -56.0535 -56.0535 -56.0468 -56.0467 -56.0467 -56.0107 -56.0052 -56.0052
     0.0294   0.0328   1.4376   2.0965   4.1058   4.1331   4.1387   4.1698
     4.3695   4.3964   4.6452   4.6655   4.7229   4.7642   4.8411   4.8737
     4.9547   5.0343   5.1977   5.3068   5.3464   5.4429   5.5250   5.5463
     5.6034   5.6486   5.6549   5.6888   5.7425   5.8414   5.9223   5.9405
     6.0337   6.1728   6.2469   6.3173   6.3601   6.3815   6.4676   6.5512
     6.6447   6.9076   7.2340   7.3937   7.6289   7.6548   8.4739   8.7203
     8.8905   8.9590   9.5768   9.7010   9.9271   9.9390  10.3519

          k = 0.1256 0.3625 0.0000 ( 16370 PWs)   bands (ev):

   -95.6932 -95.6931 -95.6930 -95.6282 -95.6281 -95.6280 -56.1101 -56.1100
   -56.1100 -56.1081 -56.1080 -56.1080 -56.1018 -56.0963 -56.0900 -56.0536
   -56.0536 -56.0535 -56.0468 -56.0468 -56.0467 -56.0171 -56.0107 -56.0052
     0.2847   1.1208   1.1337   2.9633   3.4978   3.5455   3.6625   3.6978
     3.7260   4.2530   4.2958   4.7586   4.7795   4.8036   4.8764   4.9470
     5.0298   5.0506   5.2034   5.2483   5.2973   5.3151   5.4079   5.5126
     5.5483   5.5645   5.6100   5.6236   5.6504   5.6736   5.6963   5.7282
     5.8208   5.8525   6.0593   6.1300   6.2429   6.2920   6.3431   6.3640
     6.4616   7.1772   7.2463   7.6283   7.7272   7.9386   8.2279   8.4514
     8.5486   8.9861   9.3940   9.7041  10.0764  10.7851  10.8705

          k = 0.1256 0.3625 0.0989 ( 16342 PWs)   bands (ev):

   -95.6932 -95.6931 -95.6930 -95.6282 -95.6281 -95.6280 -56.1101 -56.1100
   -56.1100 -56.1081 -56.1080 -56.1080 -56.1018 -56.0963 -56.0900 -56.0536
   -56.0536 -56.0535 -56.0468 -56.0468 -56.0467 -56.0171 -56.0107 -56.0052
     0.3386   0.7646   1.5665   2.8961   3.0163   3.3712   3.7562   3.9821
     4.0674   4.1447   4.4831   4.6616   4.7725   4.8132   4.8735   4.9304
     5.0146   5.0632   5.1482   5.2490   5.3183   5.3482   5.4167   5.5135
     5.5225   5.5647   5.5888   5.6354   5.6588   5.6681   5.7059   5.7334
     5.8268   5.8624   6.0543   6.1329   6.2366   6.2884   6.3572   6.4087
     6.5569   6.8014   7.2081   7.4491   7.6928   7.9917   8.1846   8.6427
     8.8461   9.2620   9.4163   9.6170   9.9291  10.3578  10.7193

          k = 0.1256 0.3625-0.1978 ( 16364 PWs)   bands (ev):

   -95.6932 -95.6931 -95.6930 -95.6282 -95.6281 -95.6280 -56.1101 -56.1100
   -56.1100 -56.1081 -56.1080 -56.1080 -56.1018 -56.0963 -56.0900 -56.0536
   -56.0536 -56.0535 -56.0468 -56.0468 -56.0467 -56.0171 -56.0107 -56.0052
     0.4947   0.5044   1.8993   2.4964   3.1379   3.1620   3.8678   3.8734
     4.2731   4.3337   4.5829   4.6337   4.7092   4.7814   4.8688   4.9100
     5.0069   5.0745   5.1133   5.2471   5.3240   5.3958   5.4358   5.4590
     5.5280   5.5700   5.5787   5.6130   5.6680   5.6900   5.7079   5.7358
     5.8319   5.8751   6.0489   6.1349   6.2345   6.2884   6.3699   6.5096
     6.6416   6.7511   6.8669   7.1107   7.7223   7.9303   8.7535   8.8623
     9.0390   9.0723   9.3798   9.5535   9.8197   9.9242  11.2437

          k = 0.1256 0.5076 0.0000 ( 16377 PWs)   bands (ev):

   -95.6932 -95.6930 -95.6930 -95.6282 -95.6282 -95.6280 -56.1101 -56.1100
   -56.1099 -56.1081 -56.1080 -56.1079 -56.1018 -56.0900 -56.0870 -56.0537
   -56.0537 -56.0535 -56.0469 -56.0468 -56.0467 -56.0201 -56.0171 -56.0052
     0.9692   1.7118   1.8155   1.9818   2.6858   2.7243   3.5515   3.9939
     4.0271   4.1463   4.1643   4.5817   4.6452   4.8213   4.9108   4.9570
     5.1085   5.1560   5.1886   5.2700   5.3252   5.3746   5.4251   5.4438
     5.4551   5.4671   5.4969   5.5408   5.5610   5.5788   5.6031   5.6459
     5.7396   5.7660   5.8070   6.0207   6.2201   6.2638   6.3283   6.3815
     6.4400   6.6265   6.7534   7.5329   7.5821   7.9824   8.2230   8.4815
     8.9129   9.5383   9.9326  10.2592  10.4074  10.5605  10.7065

          k = 0.1256 0.5076 0.0989 ( 16380 PWs)   bands (ev):

   -95.6932 -95.6930 -95.6930 -95.6282 -95.6282 -95.6280 -56.1101 -56.1100
   -56.1099 -56.1081 -56.1080 -56.1079 -56.1018 -56.0900 -56.0870 -56.0537
   -56.0537 -56.0535 -56.0469 -56.0468 -56.0467 -56.0201 -56.0171 -56.0052
     1.0213   1.4324   1.9488   2.2214   2.4056   3.1050   3.4815   3.5937
     3.9084   4.0779   4.4110   4.6055   4.7841   4.8430   4.9149   4.9578
     5.1013   5.1387   5.2058   5.2548   5.3179   5.3827   5.4203   5.4359
     5.4567   5.4725   5.5025   5.5346   5.5616   5.5845   5.6028   5.6569
     5.7389   5.7641   5.7970   6.0219   6.1715   6.2627   6.3412   6.3883
     6.4489   6.6757   7.0734   7.2286   7.7077   7.9515   8.1137   8.6118
     8.6760   9.2450   9.6362  10.3280  10.5814  10.7897  11.0654

          k = 0.1256 0.5076-0.1978 ( 16374 PWs)   bands (ev):

   -95.6932 -95.6930 -95.6930 -95.6282 -95.6282 -95.6280 -56.1101 -56.1100
   -56.1099 -56.1081 -56.1080 -56.1079 -56.1018 -56.0900 -56.0870 -56.0537
   -56.0537 -56.0535 -56.0469 -56.0468 -56.0467 -56.0201 -56.0171 -56.0052
     1.1579   1.1984   2.0933   2.1092   2.6167   3.0648   3.4849   3.6985
     3.7192   3.7519   4.5680   4.7134   4.7907   4.8868   4.9179   4.9662
     5.1031   5.1330   5.1817   5.2615   5.3127   5.3808   5.4110   5.4416
     5.4622   5.4782   5.5005   5.5332   5.5519   5.5928   5.6027   5.6738
     5.7388   5.7569   5.7876   6.0218   6.1562   6.2311   6.3419   6.3469
     6.5609   6.8527   7.1238   7.2258   7.6957   7.8873   8.0458   8.2525
     8.9346   9.0225   9.7915   9.8096  10.6402  10.7909  11.8191

          k = 0.2512 0.4350 0.0000 ( 16380 PWs)   bands (ev):

   -95.6931 -95.6931 -95.6930 -95.6282 -95.6281 -95.6281 -56.1101 -56.1101
   -56.1099 -56.1080 -56.1080 -56.1079 -56.0963 -56.0963 -56.0870 -56.0537
   -56.0536 -56.0536 -56.0469 -56.0468 -56.0467 -56.0201 -56.0107 -56.0107
     0.8612   1.6737   1.6975   2.5905   2.7376   3.3380   3.3647   3.4340
     3.4602   3.9497   3.9701   4.6876   4.7957   4.8841   4.9127   4.9997
     5.0287   5.0749   5.2352   5.2471   5.3152   5.3780   5.3801   5.4381
     5.5044   5.5168   5.5306   5.5411   5.5551   5.6501   5.6523   5.6859
     5.7158   5.7195   5.9867   5.9950   6.0940   6.2095   6.2511   6.3745
     6.4003   7.0057   7.0424   7.0945   7.2983   8.6396   8.8248   9.0866
     9.2523   9.3844   9.6067   9.8322  10.3211  10.4852  10.7799

          k = 0.2512 0.4350 0.0989 ( 16361 PWs)   bands (ev):

   -95.6931 -95.6931 -95.6930 -95.6282 -95.6281 -95.6281 -56.1101 -56.1101
   -56.1099 -56.1080 -56.1080 -56.1079 -56.0963 -56.0963 -56.0870 -56.0537
   -56.0536 -56.0536 -56.0469 -56.0468 -56.0467 -56.0201 -56.0107 -56.0107
     0.9141   1.3317   2.1110   2.6375   2.7842   3.0386   3.1469   3.3765
     3.7553   3.8011   4.3459   4.5158   4.7117   4.9343   4.9438   5.0092
     5.0235   5.0784   5.2246   5.2565   5.3207   5.3751   5.3865   5.4462
     5.4750   5.5079   5.5264   5.5470   5.5698   5.6501   5.6630   5.6779
     5.6954   5.7616   5.9775   6.0025   6.0911   6.2138   6.2764   6.3059
     6.5974   6.6218   6.7903   7.5036   7.7843   8.2833   8.7197   9.0576
     9.2961   9.3563   9.6365   9.8622   9.8985  10.0166  10.8702

          k = 0.2512 0.4350-0.1978 ( 16354 PWs)   bands (ev):

   -95.6931 -95.6931 -95.6930 -95.6282 -95.6281 -95.6281 -56.1101 -56.1101
   -56.1099 -56.1080 -56.1080 -56.1079 -56.0963 -56.0963 -56.0870 -56.0537
   -56.0536 -56.0536 -56.0469 -56.0468 -56.0467 -56.0201 -56.0107 -56.0107
     1.0638   1.0803   2.4266   2.7360   2.8516   2.9065   2.9593   2.9890
     4.1059   4.1252   4.1993   4.2087   4.8213   4.8983   4.9699   4.9923
     5.0450   5.0803   5.2201   5.2614   5.3175   5.3779   5.4128   5.4164
     5.4701   5.4992   5.5211   5.5550   5.5774   5.6501   5.6675   5.6773
     5.6853   5.7912   5.9708   6.0069   6.0875   6.2179   6.3070   6.3130
     6.4657   6.5522   7.1374   7.1437   8.3417   8.5463   8.6777   8.7776
     8.8813   9.2776   9.4092   9.5480   9.9644  10.1238  11.2939

          k = 0.2512 0.5801 0.0000 ( 16380 PWs)   bands (ev):

   -95.6931 -95.6930 -95.6930 -95.6282 -95.6282 -95.6281 -56.1101 -56.1100
   -56.1100 -56.1080 -56.1080 -56.1080 -56.0963 -56.0900 -56.0900 -56.0537
   -56.0537 -56.0536 -56.0468 -56.0468 -56.0467 -56.0171 -56.0171 -56.0107
     1.5458   1.7518   2.2995   2.4345   2.4391   2.6435   2.6654   3.3119
     3.3255   4.2769   4.3196   4.5021   4.6620   4.7846   4.9319   5.0223
     5.0770   5.1641   5.1737   5.2538   5.2580   5.3590   5.3600   5.4401
     5.4887   5.5190   5.5291   5.5412   5.5887   5.6258   5.6303   5.6839
     5.7026   5.7636   5.7803   5.9628   6.1226   6.1574   6.2021   6.5021
     6.5171   6.5799   6.7486   6.9797   7.1910   8.8387   9.1967   9.3803
     9.6114   9.9986  10.0189  10.2408  10.4256  10.5188  10.6480

          k = 0.2512 0.5801 0.0989 ( 16361 PWs)   bands (ev):

   -95.6931 -95.6930 -95.6930 -95.6282 -95.6282 -95.6281 -56.1101 -56.1100
   -56.1100 -56.1080 -56.1080 -56.1080 -56.0963 -56.0900 -56.0900 -56.0537
   -56.0537 -56.0536 -56.0468 -56.0468 -56.0467 -56.0171 -56.0171 -56.0107
     1.5937   1.7953   2.0324   2.2134   2.6188   2.8169   2.9627   3.0514
     3.6880   3.9567   3.9780   4.4518   4.8227   4.8811   5.0022   5.0223
     5.0786   5.1686   5.1755   5.2227   5.2444   5.3462   5.3824   5.4066
     5.4800   5.5279   5.5401   5.5606   5.5942   5.6132   5.6470   5.6780
     5.7064   5.7621   5.7792   5.9636   6.0962   6.1901   6.2270   6.3197
     6.3924   6.6477   6.9518   7.1284   7.6608   8.6216   8.8779   8.9315
     9.3068   9.6617   9.9971  10.4078  10.4989  10.6301  10.7745

          k = 0.2512 0.5801-0.1978 ( 16362 PWs)   bands (ev):

   -95.6931 -95.6930 -95.6930 -95.6282 -95.6282 -95.6281 -56.1101 -56.1100
   -56.1100 -56.1080 -56.1080 -56.1080 -56.0963 -56.0900 -56.0900 -56.0537
   -56.0537 -56.0536 -56.0468 -56.0468 -56.0467 -56.0171 -56.0171 -56.0107
     1.6874   1.8408   1.8762   2.0470   2.7428   2.7782   3.1457   3.4033
     3.5620   3.6059   4.0545   4.1508   4.9050   5.0133   5.0210   5.0517
     5.0785   5.1631   5.1773   5.1863   5.2217   5.3600   5.3686   5.3891
     5.4794   5.5282   5.5400   5.5821   5.6002   5.6112   5.6545   5.6744
     5.7085   5.7602   5.7780   5.9645   6.0813   6.2282   6.2607   6.2756
     6.3004   6.4875   7.4232   7.5343   7.8609   8.1614   8.6037   8.7420
     8.9818   9.3468  10.2766  10.3633  10.4638  10.6915  10.6962

     the Fermi energy is     6.9627 ev

!    total energy              =   -2463.73705938 Ry
     estimated scf accuracy    <          1.3E-10 Ry
     smearing contrib. (-TS)   =       0.00076598 Ry
     internal energy E=F+TS    =   -2463.73782536 Ry

     The total energy is F=E-TS. E is the sum of the following terms:
     one-electron contribution =   -2164.06489011 Ry
     hartree contribution      =    1122.82773547 Ry
     xc contribution           =    -233.19134673 Ry
     ewald contribution        =    -813.17655761 Ry
     DFT-D3 Dispersion         =      -0.43068059 Ry
     one-center paw contrib.   =    -375.70208579 Ry

     convergence has been achieved in  12 iterations

     Forces acting on atoms (cartesian axes, Ry/au):

     atom    1 type  1   force =     0.00048144   -0.00027796    0.00000000
     atom    2 type  1   force =    -0.00000000    0.00055592    0.00000000
     atom    3 type  1   force =    -0.00048144    0.00027796   -0.00000000
     atom    4 type  1   force =     0.00000000   -0.00055592    0.00000000
     atom    5 type  1   force =    -0.00048144   -0.00027796   -0.00000000
     atom    6 type  1   force =     0.00048144    0.00027796    0.00000000
     atom    7 type  1   force =     0.00000000    0.00000000    0.00122769
     atom    8 type  1   force =     0.00000000    0.00000000   -0.00122769
     atom    9 type  1   force =     0.00000000    0.00000000   -0.00122769
     atom   10 type  1   force =     0.00000000    0.00000000    0.00122769
     atom   11 type  1   force =     0.00000000    0.00000000   -0.00122769
     atom   12 type  1   force =     0.00000000    0.00000000    0.00122769
     atom   13 type  2   force =     0.00000000   -0.00000000    0.00000000
     atom   14 type  2   force =    -0.00000000   -0.00000000    0.00000000
     atom   15 type  2   force =     0.00000000    0.00000000    0.00000000
     atom   16 type  2   force =     0.00000000    0.00000000    0.00000000
     atom   17 type  2   force =     0.00000000    0.00000000    0.00000000
     atom   18 type  2   force =     0.00000000    0.00000000    0.00000000

     Total force =     0.003301     Total SCF correction =     0.000001


     Computing stress (Cartesian axis) and pressure

          total   stress  (Ry/bohr**3)                   (kbar)     P=      -18.98
  -0.00012423   0.00000000   0.00000000          -18.27        0.00        0.00
   0.00000000  -0.00012423   0.00000000            0.00      -18.27        0.00
   0.00000000   0.00000000  -0.00013863            0.00        0.00      -20.39

     Energy error            =      4.8E-03 Ry
     Gradient error          =      1.2E-03 Ry/Bohr
     Cell gradient error     =      2.0E+01 kbar

     number of scf cycles    =   2
     number of bfgs steps    =   1

     enthalpy           old  =   -2463.7322554067 Ry
     enthalpy           new  =   -2463.7370593776 Ry

     CASE: enthalpy          _new < enthalpy          _old

     new trust radius        =       0.0688712009 bohr
     new conv_thr            =       0.0000000001 Ry

     new unit-cell volume =   2011.22581 a.u.^3 (   298.03292 Ang^3 )
     density =      3.58715 g/cm^3

CELL_PARAMETERS (angstrom)
   5.137988586   0.000000000   0.000000000
  -2.568994293   4.449628640   0.000000000
   0.000000000   0.000000000  13.036089438

ATOMIC_POSITIONS (angstrom)
Mg              -1.3017074006        3.7179602115       10.8634078654
Mg               0.0000000000        1.4633368571        6.5180447192
Mg               3.8707016938        0.7316684286       10.8634078654
Mg               2.5689942931        2.9862917830        6.5180447192
Mg               1.3017074006        3.7179602115        2.1726815731
Mg               1.2672868925        0.7316684286        2.1726815731
Mg               1.2844971466        2.2248143200        9.3532665576
Mg               2.5689942931        0.0000000000        8.0281860269
Mg               1.2844971466        2.2248143200       12.3735491730
Mg               2.5689942931        0.0000000000        5.0079034115
Mg               3.8534914397        2.2248143200        3.6828228808
Mg               3.8534914397        2.2248143200        0.6625402654
Ni               1.2844971466        2.2248143200        4.3453631461
Ni               2.5689942931        0.0000000000       -0.0000000000
Ni               3.8534914397        2.2248143200        8.6907262923
Ni               0.0000000000        0.0000000000        4.3453631461
Ni               0.0000000000        0.0000000000        0.0000000000
Ni               0.0000000000        0.0000000000        8.6907262923



     Writing config-only to output data dir ./outdir/mg2ni.save/ :
     XML data file
     NEW-OLD atomic charge density approx. for the potential
     New effective cutoffs (rho, wfc):  492.14   61.54

     Check: negative core charge=   -0.000001

     total cpu time spent up to now is      175.4 secs

     Self-consistent Calculation

     iteration #  1     ecut=    60.00 Ry     beta= 0.30
     Davidson diagonalization with overlap
     ethr =  1.00E-06,  avg # of iterations =  4.2

     total cpu time spent up to now is      181.0 secs

     total energy              =   -2463.72643185 Ry
     estimated scf accuracy    <       0.03574963 Ry

     iteration #  2     ecut=    60.00 Ry     beta= 0.30
     Davidson diagonalization with overlap
     ethr =  2.71E-05,  avg # of iterations =  3.0

     total cpu time spent up to now is      184.9 secs

     total energy              =   -2463.72621348 Ry
     estimated scf accuracy    <       0.19016433 Ry

     iteration #  3     ecut=    60.00 Ry     beta= 0.30
     Davidson diagonalization with overlap
     ethr =  2.71E-05,  avg # of iterations =  3.0

     total cpu time spent up to now is      188.4 secs

     total energy              =   -2463.74042321 Ry
     estimated scf accuracy    <       0.00048436 Ry

     iteration #  4     ecut=    60.00 Ry     beta= 0.30
     Davidson diagonalization with overlap
     ethr =  3.67E-07,  avg # of iterations =  3.1

     total cpu time spent up to now is      191.9 secs

     total energy              =   -2463.74048465 Ry
     estimated scf accuracy    <       0.00096286 Ry

     iteration #  5     ecut=    60.00 Ry     beta= 0.30
     Davidson diagonalization with overlap
     ethr =  3.67E-07,  avg # of iterations =  1.9

     total cpu time spent up to now is      194.8 secs

     total energy              =   -2463.74053402 Ry
     estimated scf accuracy    <       0.00002586 Ry

     iteration #  6     ecut=    60.00 Ry     beta= 0.30
     Davidson diagonalization with overlap
     ethr =  1.96E-08,  avg # of iterations =  3.0

     total cpu time spent up to now is      198.6 secs

     total energy              =   -2463.74053930 Ry
     estimated scf accuracy    <       0.00000986 Ry

     iteration #  7     ecut=    60.00 Ry     beta= 0.30
     Davidson diagonalization with overlap
     ethr =  7.47E-09,  avg # of iterations =  1.6

     total cpu time spent up to now is      201.6 secs

     total energy              =   -2463.74053925 Ry
     estimated scf accuracy    <       0.00000208 Ry

     iteration #  8     ecut=    60.00 Ry     beta= 0.30
     Davidson diagonalization with overlap
     ethr =  1.58E-09,  avg # of iterations =  5.3

     total cpu time spent up to now is      206.3 secs

     total energy              =   -2463.74054008 Ry
     estimated scf accuracy    <       0.00000136 Ry

     iteration #  9     ecut=    60.00 Ry     beta= 0.30
     Davidson diagonalization with overlap
     ethr =  1.03E-09,  avg # of iterations =  1.4

     total cpu time spent up to now is      209.0 secs

     total energy              =   -2463.74054017 Ry
     estimated scf accuracy    <       0.00000004 Ry

     iteration # 10     ecut=    60.00 Ry     beta= 0.30
     Davidson diagonalization with overlap
     ethr =  2.69E-11,  avg # of iterations =  3.7

     total cpu time spent up to now is      213.3 secs

     total energy              =   -2463.74054019 Ry
     estimated scf accuracy    <       0.00000003 Ry

     iteration # 11     ecut=    60.00 Ry     beta= 0.30
     Davidson diagonalization with overlap
     ethr =  2.12E-11,  avg # of iterations =  1.3

     total cpu time spent up to now is      215.9 secs

     total energy              =   -2463.74054020 Ry
     estimated scf accuracy    <          4.9E-09 Ry

     iteration # 12     ecut=    60.00 Ry     beta= 0.30
     Davidson diagonalization with overlap
     ethr =  3.72E-12,  avg # of iterations =  3.0

     total cpu time spent up to now is      219.5 secs

     total energy              =   -2463.74054020 Ry
     estimated scf accuracy    <          2.3E-09 Ry

     iteration # 13     ecut=    60.00 Ry     beta= 0.30
     Davidson diagonalization with overlap
     ethr =  1.77E-12,  avg # of iterations =  1.2

     total cpu time spent up to now is      222.5 secs

     total energy              =   -2463.74054020 Ry
     estimated scf accuracy    <          2.3E-10 Ry

     iteration # 14     ecut=    60.00 Ry     beta= 0.30
     Davidson diagonalization with overlap
     ethr =  1.72E-13,  avg # of iterations =  3.8

     total cpu time spent up to now is      226.5 secs

     End of self-consistent calculation

          k = 0.0000 0.0000 0.0000 ( 16309 PWs)   bands (ev):

   -95.5110 -95.5110 -95.5110 -95.4446 -95.4446 -95.4446 -55.9286 -55.9286
   -55.9286 -55.9268 -55.9268 -55.9267 -55.9235 -55.9235 -55.9234 -55.8709
   -55.8708 -55.8708 -55.8644 -55.8644 -55.8643 -55.8172 -55.8172 -55.8172
    -0.4344   0.4375   0.4375   3.0400   3.0400   4.6504   4.6504   4.7204
     4.7330   4.7921   4.7921   4.8029   4.8630   4.9316   4.9316   5.3847
     5.4269   5.4509   5.4509   5.5007   5.5007   5.7368   5.7368   5.7843
     5.7843   5.8704   5.9937   5.9990   5.9990   6.5694   6.5694   6.5713
     6.5719   6.5719   6.5719   6.7947   6.8034   6.8034   7.0746   7.4786
     7.5811   7.5811   7.8038   7.8038   7.8548   8.2501   8.4610   8.4610
     8.5359   8.7188   8.7188   8.8992   9.5725   9.5725  10.4383

          k = 0.0000 0.0000 0.0997 ( 16316 PWs)   bands (ev):

   -95.5110 -95.5110 -95.5110 -95.4446 -95.4446 -95.4446 -55.9286 -55.9286
   -55.9286 -55.9268 -55.9268 -55.9267 -55.9235 -55.9235 -55.9234 -55.8708
   -55.8708 -55.8708 -55.8644 -55.8643 -55.8643 -55.8172 -55.8172 -55.8172
    -0.3786   0.0624   0.8889   2.3443   3.7675   4.6575   4.6599   4.6711
     4.7108   4.7661   4.7922   4.8051   4.8674   4.9034   4.9572   5.3971
     5.4270   5.4366   5.4387   5.4497   5.5755   5.6752   5.7806   5.7884
     5.8504   5.8672   5.9941   5.9971   6.0014   6.5689   6.5701   6.5711
     6.5716   6.5718   6.5719   6.6039   6.8639   6.8672   6.8755   7.3133
     7.3514   7.3627   7.9475   7.9757   8.0632   8.4186   8.4856   8.4877
     8.6701   8.6852   8.7620   8.9794   9.5485   9.5596  10.2025

          k = 0.0000 0.0000-0.1993 ( 16334 PWs)   bands (ev):

   -95.5110 -95.5110 -95.5110 -95.4446 -95.4446 -95.4446 -55.9286 -55.9286
   -55.9286 -55.9268 -55.9267 -55.9267 -55.9235 -55.9234 -55.9234 -55.8708
   -55.8708 -55.8708 -55.8644 -55.8643 -55.8643 -55.8172 -55.8172 -55.8172
    -0.2120  -0.2120   1.2181   1.9296   4.3668   4.3668   4.6666   4.6835
     4.6835   4.7495   4.8007   4.8007   4.8809   4.8809   4.9680   5.4041
     5.4261   5.4261   5.4317   5.4816   5.4816   5.7770   5.8120   5.8120
     5.9207   5.9911   5.9911   6.0036   6.0074   6.0074   6.5687   6.5707
     6.5707   6.5718   6.5719   6.5719   6.9742   7.0315   7.0315   7.1008
     7.1008   7.1784   8.0552   8.0552   8.2183   8.3947   8.4983   8.4983
     8.6744   8.7830   8.7830   9.3529   9.3529   9.5546   9.9758

          k =-0.0000 0.1460 0.0000 ( 16313 PWs)   bands (ev):

   -95.5110 -95.5110 -95.5110 -95.4447 -95.4447 -95.4446 -55.9286 -55.9286
   -55.9286 -55.9268 -55.9267 -55.9267 -55.9235 -55.9211 -55.9211 -55.8709
   -55.8709 -55.8709 -55.8644 -55.8644 -55.8643 -55.8196 -55.8196 -55.8172
    -0.3129   0.5563   0.5579   3.1385   3.1409   4.4664   4.6367   4.6652
     4.7054   4.7513   4.8045   4.8152   4.8967   4.9085   4.9419   5.2218
     5.2702   5.3787   5.4273   5.4716   5.4724   5.6501   5.7048   5.7545
     5.7850   5.8650   5.8721   5.9164   5.9333   6.3488   6.3742   6.4174
     6.4347   6.5380   6.5702   6.5713   6.7407   6.8621   6.9484   6.9561
     7.2909   7.3683   7.4198   7.6098   7.8461   8.5300   8.6577   8.7307
     8.8341   8.9867   8.9957   9.4426   9.5960   9.9040  10.3597

          k =-0.0000 0.1460 0.0997 ( 16313 PWs)   bands (ev):

   -95.5110 -95.5110 -95.5110 -95.4447 -95.4447 -95.4446 -55.9286 -55.9286
   -55.9286 -55.9268 -55.9267 -55.9267 -55.9235 -55.9211 -55.9211 -55.8709
   -55.8709 -55.8709 -55.8644 -55.8644 -55.8643 -55.8196 -55.8196 -55.8172
    -0.2572   0.1828   1.0082   2.4494   3.8542   4.4867   4.6025   4.6738
     4.6949   4.7501   4.7629   4.8064   4.8892   4.8915   4.9708   5.1900
     5.2691   5.3537   5.4237   5.4589   5.5210   5.6609   5.7373   5.7745
     5.7996   5.8578   5.8791   5.9198   5.9357   6.3272   6.3610   6.3862
     6.4633   6.5447   6.5702   6.5713   6.7259   6.7848   6.8816   6.9668
     7.0810   7.2465   7.3859   7.8037   7.9923   8.2395   8.6456   8.8115
     8.8885   9.0346   9.2245   9.3778   9.6388   9.9192  10.3493

          k =-0.0000 0.1460-0.1993 ( 16334 PWs)   bands (ev):

   -95.5110 -95.5110 -95.5110 -95.4447 -95.4447 -95.4446 -55.9286 -55.9286
   -55.9286 -55.9268 -55.9267 -55.9267 -55.9235 -55.9211 -55.9211 -55.8709
   -55.8709 -55.8709 -55.8644 -55.8644 -55.8643 -55.8196 -55.8196 -55.8172
    -0.0916  -0.0904   1.3394   2.0341   4.4221   4.4335   4.5321   4.5526
     4.7040   4.7076   4.7818   4.7904   4.8793   4.8836   4.9927   5.1582
     5.2661   5.3381   5.4210   5.4581   5.5122   5.7291   5.7613   5.8119
     5.8570   5.8907   5.9175   5.9229   5.9494   6.0290   6.3730   6.3794
     6.4939   6.5552   6.5702   6.5713   6.6454   6.6763   6.9038   6.9172
     7.0312   7.1993   7.4644   7.9420   7.9657   8.2006   8.4286   8.7582
     8.9820   9.1860   9.2129   9.5118   9.6474   9.9758  10.5278

          k =-0.0000 0.2920 0.0000 ( 16389 PWs)   bands (ev):

   -95.5110 -95.5109 -95.5109 -95.4447 -95.4447 -95.4446 -55.9287 -55.9285
   -55.9285 -55.9268 -55.9267 -55.9266 -55.9235 -55.9150 -55.9150 -55.8710
   -55.8710 -55.8709 -55.8645 -55.8644 -55.8643 -55.8258 -55.8258 -55.8172
     0.0489   0.9086   0.9162   3.4169   3.4346   3.6004   4.1915   4.2185
     4.6454   4.6943   4.8052   4.8702   4.8769   4.9010   4.9860   5.0856
     5.1248   5.1717   5.3982   5.4357   5.4600   5.5292   5.6019   5.7061
     5.7415   5.7615   5.8375   5.8402   5.8814   5.9781   6.0175   6.0492
     6.1762   6.3087   6.3360   6.4599   6.5206   6.5703   6.5705   6.9333
     7.0161   7.1919   7.4026   7.6048   7.8784   8.0170   8.2447   8.9344
     8.9795   9.2813   9.4358   9.8843  10.1945  10.2353  10.9387

          k =-0.0000 0.2920 0.0997 ( 16367 PWs)   bands (ev):

   -95.5110 -95.5109 -95.5109 -95.4447 -95.4447 -95.4446 -55.9287 -55.9285
   -55.9285 -55.9268 -55.9267 -55.9266 -55.9235 -55.9150 -55.9150 -55.8710
   -55.8710 -55.8709 -55.8645 -55.8644 -55.8643 -55.8258 -55.8258 -55.8172
     0.1042   0.5407   1.3618   2.7581   3.6407   3.9522   4.1032   4.4354
     4.6660   4.6974   4.8018   4.8411   4.8506   4.8911   4.9703   5.0540
     5.1244   5.1824   5.3610   5.4443   5.4851   5.5676   5.6099   5.7144
     5.7425   5.7615   5.8026   5.8700   5.8796   5.9851   6.0298   6.0517
     6.1521   6.3055   6.3436   6.4889   6.5300   6.5703   6.5706   6.8834
     6.9301   7.2305   7.2650   7.4757   7.6172   8.0526   8.5903   8.7772
     8.9039   9.5355   9.6352  10.0009  10.2227  10.4313  10.7133

          k =-0.0000 0.2920-0.1993 ( 16360 PWs)   bands (ev):

   -95.5110 -95.5109 -95.5109 -95.4447 -95.4447 -95.4446 -55.9287 -55.9285
   -55.9285 -55.9268 -55.9267 -55.9266 -55.9235 -55.9150 -55.9150 -55.8710
   -55.8710 -55.8709 -55.8645 -55.8644 -55.8643 -55.8258 -55.8258 -55.8172
     0.2661   0.2720   1.6981   2.3432   3.7639   3.7666   4.4876   4.5619
     4.6609   4.7242   4.7602   4.7797   4.8159   4.8802   4.9434   5.0185
     5.1206   5.1967   5.3299   5.4597   5.5012   5.5875   5.6725   5.7219
     5.7518   5.7631   5.7754   5.8483   5.8971   5.9762   6.0403   6.0687
     6.1131   6.3027   6.3540   6.5306   6.5546   6.5703   6.5707   6.7896
     6.9002   6.9880   7.1835   7.3782   7.7573   8.1434   8.3278   8.7025
     9.4662   9.5893   9.7277  10.0120  10.0155  10.3379  11.1567

          k =-0.0000 0.4380 0.0000 ( 16379 PWs)   bands (ev):

   -95.5110 -95.5108 -95.5108 -95.4448 -95.4448 -95.4446 -55.9287 -55.9284
   -55.9284 -55.9268 -55.9266 -55.9265 -55.9235 -55.9078 -55.9078 -55.8711
   -55.8711 -55.8709 -55.8646 -55.8645 -55.8643 -55.8330 -55.8330 -55.8172
     0.6407   1.4733   1.5031   2.5002   3.2549   3.2560   3.8783   3.8865
     4.4925   4.6485   4.7417   4.8288   4.8870   4.9738   4.9971   5.1035
     5.1403   5.2117   5.3341   5.4475   5.4570   5.4954   5.5403   5.6533
     5.6562   5.6709   5.7120   5.7635   5.7823   5.7899   5.8257   5.9236
     5.9681   5.9730   6.0315   6.2503   6.4228   6.5686   6.5704   6.7897
     6.8305   7.0682   7.1160   7.2673   7.3276   8.0770   8.4886   8.9221
     9.2433   9.3004   9.5474  10.1757  10.7418  10.9509  11.1589

          k =-0.0000 0.4380 0.0997 ( 16368 PWs)   bands (ev):

   -95.5110 -95.5108 -95.5108 -95.4448 -95.4448 -95.4446 -55.9287 -55.9284
   -55.9284 -55.9268 -55.9266 -55.9265 -55.9235 -55.9078 -55.9078 -55.8711
   -55.8711 -55.8709 -55.8646 -55.8645 -55.8643 -55.8330 -55.8330 -55.8172
     0.6950   1.1240   1.9268   2.5519   2.9322   3.2528   3.6676   4.3273
     4.5177   4.6337   4.7069   4.7858   4.8405   4.9551   5.0171   5.0975
     5.1674   5.2355   5.3504   5.4252   5.4512   5.5187   5.5672   5.6276
     5.6628   5.6823   5.6995   5.7667   5.7706   5.7904   5.8420   5.9250
     5.9687   5.9754   6.0161   6.2495   6.4701   6.5686   6.5704   6.6696
     6.8081   7.0020   7.1979   7.4166   7.5649   8.0284   8.2065   8.5971
     8.8259   9.4825   9.9540  10.4127  10.6240  11.0515  11.2983

          k =-0.0000 0.4380-0.1993 ( 16370 PWs)   bands (ev):

   -95.5110 -95.5108 -95.5108 -95.4448 -95.4448 -95.4446 -55.9287 -55.9284
   -55.9284 -55.9268 -55.9266 -55.9265 -55.9235 -55.9078 -55.9078 -55.8711
   -55.8711 -55.8709 -55.8646 -55.8645 -55.8643 -55.8330 -55.8330 -55.8172
     0.8471   0.8673   2.2531   2.6769   2.7404   2.8407   4.0045   4.1657
     4.5507   4.6346   4.7279   4.8351   4.8954   4.8984   4.9978   5.0711
     5.2197   5.2434   5.3451   5.4163   5.4395   5.5624   5.5865   5.5935
     5.6729   5.6890   5.7078   5.7247   5.7764   5.7937   5.8615   5.9258
     5.9712   5.9852   5.9883   6.2460   6.4856   6.5686   6.5704   6.6397
     6.8091   7.1559   7.1628   7.3802   7.6073   7.9287   8.3691   8.5735
     8.6577   8.8179  10.4726  10.7347  10.8865  10.9847  11.5497

          k = 0.0000-0.5840 0.0000 ( 16352 PWs)   bands (ev):

   -95.5110 -95.5108 -95.5108 -95.4448 -95.4448 -95.4446 -55.9287 -55.9284
   -55.9284 -55.9267 -55.9265 -55.9265 -55.9235 -55.9044 -55.9044 -55.8711
   -55.8711 -55.8709 -55.8646 -55.8646 -55.8643 -55.8364 -55.8364 -55.8172
     1.3382   1.5623   2.1391   2.2824   2.3155   2.4972   4.2106   4.2707
     4.4256   4.6326   4.6444   4.6640   4.7486   4.9664   5.0362   5.0505
     5.1936   5.2374   5.3354   5.4959   5.4964   5.5698   5.6009   5.6127
     5.6596   5.6623   5.6646   5.6733   5.6861   5.6870   5.7079   5.7218
     5.8172   5.9507   6.0210   6.1342   6.5314   6.5677   6.5679   6.5705
     6.6826   6.9705   7.0126   7.1161   7.2762   8.0861   8.6780   9.0436
     9.2948   9.4235   9.4709  10.2065  10.4193  10.5965  12.0827

          k = 0.0000-0.5840 0.0997 ( 16378 PWs)   bands (ev):

   -95.5110 -95.5108 -95.5108 -95.4448 -95.4448 -95.4446 -55.9287 -55.9284
   -55.9284 -55.9267 -55.9265 -55.9265 -55.9235 -55.9044 -55.9044 -55.8711
   -55.8711 -55.8709 -55.8646 -55.8646 -55.8643 -55.8364 -55.8364 -55.8172
     1.3849   1.6074   1.8548   2.0548   2.6449   2.8479   3.8675   3.8996
     4.4445   4.6120   4.7601   4.7674   4.8905   4.9682   5.0503   5.0999
     5.1754   5.3081   5.4010   5.4563   5.4625   5.5507   5.6126   5.6151
     5.6365   5.6417   5.6647   5.6729   5.6967   5.6973   5.7134   5.7302
     5.8398   5.9504   5.9753   6.1337   6.4320   6.5676   6.5704   6.5956
     6.7935   7.0683   7.1729   7.1775   7.4425   8.0024   8.4273   8.7202
     8.7366   8.9262   9.9833  10.4420  11.1376  11.2628  11.9585

          k = 0.0000-0.5840-0.1993 ( 16368 PWs)   bands (ev):

   -95.5110 -95.5108 -95.5108 -95.4448 -95.4448 -95.4446 -55.9287 -55.9284
   -55.9284 -55.9267 -55.9265 -55.9265 -55.9235 -55.9044 -55.9044 -55.8711
   -55.8711 -55.8709 -55.8646 -55.8646 -55.8643 -55.8364 -55.8364 -55.8172
     1.4686   1.6707   1.6893   1.8769   2.9626   3.2633   3.4504   3.5197
     4.4724   4.5924   4.7190   4.8535   4.9254   4.9866   5.0501   5.1868
     5.2800   5.3389   5.3708   5.4469   5.4885   5.5071   5.6006   5.6064
     5.6289   5.6330   5.6653   5.6705   5.6988   5.7000   5.7166   5.7520
     5.8819   5.9104   5.9501   6.1318   6.3893   6.5674   6.5704   6.5937
     6.7915   7.2963   7.4174   7.4449   7.5646   7.8560   8.0014   8.4220
     8.4786   8.5295  10.5185  10.9947  11.1116  11.3809  12.0883

          k = 0.1264 0.2190 0.0000 ( 16312 PWs)   bands (ev):

   -95.5110 -95.5110 -95.5109 -95.4447 -95.4447 -95.4447 -55.9286 -55.9286
   -55.9285 -55.9267 -55.9267 -55.9266 -55.9211 -55.9211 -55.9150 -55.8710
   -55.8709 -55.8709 -55.8645 -55.8644 -55.8644 -55.8258 -55.8196 -55.8196
    -0.0712   0.7924   0.7969   3.3304   3.3376   4.1658   4.1669   4.5019
     4.5476   4.6288   4.7264   4.8558   4.9288   4.9402   4.9719   5.0593
     5.0985   5.2121   5.3859   5.4440   5.5179   5.5564   5.5982   5.7368
     5.7849   5.7995   5.8317   5.8551   5.9067   6.0830   6.1174   6.1199
     6.2323   6.3581   6.4684   6.5175   6.5362   6.5895   6.6923   6.7042
     6.7460   7.4574   7.6240   8.1552   8.2253   8.4007   8.4984   8.5914
     8.6043   8.7707   9.1763   9.3170   9.8919  10.7391  10.8603

          k = 0.1264 0.2190 0.0997 ( 16346 PWs)   bands (ev):

   -95.5110 -95.5110 -95.5109 -95.4447 -95.4447 -95.4447 -55.9286 -55.9286
   -55.9285 -55.9267 -55.9267 -55.9266 -55.9211 -55.9211 -55.9150 -55.8710
   -55.8709 -55.8709 -55.8645 -55.8644 -55.8644 -55.8258 -55.8196 -55.8196
    -0.0158   0.4220   1.2448   2.6566   4.0174   4.1983   4.2009   4.4165
     4.4449   4.6884   4.7702   4.8362   4.8984   4.9438   4.9710   5.0684
     5.0846   5.2135   5.3688   5.4661   5.5069   5.5841   5.6279   5.7473
     5.7806   5.7918   5.8442   5.8513   5.9114   6.0745   6.0994   6.1417
     6.2213   6.3596   6.4548   6.5135   6.5459   6.5906   6.6118   6.7545
     6.9324   7.1548   7.5128   7.8554   7.9750   8.0494   8.5986   8.8370
     9.0584   9.1047   9.3060   9.5107  10.1036  10.6103  10.7735

          k = 0.1264 0.2190-0.1993 ( 16360 PWs)   bands (ev):

   -95.5110 -95.5110 -95.5109 -95.4447 -95.4447 -95.4447 -55.9286 -55.9286
   -55.9285 -55.9267 -55.9267 -55.9266 -55.9211 -55.9211 -55.9150 -55.8710
   -55.8709 -55.8709 -55.8645 -55.8644 -55.8644 -55.8258 -55.8196 -55.8196
     0.1478   0.1513   1.5797   2.2410   4.2600   4.2909   4.2975   4.3307
     4.5250   4.5548   4.7985   4.8182   4.8752   4.9199   4.9982   5.0305
     5.1141   5.1952   5.3610   5.4735   5.5115   5.6162   5.6959   5.7225
     5.7771   5.8221   5.8297   5.8656   5.9196   6.0291   6.1049   6.1254
     6.2219   6.3623   6.4393   6.5104   6.5555   6.5781   6.6666   6.7529
     6.8499   7.1175   7.4437   7.6053   7.8444   7.8741   8.7021   8.9637
     9.1397   9.1929   9.8224   9.9455  10.1836  10.1866  10.5967

          k = 0.1264 0.3650 0.0000 ( 16370 PWs)   bands (ev):

   -95.5110 -95.5109 -95.5108 -95.4448 -95.4447 -95.4447 -55.9286 -55.9285
   -55.9284 -55.9267 -55.9266 -55.9266 -55.9211 -55.9150 -55.9078 -55.8711
   -55.8710 -55.8709 -55.8645 -55.8645 -55.8644 -55.8330 -55.8258 -55.8196
     0.4064   1.2553   1.2686   3.1171   3.6565   3.7047   3.8254   3.8585
     3.8835   4.4117   4.4574   4.9135   4.9337   4.9587   5.0327   5.1077
     5.1902   5.2097   5.3683   5.4145   5.4620   5.4817   5.5744   5.6838
     5.7222   5.7365   5.7841   5.7982   5.8247   5.8502   5.8724   5.9046
     5.9994   6.0337   6.2452   6.3198   6.4351   6.4865   6.5373   6.5594
     6.6606   7.3899   7.4614   7.8469   7.9463   8.1651   8.4593   8.6874
     8.7890   9.2285   9.6417   9.9563  10.3526  11.0462  11.1321

          k = 0.1264 0.3650 0.0997 ( 16342 PWs)   bands (ev):

   -95.5110 -95.5109 -95.5108 -95.4448 -95.4447 -95.4447 -55.9286 -55.9285
   -55.9284 -55.9267 -55.9266 -55.9266 -55.9211 -55.9150 -55.9078 -55.8711
   -55.8710 -55.8709 -55.8645 -55.8645 -55.8644 -55.8330 -55.8258 -55.8196
     0.4611   0.8937   1.7081   3.0502   3.1712   3.5286   3.9152   4.1416
     4.2290   4.3048   4.6405   4.8211   4.9270   4.9705   5.0300   5.0914
     5.1734   5.2232   5.3114   5.4143   5.4853   5.5146   5.5838   5.6859
     5.6948   5.7367   5.7619   5.8102   5.8339   5.8444   5.8824   5.9102
     6.0050   6.0455   6.2402   6.3231   6.4290   6.4814   6.5523   6.6061
     6.7594   7.0084   7.4212   7.6666   7.9137   8.2179   8.4186   8.8793
     9.0864   9.5047   9.6614   9.8696  10.1878  10.6277  10.9879

          k = 0.1264 0.3650-0.1993 ( 16364 PWs)   bands (ev):

   -95.5110 -95.5109 -95.5108 -95.4448 -95.4447 -95.4447 -55.9286 -55.9285
   -55.9284 -55.9267 -55.9266 -55.9266 -55.9211 -55.9150 -55.9078 -55.8711
   -55.8710 -55.8709 -55.8645 -55.8645 -55.8644 -55.8330 -55.8258 -55.8196
     0.6196   0.6294   2.0475   2.6445   3.2941   3.3173   4.0266   4.0334
     4.4348   4.4867   4.7366   4.7948   4.8693   4.9435   5.0282   5.0673
     5.1650   5.2345   5.2760   5.4121   5.4912   5.5632   5.6047   5.6301
     5.6996   5.7420   5.7518   5.7879   5.8434   5.8666   5.8846   5.9126
     6.0096   6.0600   6.2347   6.3255   6.4266   6.4810   6.5657   6.7102
     6.8470   6.9587   7.0777   7.3200   7.9442   8.1555   8.9917   9.1026
     9.2809   9.3101   9.6254   9.8069  10.0731  10.1835  11.5088

          k = 0.1264 0.5110 0.0000 ( 16377 PWs)   bands (ev):

   -95.5110 -95.5108 -95.5108 -95.4448 -95.4448 -95.4447 -55.9286 -55.9284
   -55.9284 -55.9267 -55.9266 -55.9265 -55.9211 -55.9078 -55.9044 -55.8711
   -55.8711 -55.8709 -55.8646 -55.8645 -55.8644 -55.8364 -55.8330 -55.8196
     1.1003   1.8534   1.9590   2.1254   2.8389   2.8769   3.7098   4.1531
     4.1870   4.3064   4.3270   4.7461   4.8136   4.9787   5.0654   5.1162
     5.2711   5.3216   5.3535   5.4342   5.4910   5.5407   5.5926   5.6133
     5.6233   5.6365   5.6669   5.7125   5.7327   5.7504   5.7751   5.8203
     5.9154   5.9432   5.9876   6.2096   6.4126   6.4565   6.5224   6.5778
     6.6386   6.8309   6.9602   7.7498   7.7990   8.2142   8.4549   8.7238
     9.1568   9.7901  10.1866  10.5217  10.6733  10.8357  10.9716

          k = 0.1264 0.5110 0.0997 ( 16380 PWs)   bands (ev):

   -95.5110 -95.5108 -95.5108 -95.4448 -95.4448 -95.4447 -55.9286 -55.9284
   -55.9284 -55.9267 -55.9266 -55.9265 -55.9211 -55.9078 -55.9044 -55.8711
   -55.8711 -55.8709 -55.8646 -55.8645 -55.8644 -55.8364 -55.8330 -55.8196
     1.1531   1.5703   2.0923   2.3696   2.5556   3.2619   3.6414   3.7523
     4.0692   4.2358   4.5699   4.7723   4.9427   5.0042   5.0695   5.1188
     5.2654   5.3021   5.3711   5.4200   5.4834   5.5500   5.5881   5.6043
     5.6246   5.6421   5.6727   5.7062   5.7326   5.7570   5.7748   5.8318
     5.9150   5.9419   5.9761   6.2112   6.3615   6.4551   6.5356   6.5849
     6.6479   6.8819   7.2860   7.4415   7.9331   8.1794   8.3455   8.8523
     8.9172   9.4984   9.8888  10.5870  10.8392  11.0540  11.3493

          k = 0.1264 0.5110-0.1993 ( 16374 PWs)   bands (ev):

   -95.5110 -95.5108 -95.5108 -95.4448 -95.4448 -95.4447 -55.9286 -55.9284
   -55.9284 -55.9267 -55.9266 -55.9265 -55.9211 -55.9078 -55.9044 -55.8711
   -55.8711 -55.8709 -55.8646 -55.8645 -55.8644 -55.8364 -55.8330 -55.8196
     1.2919   1.3329   2.2388   2.2542   2.7733   3.2168   3.6511   3.8582
     3.8778   3.9076   4.7195   4.8794   4.9504   5.0478   5.0731   5.1279
     5.2662   5.2969   5.3472   5.4268   5.4791   5.5490   5.5784   5.6097
     5.6298   5.6483   5.6707   5.7045   5.7228   5.7656   5.7747   5.8491
     5.9159   5.9350   5.9645   6.2114   6.3453   6.4223   6.5366   6.5414
     6.7641   7.0598   7.3381   7.4418   7.9207   8.1156   8.2797   8.4901
     9.1699   9.2719  10.0496  10.0710  10.8948  11.0528  12.0974

          k = 0.2529 0.4380 0.0000 ( 16380 PWs)   bands (ev):

   -95.5109 -95.5109 -95.5108 -95.4448 -95.4447 -95.4447 -55.9285 -55.9285
   -55.9284 -55.9266 -55.9266 -55.9265 -55.9150 -55.9150 -55.9044 -55.8711
   -55.8710 -55.8710 -55.8646 -55.8645 -55.8644 -55.8364 -55.8258 -55.8258
     0.9908   1.8154   1.8396   2.7422   2.8879   3.4976   3.5237   3.5918
     3.6170   4.1108   4.1316   4.8433   4.9564   5.0435   5.0765   5.1612
     5.1871   5.2368   5.3990   5.4105   5.4808   5.5452   5.5471   5.6064
     5.6737   5.6879   5.7023   5.7117   5.7281   5.8237   5.8262   5.8598
     5.8938   5.8972   6.1706   6.1795   6.2815   6.3997   6.4426   6.5709
     6.5975   7.2154   7.2580   7.3088   7.5158   8.8702   9.0654   9.3296
     9.4914   9.6259   9.8615  10.0893  10.6034  10.7431  11.0421

          k = 0.2529 0.4380 0.0997 ( 16361 PWs)   bands (ev):

   -95.5109 -95.5109 -95.5108 -95.4448 -95.4447 -95.4447 -55.9285 -55.9285
   -55.9284 -55.9266 -55.9266 -55.9265 -55.9150 -55.9150 -55.9044 -55.8711
   -55.8710 -55.8710 -55.8646 -55.8645 -55.8644 -55.8364 -55.8258 -55.8258
     1.0445   1.4683   2.2593   2.7899   2.9351   3.1950   3.3018   3.5330
     3.9198   3.9606   4.5009   4.6762   4.8797   5.0916   5.1030   5.1672
     5.1845   5.2397   5.3879   5.4215   5.4866   5.5423   5.5543   5.6142
     5.6450   5.6779   5.6968   5.7189   5.7429   5.8238   5.8368   5.8518
     5.8715   5.9418   6.1612   6.1870   6.2784   6.4040   6.4691   6.4995
     6.8026   6.8251   6.9972   7.7223   8.0108   8.5194   8.9528   9.2930
     9.5417   9.6042   9.8874  10.1190  10.1582  10.2722  11.1564

          k = 0.2529 0.4380-0.1993 ( 16354 PWs)   bands (ev):

   -95.5109 -95.5109 -95.5108 -95.4448 -95.4447 -95.4447 -55.9285 -55.9285
   -55.9284 -55.9266 -55.9266 -55.9265 -55.9150 -55.9150 -55.9044 -55.8711
   -55.8710 -55.8710 -55.8646 -55.8645 -55.8644 -55.8364 -55.8258 -55.8258
     1.1964   1.2131   2.5809   2.8906   3.0051   3.0602   3.1126   3.1388
     4.2762   4.2905   4.3568   4.3607   4.9820   5.0629   5.1260   5.1489
     5.2049   5.2415   5.3843   5.4271   5.4833   5.5449   5.5808   5.5861
     5.6380   5.6700   5.6905   5.7274   5.7506   5.8238   5.8418   5.8510
     5.8606   5.9726   6.1544   6.1915   6.2746   6.4080   6.5008   6.5074
     6.6649   6.7536   7.3536   7.3597   8.5734   8.7827   8.9075   9.0195
     9.1176   9.5274   9.6598   9.8080  10.2189  10.3757  11.5771

          k = 0.2529 0.5840 0.0000 ( 16380 PWs)   bands (ev):

   -95.5109 -95.5108 -95.5108 -95.4448 -95.4448 -95.4447 -55.9286 -55.9285
   -55.9285 -55.9266 -55.9266 -55.9265 -55.9150 -55.9078 -55.9078 -55.8711
   -55.8711 -55.8710 -55.8646 -55.8645 -55.8644 -55.8330 -55.8330 -55.8258
     1.6852   1.8920   2.4491   2.5840   2.5917   2.7948   2.8147   3.4701
     3.4829   4.4340   4.4750   4.6635   4.8353   4.9482   5.0997   5.1785
     5.2365   5.3249   5.3348   5.4166   5.4210   5.5255   5.5264   5.6100
     5.6589   5.6922   5.7007   5.7118   5.7608   5.8005   5.8033   5.8604
     5.8770   5.9396   5.9575   6.1464   6.3103   6.3460   6.3921   6.7039
     6.7184   6.7839   6.9557   7.1912   7.4071   9.0757   9.4384   9.6245
     9.8613  10.2541  10.2750  10.5003  10.6800  10.7821  10.9101

          k = 0.2529 0.5840 0.0997 ( 16361 PWs)   bands (ev):

   -95.5109 -95.5108 -95.5108 -95.4448 -95.4448 -95.4447 -55.9286 -55.9285
   -55.9285 -55.9266 -55.9266 -55.9265 -55.9150 -55.9078 -55.9078 -55.8711
   -55.8711 -55.8710 -55.8646 -55.8645 -55.8644 -55.8330 -55.8330 -55.8258
     1.7339   1.9363   2.1786   2.3595   2.7696   2.9731   3.1172   3.2068
     3.8483   4.1190   4.1367   4.6105   4.9867   5.0468   5.1647   5.1789
     5.2393   5.3298   5.3369   5.3860   5.4076   5.5133   5.5484   5.5757
     5.6500   5.6997   5.7108   5.7339   5.7663   5.7860   5.8216   5.8544
     5.8812   5.9383   5.9560   6.1472   6.2829   6.3799   6.4181   6.5140
     6.5894   6.8525   7.1651   7.3430   7.8844   8.8610   9.1190   9.1718
     9.5511   9.9195  10.2537  10.6585  10.7531  10.8937  11.0348

          k = 0.2529 0.5840-0.1993 ( 16362 PWs)   bands (ev):

   -95.5109 -95.5108 -95.5108 -95.4448 -95.4448 -95.4447 -55.9286 -55.9285
   -55.9285 -55.9266 -55.9266 -55.9265 -55.9150 -55.9078 -55.9078 -55.8711
   -55.8711 -55.8710 -55.8646 -55.8645 -55.8644 -55.8330 -55.8330 -55.8258
     1.8290   1.9843   2.0186   2.1905   2.8953   2.9301   3.3075   3.5687
     3.7125   3.7644   4.2237   4.3058   5.0644   5.1722   5.1776   5.2158
     5.2407   5.3285   5.3385   5.3480   5.3851   5.5282   5.5358   5.5550
     5.6493   5.6999   5.7107   5.7552   5.7723   5.7840   5.8287   5.8517
     5.8833   5.9365   5.9545   6.1481   6.2673   6.4195   6.4527   6.4681
     6.4947   6.6869   7.6424   7.7546   8.0916   8.3977   8.8434   8.9800
     9.2199   9.6042  10.5341  10.6170  10.7145  10.9560  10.9584

     the Fermi energy is     7.1730 ev

!    total energy              =   -2463.74054020 Ry
     estimated scf accuracy    <          2.5E-11 Ry
     smearing contrib. (-TS)   =       0.00071738 Ry
     internal energy E=F+TS    =   -2463.74125758 Ry

     The total energy is F=E-TS. E is the sum of the following terms:
     one-electron contribution =   -2153.71577938 Ry
     hartree contribution      =    1118.60639259 Ry
     xc contribution           =    -233.33986682 Ry
     ewald contribution        =    -819.11898071 Ry
     DFT-D3 Dispersion         =      -0.43952468 Ry
     one-center paw contrib.   =    -375.73349858 Ry

     convergence has been achieved in  14 iterations

     Forces acting on atoms (cartesian axes, Ry/au):

     atom    1 type  1   force =     0.00100125   -0.00057807   -0.00000000
     atom    2 type  1   force =    -0.00000000    0.00115614    0.00000000
     atom    3 type  1   force =    -0.00100125    0.00057807    0.00000000
     atom    4 type  1   force =     0.00000000   -0.00115614    0.00000000
     atom    5 type  1   force =    -0.00100125   -0.00057807    0.00000000
     atom    6 type  1   force =     0.00100125    0.00057807    0.00000000
     atom    7 type  1   force =     0.00000000    0.00000000    0.00235940
     atom    8 type  1   force =     0.00000000    0.00000000   -0.00235940
     atom    9 type  1   force =     0.00000000    0.00000000   -0.00235940
     atom   10 type  1   force =     0.00000000    0.00000000    0.00235940
     atom   11 type  1   force =     0.00000000    0.00000000   -0.00235940
     atom   12 type  1   force =     0.00000000    0.00000000    0.00235940
     atom   13 type  2   force =     0.00000000    0.00000000    0.00000000
     atom   14 type  2   force =     0.00000000    0.00000000    0.00000000
     atom   15 type  2   force =     0.00000000    0.00000000    0.00000000
     atom   16 type  2   force =    -0.00000000   -0.00000000   -0.00000000
     atom   17 type  2   force =     0.00000000    0.00000000   -0.00000000
     atom   18 type  2   force =     0.00000000    0.00000000    0.00000000

     Total force =     0.006436     Total SCF correction =     0.000000


     Computing stress (Cartesian axis) and pressure

          total   stress  (Ry/bohr**3)                   (kbar)     P=       -4.18
  -0.00002470   0.00000000   0.00000000           -3.63        0.00        0.00
   0.00000000  -0.00002470   0.00000000            0.00       -3.63        0.00
   0.00000000   0.00000000  -0.00003582            0.00        0.00       -5.27

     Energy error            =      3.5E-03 Ry
     Gradient error          =      2.4E-03 Ry/Bohr
     Cell gradient error     =      5.3E+00 kbar

     number of scf cycles    =   3
     number of bfgs steps    =   2

     enthalpy           old  =   -2463.7370593776 Ry
     enthalpy           new  =   -2463.7405402003 Ry

     CASE: enthalpy          _new < enthalpy          _old

     new trust radius        =       0.0218611262 bohr
     new conv_thr            =       0.0000000002 Ry

     new unit-cell volume =   1998.52187 a.u.^3 (   296.15039 Ang^3 )
     density =      3.60995 g/cm^3

CELL_PARAMETERS (angstrom)
   5.127988867   0.000000000   0.000000000
  -2.563994433   4.440968629   0.000000000
   0.000000000   0.000000000  13.004316349

ATOMIC_POSITIONS (angstrom)
Mg              -1.2984181269        3.7102878078       10.8369302906
Mg               0.0000000000        1.4613616425        6.5021581743
Mg               3.8624125604        0.7306808213       10.8369302906
Mg               2.5639944334        2.9796069866        6.5021581743
Mg               1.2984181269        3.7102878078        2.1673860581
Mg               1.2655763065        0.7306808213        2.1673860581
Mg               1.2819972168        2.2204843145        9.3322639915
Mg               2.5639944334        0.0000000000        8.0068244735
Mg               1.2819972168        2.2204843145       12.3415965897
Mg               2.5639944334        0.0000000000        4.9974918753
Mg               3.8459916502        2.2204843145        3.6720523573
Mg               3.8459916502        2.2204843145        0.6627197591
Ni               1.2819972168        2.2204843145        4.3347721162
Ni               2.5639944334        0.0000000000       -0.0000000000
Ni               3.8459916502        2.2204843145        8.6695442325
Ni               0.0000000000        0.0000000000        4.3347721162
Ni               0.0000000000        0.0000000000       -0.0000000000
Ni               0.0000000000        0.0000000000        8.6695442325



     Writing config-only to output data dir ./outdir/mg2ni.save/ :
     XML data file
     NEW-OLD atomic charge density approx. for the potential
     New effective cutoffs (rho, wfc):  494.48   61.84

     Check: negative core charge=   -0.000001

     total cpu time spent up to now is      229.8 secs

     Self-consistent Calculation

     iteration #  1     ecut=    60.00 Ry     beta= 0.30
     Davidson diagonalization with overlap
     ethr =  1.00E-06,  avg # of iterations =  3.2

     total cpu time spent up to now is      234.4 secs

     total energy              =   -2463.73956268 Ry
     estimated scf accuracy    <       0.00308215 Ry

     iteration #  2     ecut=    60.00 Ry     beta= 0.30
     Davidson diagonalization with overlap
     ethr =  2.33E-06,  avg # of iterations =  3.1

     total cpu time spent up to now is      238.2 secs

     total energy              =   -2463.73947853 Ry
     estimated scf accuracy    <       0.01686999 Ry

     iteration #  3     ecut=    60.00 Ry     beta= 0.30
     Davidson diagonalization with overlap
     ethr =  2.33E-06,  avg # of iterations =  3.0

     total cpu time spent up to now is      241.7 secs

     total energy              =   -2463.74075975 Ry
     estimated scf accuracy    <       0.00004789 Ry

     iteration #  4     ecut=    60.00 Ry     beta= 0.30
     Davidson diagonalization with overlap
     ethr =  3.63E-08,  avg # of iterations =  3.0

     total cpu time spent up to now is      245.1 secs

     total energy              =   -2463.74076581 Ry
     estimated scf accuracy    <       0.00007922 Ry

     iteration #  5     ecut=    60.00 Ry     beta= 0.30
     Davidson diagonalization with overlap
     ethr =  3.63E-08,  avg # of iterations =  1.6

     total cpu time spent up to now is      248.1 secs

     total energy              =   -2463.74076990 Ry
     estimated scf accuracy    <       0.00000115 Ry

     iteration #  6     ecut=    60.00 Ry     beta= 0.30
     Davidson diagonalization with overlap
     ethr =  8.75E-10,  avg # of iterations =  4.0

     total cpu time spent up to now is      252.3 secs

     total energy              =   -2463.74077020 Ry
     estimated scf accuracy    <       0.00000111 Ry

     iteration #  7     ecut=    60.00 Ry     beta= 0.30
     Davidson diagonalization with overlap
     ethr =  8.43E-10,  avg # of iterations =  1.0

     total cpu time spent up to now is      254.7 secs

     total energy              =   -2463.74077025 Ry
     estimated scf accuracy    <       0.00000006 Ry

     iteration #  8     ecut=    60.00 Ry     beta= 0.30
     Davidson diagonalization with overlap
     ethr =  4.22E-11,  avg # of iterations =  4.1

     total cpu time spent up to now is      259.5 secs

     total energy              =   -2463.74077029 Ry
     estimated scf accuracy    <       0.00000004 Ry

     iteration #  9     ecut=    60.00 Ry     beta= 0.30
     Davidson diagonalization with overlap
     ethr =  2.97E-11,  avg # of iterations =  1.0

     total cpu time spent up to now is      261.8 secs

     total energy              =   -2463.74077029 Ry
     estimated scf accuracy    <          1.3E-09 Ry

     iteration # 10     ecut=    60.00 Ry     beta= 0.30
     Davidson diagonalization with overlap
     ethr =  9.52E-13,  avg # of iterations =  3.0

     total cpu time spent up to now is      265.5 secs

     total energy              =   -2463.74077029 Ry
     estimated scf accuracy    <          1.3E-09 Ry

     iteration # 11     ecut=    60.00 Ry     beta= 0.30
     Davidson diagonalization with overlap
     ethr =  9.52E-13,  avg # of iterations =  1.1

     total cpu time spent up to now is      267.9 secs

     total energy              =   -2463.74077029 Ry
     estimated scf accuracy    <          6.1E-10 Ry

     iteration # 12     ecut=    60.00 Ry     beta= 0.30
     Davidson diagonalization with overlap
     ethr =  4.63E-13,  avg # of iterations =  1.8

     total cpu time spent up to now is      270.7 secs

     End of self-consistent calculation

          k = 0.0000 0.0000 0.0000 ( 16309 PWs)   bands (ev):

   -95.4560 -95.4560 -95.4560 -95.3885 -95.3885 -95.3885 -55.8736 -55.8736
   -55.8736 -55.8722 -55.8722 -55.8721 -55.8689 -55.8689 -55.8688 -55.8149
   -55.8149 -55.8149 -55.8085 -55.8085 -55.8085 -55.7606 -55.7606 -55.7606
    -0.4009   0.4756   0.4756   3.0880   3.0880   4.6956   4.6956   4.7659
     4.7772   4.8379   4.8379   4.8522   4.9085   4.9770   4.9770   5.4332
     5.4785   5.5000   5.5000   5.5514   5.5514   5.7910   5.7910   5.8363
     5.8363   5.9231   6.0488   6.0542   6.0542   6.6282   6.6282   6.6302
     6.6313   6.6313   6.6313   6.8509   6.8626   6.8626   7.1411   7.5403
     7.6431   7.6431   7.8692   7.8692   7.9219   8.3181   8.5287   8.5287
     8.6007   8.7903   8.7903   8.9738   9.6495   9.6495  10.5289

          k = 0.0000 0.0000 0.0999 ( 16316 PWs)   bands (ev):

   -95.4560 -95.4560 -95.4560 -95.3885 -95.3885 -95.3885 -55.8736 -55.8736
   -55.8736 -55.8722 -55.8722 -55.8721 -55.8689 -55.8689 -55.8688 -55.8149
   -55.8149 -55.8149 -55.8086 -55.8085 -55.8085 -55.7606 -55.7606 -55.7606
    -0.3448   0.0985   0.9296   2.3894   3.8171   4.7028   4.7051   4.7174
     4.7558   4.8117   4.8403   4.8512   4.9129   4.9488   5.0027   5.4458
     5.4767   5.4878   5.4883   5.4988   5.6278   5.7293   5.8329   5.8403
     5.9028   5.9221   6.0492   6.0522   6.0567   6.6277   6.6289   6.6300
     6.6311   6.6312   6.6313   6.6674   6.9231   6.9239   6.9352   7.3751
     7.4115   7.4255   8.0137   8.0425   8.1291   8.4856   8.5524   8.5553
     8.7400   8.7561   8.8346   9.0518   9.6233   9.6375  10.2704

          k = 0.0000 0.0000-0.1998 ( 16334 PWs)   bands (ev):

   -95.4560 -95.4560 -95.4560 -95.3885 -95.3885 -95.3885 -55.8736 -55.8736
   -55.8736 -55.8722 -55.8721 -55.8721 -55.8689 -55.8688 -55.8688 -55.8149
   -55.8149 -55.8149 -55.8086 -55.8085 -55.8085 -55.7606 -55.7606 -55.7606
    -0.1774  -0.1774   1.2615   1.9718   4.4157   4.4157   4.7120   4.7287
     4.7287   4.7951   4.8473   4.8473   4.9263   4.9263   5.0135   5.4535
     5.4751   5.4751   5.4808   5.5336   5.5336   5.8292   5.8640   5.8640
     5.9758   6.0468   6.0468   6.0591   6.0651   6.0651   6.6275   6.6295
     6.6295   6.6312   6.6313   6.6313   7.0331   7.0901   7.0901   7.1612
     7.1612   7.2413   8.1218   8.1218   8.2855   8.4613   8.5651   8.5651
     8.7451   8.8564   8.8564   9.4247   9.4247   9.6327  10.0423

          k =-0.0000 0.1463 0.0000 ( 16313 PWs)   bands (ev):

   -95.4560 -95.4559 -95.4559 -95.3886 -95.3886 -95.3885 -55.8736 -55.8736
   -55.8736 -55.8722 -55.8721 -55.8721 -55.8689 -55.8665 -55.8664 -55.8149
   -55.8149 -55.8149 -55.8086 -55.8086 -55.8085 -55.7631 -55.7631 -55.7606
    -0.2789   0.5949   0.5965   3.1866   3.1891   4.5127   4.6823   4.7111
     4.7511   4.7980   4.8518   4.8614   4.9425   4.9543   4.9879   5.2725
     5.3193   5.4288   5.4764   5.5217   5.5228   5.7036   5.7588   5.8068
     5.8375   5.9176   5.9260   5.9707   5.9880   6.4064   6.4319   6.4756
     6.4927   6.5965   6.6291   6.6307   6.8005   6.9232   7.0096   7.0156
     7.3575   7.4314   7.4823   7.6756   7.9117   8.5988   8.7265   8.7993
     8.9018   9.0584   9.0655   9.5163   9.6716   9.9805  10.4380

          k =-0.0000 0.1463 0.0999 ( 16313 PWs)   bands (ev):

   -95.4560 -95.4559 -95.4559 -95.3886 -95.3886 -95.3885 -55.8736 -55.8736
   -55.8736 -55.8722 -55.8721 -55.8721 -55.8689 -55.8665 -55.8665 -55.8149
   -55.8149 -55.8149 -55.8086 -55.8086 -55.8085 -55.7631 -55.7631 -55.7606
    -0.2230   0.2193   1.0494   2.4947   3.9040   4.5329   4.6485   4.7194
     4.7409   4.7957   4.8112   4.8527   4.9348   4.9375   5.0168   5.2405
     5.3188   5.4033   5.4727   5.5091   5.5720   5.7141   5.7908   5.8275
     5.8524   5.9107   5.9332   5.9742   5.9902   6.3854   6.4187   6.4442
     6.5217   6.6033   6.6291   6.6307   6.7858   6.8452   6.9442   7.0271
     7.1429   7.3091   7.4488   7.8700   8.0585   8.3063   8.7130   8.8792
     8.9594   9.1060   9.2959   9.4514   9.7141   9.9951  10.4252

          k =-0.0000 0.1463-0.1998 ( 16334 PWs)   bands (ev):

   -95.4560 -95.4559 -95.4559 -95.3886 -95.3886 -95.3885 -55.8736 -55.8736
   -55.8736 -55.8722 -55.8721 -55.8721 -55.8689 -55.8665 -55.8664 -55.8149
   -55.8149 -55.8149 -55.8086 -55.8085 -55.8085 -55.7631 -55.7631 -55.7606
    -0.0565  -0.0553   1.3833   2.0766   4.4708   4.4823   4.5780   4.5989
     4.7502   4.7531   4.8284   4.8371   4.9254   4.9291   5.0387   5.2086
     5.3161   5.3874   5.4698   5.5083   5.5631   5.7823   5.8135   5.8641
     5.9109   5.9452   5.9719   5.9788   6.0048   6.0871   6.4307   6.4372
     6.5526   6.6141   6.6290   6.6307   6.7055   6.7357   6.9649   6.9775
     7.0920   7.2604   7.5293   8.0087   8.0310   8.2686   8.4942   8.8252
     9.0544   9.2581   9.2852   9.5863   9.7198  10.0527  10.5990

          k =-0.0000 0.2926 0.0000 ( 16389 PWs)   bands (ev):

   -95.4560 -95.4559 -95.4558 -95.3886 -95.3886 -95.3885 -55.8737 -55.8735
   -55.8735 -55.8722 -55.8721 -55.8720 -55.8689 -55.8602 -55.8601 -55.8150
   -55.8150 -55.8149 -55.8087 -55.8086 -55.8085 -55.7694 -55.7694 -55.7606
     0.0844   0.9485   0.9562   3.4653   3.4834   3.6477   4.2392   4.2667
     4.6937   4.7413   4.8510   4.9168   4.9236   4.9485   5.0331   5.1353
     5.1729   5.2213   5.4479   5.4855   5.5105   5.5802   5.6546   5.7585
     5.7939   5.8145   5.8910   5.8940   5.9342   6.0339   6.0726   6.1047
     6.2326   6.3655   6.3930   6.5177   6.5796   6.6292   6.6299   6.9941
     7.0777   7.2541   7.4680   7.6718   7.9449   8.0852   8.3147   9.0054
     9.0500   9.3524   9.5079   9.9603  10.2699  10.3162  11.0130

          k =-0.0000 0.2926 0.0999 ( 16367 PWs)   bands (ev):

   -95.4560 -95.4559 -95.4558 -95.3886 -95.3886 -95.3885 -55.8737 -55.8735
   -55.8735 -55.8722 -55.8721 -55.8720 -55.8689 -55.8602 -55.8601 -55.8150
   -55.8150 -55.8149 -55.8087 -55.8086 -55.8085 -55.7694 -55.7694 -55.7606
     0.1399   0.5787   1.4043   2.8043   3.6879   3.9996   4.1532   4.4828
     4.7141   4.7442   4.8481   4.8879   4.8982   4.9375   5.0186   5.1036
     5.1722   5.2316   5.4103   5.4941   5.5361   5.6196   5.6624   5.7667
     5.7951   5.8145   5.8557   5.9233   5.9333   6.0409   6.0851   6.1074
     6.2087   6.3622   6.4008   6.5472   6.5893   6.6292   6.6300   6.9441
     6.9917   7.2951   7.3276   7.5407   7.6842   8.1203   8.6595   8.8490
     8.9734   9.6081   9.7075  10.0759  10.2989  10.5102  10.7950

          k =-0.0000 0.2926-0.1998 ( 16360 PWs)   bands (ev):

   -95.4560 -95.4559 -95.4558 -95.3886 -95.3886 -95.3885 -55.8737 -55.8735
   -55.8735 -55.8722 -55.8721 -55.8720 -55.8689 -55.8602 -55.8601 -55.8150
   -55.8150 -55.8149 -55.8087 -55.8086 -55.8085 -55.7694 -55.7694 -55.7606
     0.3027   0.3085   1.7433   2.3866   3.8110   3.8142   4.5348   4.6095
     4.7088   4.7714   4.8085   4.8271   4.8627   4.9265   4.9937   5.0669
     5.1683   5.2458   5.3787   5.5096   5.5524   5.6403   5.7244   5.7757
     5.8043   5.8157   5.8282   5.9014   5.9514   6.0318   6.0963   6.1247
     6.1696   6.3594   6.4113   6.5901   6.6140   6.6292   6.6302   6.8514
     6.9609   7.0501   7.2465   7.4418   7.8247   8.2091   8.3984   8.7714
     9.5398   9.6639   9.8006  10.0859  10.0889  10.4149  11.2319

          k =-0.0000 0.4389 0.0000 ( 16379 PWs)   bands (ev):

   -95.4560 -95.4558 -95.4558 -95.3887 -95.3887 -95.3885 -55.8737 -55.8735
   -55.8734 -55.8722 -55.8720 -55.8719 -55.8689 -55.8528 -55.8528 -55.8151
   -55.8151 -55.8149 -55.8088 -55.8087 -55.8085 -55.7768 -55.7768 -55.7606
     0.6785   1.5152   1.5453   2.5443   3.3018   3.3033   3.9276   3.9360
     4.5408   4.6966   4.7876   4.8778   4.9361   5.0207   5.0470   5.1539
     5.1894   5.2613   5.3842   5.4978   5.5072   5.5460   5.5906   5.7053
     5.7079   5.7232   5.7646   5.8162   5.8356   5.8431   5.8792   5.9768
     6.0220   6.0268   6.0872   6.3084   6.4806   6.6280   6.6292   6.8504
     6.8912   7.1300   7.1802   7.3315   7.3924   8.1465   8.5596   8.9938
     9.3153   9.3744   9.6223  10.2596  10.8229  11.0294  11.2407

          k =-0.0000 0.4389 0.0999 ( 16368 PWs)   bands (ev):

   -95.4560 -95.4558 -95.4558 -95.3887 -95.3887 -95.3885 -55.8737 -55.8735
   -55.8734 -55.8722 -55.8720 -55.8719 -55.8689 -55.8528 -55.8528 -55.8151
   -55.8151 -55.8149 -55.8088 -55.8087 -55.8085 -55.7768 -55.7768 -55.7606
     0.7330   1.1642   1.9713   2.5963   2.9783   3.2998   3.7167   4.3749
     4.5661   4.6816   4.7581   4.8330   4.8892   5.0022   5.0656   5.1465
     5.2176   5.2849   5.4001   5.4758   5.5010   5.5698   5.6181   5.6797
     5.7147   5.7343   5.7518   5.8197   5.8236   5.8437   5.8957   5.9782
     6.0228   6.0291   6.0713   6.3078   6.5286   6.6280   6.6292   6.7292
     6.8687   7.0645   7.2608   7.4822   7.6312   8.0963   8.2778   8.6693
     8.8967   9.5573  10.0297  10.4917  10.7064  11.1297  11.3767

          k =-0.0000 0.4389-0.1998 ( 16370 PWs)   bands (ev):

   -95.4560 -95.4558 -95.4558 -95.3887 -95.3887 -95.3885 -55.8737 -55.8735
   -55.8734 -55.8722 -55.8720 -55.8719 -55.8689 -55.8528 -55.8528 -55.8151
   -55.8151 -55.8149 -55.8088 -55.8087 -55.8085 -55.7768 -55.7768 -55.7606
     0.8860   0.9062   2.3000   2.7222   2.7859   2.8851   4.0557   4.2120
     4.5991   4.6819   4.7776   4.8826   4.9428   4.9471   5.0470   5.1199
     5.2698   5.2931   5.3942   5.4669   5.4894   5.6138   5.6384   5.6450
     5.7246   5.7410   5.7600   5.7776   5.8294   5.8470   5.9154   5.9790
     6.0255   6.0399   6.0422   6.3044   6.5441   6.6280   6.6292   6.6985
     6.8698   7.2202   7.2272   7.4452   7.6744   7.9942   8.4409   8.6428
     8.7314   8.8917  10.5489  10.8116  10.9651  11.0626  11.6309

          k = 0.0000-0.5852 0.0000 ( 16352 PWs)   bands (ev):

   -95.4560 -95.4557 -95.4557 -95.3887 -95.3887 -95.3885 -55.8737 -55.8734
   -55.8734 -55.8721 -55.8719 -55.8719 -55.8689 -55.8493 -55.8493 -55.8152
   -55.8152 -55.8149 -55.8088 -55.8087 -55.8085 -55.7804 -55.7804 -55.7606
     1.3793   1.6029   2.1833   2.3285   2.3590   2.5421   4.2583   4.3184
     4.4740   4.6830   4.6980   4.7125   4.7965   5.0171   5.0864   5.0974
     5.2438   5.2864   5.3861   5.5468   5.5471   5.6215   5.6518   5.6634
     5.7110   5.7141   5.7157   5.7253   5.7381   5.7382   5.7598   5.7739
     5.8704   6.0041   6.0774   6.1920   6.5907   6.6269   6.6273   6.6294
     6.7426   7.0331   7.0739   7.1792   7.3408   8.1558   8.7481   9.1153
     9.3716   9.4953   9.5462  10.2870  10.5056  10.6815  12.1572

          k = 0.0000-0.5852 0.0999 ( 16378 PWs)   bands (ev):

   -95.4560 -95.4557 -95.4557 -95.3887 -95.3887 -95.3885 -55.8737 -55.8734
   -55.8734 -55.8721 -55.8719 -55.8719 -55.8689 -55.8493 -55.8493 -55.8152
   -55.8152 -55.8149 -55.8088 -55.8087 -55.8085 -55.7804 -55.7804 -55.7606
     1.4262   1.6483   1.8981   2.0973   2.6923   2.8942   3.9165   3.9476
     4.4928   4.6597   4.8104   4.8139   4.9399   5.0191   5.0971   5.1503
     5.2262   5.3584   5.4518   5.5066   5.5135   5.6023   5.6638   5.6661
     5.6879   5.6933   5.7159   5.7247   5.7479   5.7495   5.7655   5.7821
     5.8932   6.0038   6.0309   6.1915   6.4899   6.6270   6.6292   6.6545
     6.8542   7.1324   7.2357   7.2416   7.5079   8.0702   8.4988   8.7948
     8.8082   8.9989  10.0602  10.5225  11.2222  11.3485  12.0414

          k = 0.0000-0.5852-0.1998 ( 16368 PWs)   bands (ev):

   -95.4560 -95.4557 -95.4557 -95.3887 -95.3887 -95.3885 -55.8737 -55.8734
   -55.8734 -55.8721 -55.8719 -55.8719 -55.8689 -55.8493 -55.8493 -55.8152
   -55.8152 -55.8149 -55.8088 -55.8087 -55.8085 -55.7804 -55.7804 -55.7606
     1.5103   1.7132   1.7307   1.9185   3.0121   3.3142   3.4943   3.5674
     4.5207   4.6397   4.7690   4.8993   4.9733   5.0376   5.0969   5.2374
     5.3319   5.3902   5.4198   5.4986   5.5395   5.5579   5.6524   5.6578
     5.6799   5.6844   5.7164   5.7223   5.7500   5.7522   5.7688   5.8040
     5.9361   5.9648   6.0035   6.1898   6.4467   6.6268   6.6292   6.6522
     6.8520   7.3605   7.4837   7.5108   7.6304   7.9215   8.0731   8.4951
     8.5525   8.5992  10.5956  11.0750  11.1950  11.4640  12.1631

          k = 0.1267 0.2194 0.0000 ( 16312 PWs)   bands (ev):

   -95.4559 -95.4559 -95.4559 -95.3886 -95.3886 -95.3886 -55.8736 -55.8736
   -55.8735 -55.8721 -55.8721 -55.8720 -55.8665 -55.8665 -55.8602 -55.8150
   -55.8149 -55.8149 -55.8087 -55.8086 -55.8085 -55.7694 -55.7631 -55.7631
    -0.0362   0.8319   0.8364   3.3789   3.3862   4.2135   4.2143   4.5487
     4.5947   4.6756   4.7746   4.9029   4.9753   4.9867   5.0188   5.1075
     5.1481   5.2614   5.4351   5.4938   5.5679   5.6088   5.6507   5.7897
     5.8372   5.8532   5.8853   5.9077   5.9609   6.1387   6.1738   6.1762
     6.2891   6.4154   6.5266   6.5760   6.5948   6.6487   6.7530   6.7645
     6.8069   7.5198   7.6906   8.2207   8.2916   8.4693   8.5688   8.6599
     8.6732   8.8415   9.2511   9.3898   9.9721  10.8163  10.9404

          k = 0.1267 0.2194 0.0999 ( 16346 PWs)   bands (ev):

   -95.4559 -95.4559 -95.4559 -95.3886 -95.3886 -95.3886 -55.8736 -55.8736
   -55.8735 -55.8721 -55.8721 -55.8720 -55.8665 -55.8665 -55.8602 -55.8150
   -55.8149 -55.8149 -55.8087 -55.8086 -55.8085 -55.7694 -55.7631 -55.7631
     0.0194   0.4595   1.2869   2.7025   4.0671   4.2448   4.2493   4.4635
     4.4931   4.7346   4.8174   4.8836   4.9447   4.9907   5.0185   5.1171
     5.1329   5.2627   5.4179   5.5167   5.5570   5.6361   5.6813   5.8000
     5.8337   5.8444   5.8972   5.9049   5.9657   6.1307   6.1551   6.1984
     6.2784   6.4169   6.5128   6.5718   6.6047   6.6499   6.6716   6.8157
     6.9947   7.2199   7.5746   7.9209   8.0407   8.1158   8.6676   8.9071
     9.1317   9.1752   9.3795   9.5837  10.1825  10.6866  10.8481

          k = 0.1267 0.2194-0.1998 ( 16360 PWs)   bands (ev):

   -95.4559 -95.4559 -95.4559 -95.3886 -95.3886 -95.3886 -55.8736 -55.8736
   -55.8735 -55.8721 -55.8721 -55.8720 -55.8665 -55.8665 -55.8602 -55.8150
   -55.8149 -55.8149 -55.8087 -55.8086 -55.8085 -55.7694 -55.7631 -55.7631
     0.1839   0.1874   1.6245   2.2841   4.3065   4.3386   4.3452   4.3793
     4.5728   4.6036   4.8455   4.8647   4.9214   4.9673   5.0464   5.0782
     5.1626   5.2438   5.4101   5.5243   5.5616   5.6695   5.7481   5.7758
     5.8301   5.8748   5.8828   5.9198   5.9740   6.0863   6.1605   6.1819
     6.2793   6.4197   6.4972   6.5687   6.6146   6.6375   6.7269   6.8144
     6.9123   7.1815   7.5065   7.6679   7.9087   7.9401   8.7717   9.0356
     9.2140   9.2624   9.8962  10.0196  10.2598  10.2615  10.6682

          k = 0.1267 0.3657 0.0000 ( 16370 PWs)   bands (ev):

   -95.4559 -95.4558 -95.4558 -95.3887 -95.3886 -95.3886 -55.8736 -55.8735
   -55.8734 -55.8721 -55.8720 -55.8719 -55.8665 -55.8602 -55.8528 -55.8151
   -55.8150 -55.8150 -55.8087 -55.8086 -55.8086 -55.7768 -55.7694 -55.7631
     0.4432   1.2965   1.3098   3.1631   3.7049   3.7532   3.8748   3.9074
     3.9308   4.4596   4.5062   4.9608   4.9809   5.0060   5.0805   5.1569
     5.2391   5.2583   5.4185   5.4653   5.5121   5.5326   5.6249   5.7358
     5.7752   5.7888   5.8373   5.8516   5.8778   5.9041   5.9263   5.9583
     6.0536   6.0889   6.3015   6.3771   6.4931   6.5454   6.5959   6.6187
     6.7209   7.4536   7.5264   7.9125   8.0125   8.2339   8.5288   8.7582
     8.8625   9.3009   9.7153  10.0310  10.4361  11.1255  11.2110

          k = 0.1267 0.3657 0.0999 ( 16342 PWs)   bands (ev):

   -95.4559 -95.4558 -95.4558 -95.3887 -95.3886 -95.3886 -55.8736 -55.8735
   -55.8734 -55.8721 -55.8720 -55.8719 -55.8665 -55.8602 -55.8528 -55.8151
   -55.8150 -55.8150 -55.8087 -55.8086 -55.8086 -55.7768 -55.7694 -55.7631
     0.4982   0.9330   1.7518   3.0968   3.2179   3.5760   3.9628   4.1901
     4.2774   4.3539   4.6882   4.8698   4.9743   5.0187   5.0778   5.1408
     5.2218   5.2721   5.3609   5.4650   5.5363   5.5653   5.6346   5.7383
     5.7473   5.7889   5.8147   5.8635   5.8876   5.8981   5.9364   5.9640
     6.0591   6.1012   6.2964   6.3806   6.4871   6.5398   6.6113   6.6659
     6.8209   7.0706   7.4855   7.7324   7.9798   8.2856   8.4898   8.9503
     9.1592   9.5769   9.7346   9.9444  10.2665  10.7096  11.0697

          k = 0.1267 0.3657-0.1998 ( 16364 PWs)   bands (ev):

   -95.4559 -95.4558 -95.4558 -95.3887 -95.3886 -95.3886 -55.8736 -55.8735
   -55.8734 -55.8721 -55.8720 -55.8720 -55.8665 -55.8602 -55.8528 -55.8151
   -55.8150 -55.8150 -55.8087 -55.8086 -55.8086 -55.7768 -55.7694 -55.7631
     0.6575   0.6674   2.0940   2.6886   3.3411   3.3639   4.0743   4.0815
     4.4846   4.5326   4.7832   4.8444   4.9184   4.9932   5.0770   5.1152
     5.2132   5.2834   5.3255   5.4627   5.5423   5.6140   5.6564   5.6822
     5.7517   5.7943   5.8045   5.8412   5.8970   5.9205   5.9388   5.9665
     6.0637   6.1163   6.2909   6.3831   6.4847   6.5392   6.6251   6.7708
     6.9094   7.0215   7.1419   7.3824   8.0103   8.2228   9.0643   9.1755
     9.3541   9.3812   9.6983   9.8819  10.1491  10.2623  11.5856

          k = 0.1267 0.5120 0.0000 ( 16377 PWs)   bands (ev):

   -95.4559 -95.4558 -95.4557 -95.3887 -95.3887 -95.3885 -55.8737 -55.8735
   -55.8734 -55.8721 -55.8720 -55.8719 -55.8665 -55.8528 -55.8493 -55.8152
   -55.8151 -55.8150 -55.8088 -55.8087 -55.8086 -55.7804 -55.7768 -55.7631
     1.1400   1.8965   2.0027   2.1686   2.8853   2.9230   3.7571   4.2018
     4.2358   4.3546   4.3762   4.7964   4.8653   5.0268   5.1128   5.1650
     5.3207   5.3721   5.4038   5.4843   5.5416   5.5913   5.6435   5.6649
     5.6745   5.6880   5.7183   5.7646   5.7852   5.8028   5.8278   5.8738
     5.9687   5.9970   6.0428   6.2666   6.4708   6.5149   6.5812   6.6372
     6.6988   6.8927   7.0223   7.8148   7.8645   8.2837   8.5243   8.7961
     9.2329   9.8657  10.2639  10.6014  10.7540  10.9191  11.0505

          k = 0.1267 0.5120 0.0999 ( 16380 PWs)   bands (ev):

   -95.4559 -95.4558 -95.4557 -95.3887 -95.3887 -95.3885 -55.8737 -55.8735
   -55.8734 -55.8721 -55.8720 -55.8719 -55.8665 -55.8528 -55.8493 -55.8152
   -55.8151 -55.8150 -55.8088 -55.8087 -55.8086 -55.7804 -55.7768 -55.7631
     1.1931   1.6122   2.1354   2.4146   2.6012   3.3096   3.6900   3.7998
     4.1175   4.2838   4.6178   4.8236   4.9912   5.0535   5.1169   5.1682
     5.3153   5.3519   5.4216   5.4705   5.5338   5.6012   5.6390   5.6556
     5.6757   5.6938   5.7244   5.7584   5.7848   5.8094   5.8274   5.8854
     5.9684   5.9958   6.0307   6.2683   6.4189   6.5133   6.5945   6.6444
     6.7081   6.9445   7.3500   7.5054   8.0007   8.2475   8.4166   8.9244
     8.9906   9.5758   9.9643  10.6652  10.9160  11.1338  11.4360

          k = 0.1267 0.5120-0.1998 ( 16374 PWs)   bands (ev):

   -95.4559 -95.4558 -95.4557 -95.3887 -95.3887 -95.3885 -55.8737 -55.8735
   -55.8734 -55.8721 -55.8720 -55.8719 -55.8665 -55.8528 -55.8493 -55.8152
   -55.8151 -55.8150 -55.8088 -55.8087 -55.8086 -55.7804 -55.7768 -55.7631
     1.3325   1.3735   2.2826   2.2976   2.8223   3.2620   3.7027   3.9063
     3.9255   3.9538   4.7651   4.9304   4.9994   5.0969   5.1209   5.1774
     5.3159   5.3470   5.3978   5.4772   5.5297   5.6005   5.6293   5.6610
     5.6807   5.7002   5.7225   5.7566   5.7748   5.8181   5.8273   5.9030
     5.9696   5.9891   6.0184   6.2686   6.4024   6.4800   6.5955   6.6001
     6.8259   7.1218   7.4030   7.5071   7.9882   8.1841   8.3516   8.5621
     9.2400   9.3475  10.1272  10.1502  10.9704  11.1308  12.1809

          k = 0.2534 0.4389 0.0000 ( 16380 PWs)   bands (ev):

   -95.4558 -95.4558 -95.4557 -95.3887 -95.3886 -95.3886 -55.8736 -55.8736
   -55.8734 -55.8720 -55.8720 -55.8719 -55.8602 -55.8602 -55.8493 -55.8152
   -55.8151 -55.8151 -55.8088 -55.8087 -55.8086 -55.7804 -55.7694 -55.7694
     1.0300   1.8586   1.8829   2.7880   2.9326   3.5457   3.5723   3.6389
     3.6644   4.1602   4.1810   4.8910   5.0055   5.0923   5.1266   5.2107
     5.2357   5.2865   5.4489   5.4604   5.5312   5.5961   5.5982   5.6574
     5.7249   5.7403   5.7548   5.7635   5.7807   5.8769   5.8790   5.9125
     5.9485   5.9512   6.2262   6.2354   6.3384   6.4573   6.5006   6.6305
     6.6572   7.2787   7.3234   7.3734   7.5807   8.9396   9.1402   9.4012
     9.5628   9.6983   9.9376  10.1647  10.6887  10.8229  11.1228

          k = 0.2534 0.4389 0.0999 ( 16361 PWs)   bands (ev):

   -95.4558 -95.4558 -95.4557 -95.3887 -95.3886 -95.3886 -55.8736 -55.8736
   -55.8734 -55.8720 -55.8720 -55.8719 -55.8602 -55.8602 -55.8493 -55.8152
   -55.8151 -55.8151 -55.8088 -55.8087 -55.8086 -55.7804 -55.7694 -55.7694
     1.0839   1.5098   2.3048   2.8359   2.9800   3.2423   3.3481   3.5803
     3.9702   4.0088   4.5483   4.7252   4.9311   5.1397   5.1518   5.2157
     5.2338   5.2891   5.4378   5.4720   5.5371   5.5934   5.6055   5.6652
     5.6966   5.7297   5.7485   5.7713   5.7956   5.8770   5.8897   5.9047
     5.9255   5.9966   6.2168   6.2429   6.3352   6.4616   6.5276   6.5581
     6.8648   6.8864   7.0593   7.7885   8.0792   8.5916   9.0223   9.3634
     9.6153   9.6780   9.9628  10.1967  10.2373  10.3475  11.2441

          k = 0.2534 0.4389-0.1998 ( 16354 PWs)   bands (ev):

   -95.4558 -95.4558 -95.4557 -95.3887 -95.3886 -95.3886 -55.8736 -55.8736
   -55.8734 -55.8720 -55.8720 -55.8719 -55.8602 -55.8602 -55.8493 -55.8152
   -55.8151 -55.8151 -55.8088 -55.8087 -55.8086 -55.7804 -55.7694 -55.7694
     1.2367   1.2534   2.6288   2.9375   3.0515   3.1064   3.1586   3.1828
     4.3289   4.3416   4.4043   4.4058   5.0313   5.1134   5.1738   5.1967
     5.2537   5.2908   5.4346   5.4778   5.5338   5.5960   5.6321   5.6377
     5.6888   5.7220   5.7420   5.7798   5.8035   5.8769   5.8951   5.9036
     5.9144   6.0277   6.2099   6.2475   6.3314   6.4655   6.5596   6.5665
     6.7249   6.8139   7.4192   7.4255   8.6438   8.8541   8.9759   9.0935
     9.1886   9.6027   9.7342   9.8857  10.2962  10.4493  11.6622

          k = 0.2534 0.5852 0.0000 ( 16380 PWs)   bands (ev):

   -95.4558 -95.4558 -95.4558 -95.3887 -95.3887 -95.3886 -55.8736 -55.8735
   -55.8735 -55.8720 -55.8720 -55.8719 -55.8602 -55.8528 -55.8528 -55.8151
   -55.8151 -55.8151 -55.8087 -55.8087 -55.8086 -55.7768 -55.7768 -55.7694
     1.7278   1.9338   2.4946   2.6288   2.6389   2.8404   2.8591   3.5178
     3.5305   4.4821   4.5224   4.7129   4.8885   4.9982   5.1512   5.2264
     5.2855   5.3741   5.3841   5.4663   5.4706   5.5761   5.5770   5.6618
     5.7106   5.7445   5.7532   5.7639   5.8130   5.8541   5.8561   5.9142
     5.9299   5.9931   6.0115   6.2020   6.3672   6.4032   6.4496   6.7652
     6.7794   6.8456   7.0180   7.2550   7.4718   9.1460   9.5132   9.6980
     9.9358  10.3322  10.3517  10.5787  10.7563  10.8593  10.9907

          k = 0.2534 0.5852 0.0999 ( 16361 PWs)   bands (ev):

   -95.4558 -95.4558 -95.4558 -95.3887 -95.3887 -95.3886 -55.8736 -55.8735
   -55.8735 -55.8720 -55.8720 -55.8719 -55.8602 -55.8528 -55.8528 -55.8151
   -55.8151 -55.8151 -55.8088 -55.8087 -55.8086 -55.7768 -55.7768 -55.7694
     1.7766   1.9783   2.2234   2.4032   2.8148   3.0211   3.1635   3.2540
     3.8969   4.1686   4.1849   4.6590   5.0369   5.0974   5.2143   5.2270
     5.2887   5.3792   5.3863   5.4360   5.4574   5.5641   5.5988   5.6269
     5.7019   5.7521   5.7630   5.7866   5.8185   5.8387   5.8749   5.9080
     5.9343   5.9918   6.0099   6.2029   6.3394   6.4375   6.4761   6.5727
     6.6488   6.9142   7.2301   7.4076   7.9519   8.9347   9.1915   9.2439
     9.6245   9.9978  10.3305  10.7329  10.8287  10.9716  11.1122

          k = 0.2534 0.5852-0.1998 ( 16362 PWs)   bands (ev):

   -95.4558 -95.4558 -95.4558 -95.3887 -95.3887 -95.3886 -55.8736 -55.8735
   -55.8735 -55.8720 -55.8720 -55.8719 -55.8602 -55.8528 -55.8528 -55.8151
   -55.8151 -55.8151 -55.8088 -55.8087 -55.8086 -55.7768 -55.7768 -55.7694
     1.8723   2.0281   2.0611   2.2331   2.9411   2.9754   3.3582   3.6201
     3.7568   3.8120   4.2761   4.3522   5.1131   5.2206   5.2256   5.2661
     5.2906   5.3793   5.3879   5.3975   5.4351   5.5794   5.5864   5.6053
     5.7012   5.7524   5.7629   5.8082   5.8247   5.8364   5.8819   5.9055
     5.9365   5.9901   6.0082   6.2037   6.3237   6.4776   6.5110   6.5263
     6.5534   6.7467   7.7091   7.8210   8.1626   8.4695   8.9165   9.0515
     9.2909   9.6816  10.6121  10.6917  10.7886  11.0341  11.0359

     the Fermi energy is     7.2368 ev

!    total energy              =   -2463.74077029 Ry
     estimated scf accuracy    <          5.2E-11 Ry
     smearing contrib. (-TS)   =       0.00069609 Ry
     internal energy E=F+TS    =   -2463.74146638 Ry

     The total energy is F=E-TS. E is the sum of the following terms:
     one-electron contribution =   -2150.48727886 Ry
     hartree contribution      =    1117.28099960 Ry
     xc contribution           =    -233.38404223 Ry
     ewald contribution        =    -820.96607183 Ry
     DFT-D3 Dispersion         =      -0.44219879 Ry
     one-center paw contrib.   =    -375.74287427 Ry

     convergence has been achieved in  12 iterations

     Forces acting on atoms (cartesian axes, Ry/au):

     atom    1 type  1   force =     0.00102176   -0.00058991   -0.00000000
     atom    2 type  1   force =    -0.00000000    0.00117983    0.00000000
     atom    3 type  1   force =    -0.00102176    0.00058991    0.00000000
     atom    4 type  1   force =     0.00000000   -0.00117983   -0.00000000
     atom    5 type  1   force =    -0.00102176   -0.00058991    0.00000000
     atom    6 type  1   force =     0.00102176    0.00058991   -0.00000000
     atom    7 type  1   force =     0.00000000    0.00000000    0.00237591
     atom    8 type  1   force =     0.00000000    0.00000000   -0.00237591
     atom    9 type  1   force =     0.00000000    0.00000000   -0.00237591
     atom   10 type  1   force =     0.00000000    0.00000000    0.00237591
     atom   11 type  1   force =     0.00000000    0.00000000   -0.00237591
     atom   12 type  1   force =     0.00000000    0.00000000    0.00237591
     atom   13 type  2   force =    -0.00000000   -0.00000000    0.00000000
     atom   14 type  2   force =     0.00000000    0.00000000    0.00000000
     atom   15 type  2   force =     0.00000000    0.00000000    0.00000000
     atom   16 type  2   force =    -0.00000000   -0.00000000   -0.00000000
     atom   17 type  2   force =     0.00000000    0.00000000    0.00000000
     atom   18 type  2   force =    -0.00000000   -0.00000000    0.00000000

     Total force =     0.006498     Total SCF correction =     0.000001


     Computing stress (Cartesian axis) and pressure

          total   stress  (Ry/bohr**3)                   (kbar)     P=        0.36
   0.00000482  -0.00000000   0.00000000            0.71       -0.00        0.00
  -0.00000000   0.00000482   0.00000000           -0.00        0.71        0.00
   0.00000000   0.00000000  -0.00000236            0.00        0.00       -0.35

     Energy error            =      2.3E-04 Ry
     Gradient error          =      2.4E-03 Ry/Bohr
     Cell gradient error     =      7.1E-01 kbar

     number of scf cycles    =   4
     number of bfgs steps    =   3

     enthalpy           old  =   -2463.7405402003 Ry
     enthalpy           new  =   -2463.7407702918 Ry

     CASE: enthalpy          _new < enthalpy          _old

     new trust radius        =       0.0030419598 bohr
     new conv_thr            =       0.0000000002 Ry

     new unit-cell volume =   1997.45517 a.u.^3 (   295.99232 Ang^3 )
     density =      3.61188 g/cm^3

CELL_PARAMETERS (angstrom)
   5.127492486   0.000000000   0.000000000
  -2.563746243   4.440538751   0.000000000
   0.000000000   0.000000000  12.999891927

ATOMIC_POSITIONS (angstrom)
Mg              -1.2976460034        3.7095554364       10.8332432723
Mg               0.0000000000        1.4619666282        6.4999459633
Mg               3.8613922465        0.7309833142       10.8332432723
Mg               2.5637462430        2.9785721224        6.4999459633
Mg               1.2976460034        3.7095554364        2.1666486545
Mg               1.2661002395        0.7309833142        2.1666486545
Mg               1.2818731215        2.2202693753        9.3305914546
Mg               2.5637462429        0.0000000000        8.0025977810
Mg               1.2818731215        2.2202693753       12.3358950899
Mg               2.5637462429        0.0000000000        4.9972941458
Mg               3.8456193645        2.2202693753        3.6693004722
Mg               3.8456193645        2.2202693753        0.6639968369
Ni               1.2818731215        2.2202693753        4.3332973089
Ni               2.5637462429        0.0000000000        0.0000000000
Ni               3.8456193645        2.2202693753        8.6665946178
Ni              -0.0000000000       -0.0000000000        4.3332973089
Ni               0.0000000000        0.0000000000       -0.0000000000
Ni               0.0000000000        0.0000000000        8.6665946178



     Writing config-only to output data dir ./outdir/mg2ni.save/ :
     XML data file
     NEW-OLD atomic charge density approx. for the potential
     New effective cutoffs (rho, wfc):  494.79   61.88

     Check: negative core charge=   -0.000001

     total cpu time spent up to now is      273.8 secs

     Self-consistent Calculation

     iteration #  1     ecut=    60.00 Ry     beta= 0.30
     Davidson diagonalization with overlap
     ethr =  1.00E-06,  avg # of iterations =  2.0

     Threshold (ethr) on eigenvalues was too large:
     Diagonalizing with lowered threshold

     Davidson diagonalization with overlap
     ethr =  1.83E-08,  avg # of iterations =  1.0

     total cpu time spent up to now is      279.4 secs

     total energy              =   -2463.74080568 Ry
     estimated scf accuracy    <       0.00002647 Ry

     iteration #  2     ecut=    60.00 Ry     beta= 0.30
     Davidson diagonalization with overlap
     ethr =  2.01E-08,  avg # of iterations =  3.0

     total cpu time spent up to now is      283.1 secs

     total energy              =   -2463.74080470 Ry
     estimated scf accuracy    <       0.00013476 Ry

     iteration #  3     ecut=    60.00 Ry     beta= 0.30
     Davidson diagonalization with overlap
     ethr =  2.01E-08,  avg # of iterations =  3.0

     total cpu time spent up to now is      286.6 secs

     total energy              =   -2463.74081525 Ry
     estimated scf accuracy    <       0.00000045 Ry

     iteration #  4     ecut=    60.00 Ry     beta= 0.30
     Davidson diagonalization with overlap
     ethr =  3.39E-10,  avg # of iterations =  3.0

     total cpu time spent up to now is      290.3 secs

     total energy              =   -2463.74081518 Ry
     estimated scf accuracy    <       0.00000351 Ry

     iteration #  5     ecut=    60.00 Ry     beta= 0.30
     Davidson diagonalization with overlap
     ethr =  3.39E-10,  avg # of iterations =  3.0

     total cpu time spent up to now is      293.7 secs

     total energy              =   -2463.74081539 Ry
     estimated scf accuracy    <       0.00000001 Ry

     iteration #  6     ecut=    60.00 Ry     beta= 0.30
     Davidson diagonalization with overlap
     ethr =  1.13E-11,  avg # of iterations =  4.3

     total cpu time spent up to now is      297.8 secs

     total energy              =   -2463.74081539 Ry
     estimated scf accuracy    <          1.9E-09 Ry

     iteration #  7     ecut=    60.00 Ry     beta= 0.30
     Davidson diagonalization with overlap
     ethr =  1.41E-12,  avg # of iterations =  3.5

     total cpu time spent up to now is      301.5 secs

     End of self-consistent calculation

          k = 0.0000 0.0000 0.0000 ( 16309 PWs)   bands (ev):

   -95.4513 -95.4513 -95.4513 -95.3830 -95.3830 -95.3830 -55.8688 -55.8688
   -55.8688 -55.8677 -55.8677 -55.8676 -55.8641 -55.8641 -55.8640 -55.8093
   -55.8093 -55.8093 -55.8030 -55.8030 -55.8030 -55.7553 -55.7553 -55.7553
    -0.3980   0.4794   0.4794   3.0926   3.0926   4.7001   4.7001   4.7706
     4.7815   4.8426   4.8426   4.8575   4.9126   4.9811   4.9811   5.4377
     5.4827   5.5042   5.5042   5.5555   5.5555   5.7964   5.7964   5.8412
     5.8412   5.9277   6.0544   6.0598   6.0598   6.6333   6.6333   6.6352
     6.6367   6.6367   6.6367   6.8543   6.8674   6.8674   7.1491   7.5454
     7.6481   7.6481   7.8754   7.8754   7.9290   8.3217   8.5342   8.5342
     8.6048   8.7959   8.7959   8.9798   9.6529   9.6529  10.5365

          k = 0.0000 0.0000 0.1000 ( 16316 PWs)   bands (ev):

   -95.4513 -95.4513 -95.4513 -95.3830 -95.3830 -95.3830 -55.8688 -55.8688
   -55.8688 -55.8677 -55.8677 -55.8676 -55.8641 -55.8641 -55.8640 -55.8093
   -55.8093 -55.8093 -55.8030 -55.8030 -55.8030 -55.7553 -55.7553 -55.7553
    -0.3418   0.1019   0.9340   2.3932   3.8222   4.7074   4.7096   4.7221
     4.7603   4.8163   4.8454   4.8560   4.9170   4.9529   5.0068   5.4503
     5.4807   5.4919   5.4926   5.5031   5.6321   5.7346   5.8378   5.8449
     5.9073   5.9276   6.0547   6.0578   6.0623   6.6327   6.6340   6.6350
     6.6365   6.6366   6.6367   6.6742   6.9275   6.9280   6.9401   7.3803
     7.4160   7.4308   8.0204   8.0495   8.1355   8.4913   8.5572   8.5604
     8.7443   8.7614   8.8404   9.0569   9.6265   9.6410  10.2734

          k = 0.0000 0.0000-0.1999 ( 16334 PWs)   bands (ev):

   -95.4513 -95.4513 -95.4513 -95.3830 -95.3830 -95.3830 -55.8688 -55.8688
   -55.8688 -55.8677 -55.8676 -55.8676 -55.8641 -55.8641 -55.8641 -55.8093
   -55.8093 -55.8093 -55.8030 -55.8030 -55.8030 -55.7553 -55.7553 -55.7553
    -0.1742  -0.1742   1.2669   1.9746   4.4208   4.4208   4.7166   4.7332
     4.7332   4.7996   4.8522   4.8522   4.9305   4.9305   5.0176   5.4574
     5.4795   5.4795   5.4849   5.5381   5.5381   5.8342   5.8685   5.8685
     5.9814   6.0522   6.0522   6.0647   6.0709   6.0709   6.6325   6.6346
     6.6346   6.6366   6.6367   6.6367   7.0383   7.0945   7.0945   7.1659
     7.1659   7.2464   8.1287   8.1287   8.2924   8.4670   8.5700   8.5700
     8.7503   8.8623   8.8623   9.4279   9.4279   9.6362  10.0448

          k =-0.0000 0.1463 0.0000 ( 16313 PWs)   bands (ev):

   -95.4513 -95.4512 -95.4512 -95.3830 -95.3830 -95.3830 -55.8688 -55.8687
   -55.8687 -55.8677 -55.8676 -55.8676 -55.8641 -55.8617 -55.8617 -55.8094
   -55.8094 -55.8093 -55.8031 -55.8030 -55.8030 -55.7578 -55.7578 -55.7553
    -0.2759   0.5987   0.6003   3.1912   3.1937   4.5169   4.6868   4.7155
     4.7556   4.8025   4.8568   4.8660   4.9468   4.9586   4.9922   5.2768
     5.3235   5.4327   5.4807   5.5261   5.5269   5.7089   5.7642   5.8118
     5.8424   5.9222   5.9315   5.9761   5.9935   6.4116   6.4371   6.4809
     6.4976   6.6015   6.6341   6.6361   6.8054   6.9284   7.0148   7.0200
     7.3648   7.4369   7.4875   7.6819   7.9173   8.6031   8.7327   8.8053
     8.9072   9.0640   9.0707   9.5217   9.6758   9.9851  10.4433

          k =-0.0000 0.1463 0.1000 ( 16313 PWs)   bands (ev):

   -95.4513 -95.4512 -95.4512 -95.3830 -95.3830 -95.3830 -55.8688 -55.8687
   -55.8687 -55.8677 -55.8676 -55.8676 -55.8641 -55.8617 -55.8617 -55.8094
   -55.8094 -55.8093 -55.8031 -55.8030 -55.8030 -55.7578 -55.7578 -55.7553
    -0.2199   0.2227   1.0538   2.4986   3.9090   4.5371   4.6530   4.7239
     4.7456   4.8001   4.8163   4.8573   4.9389   4.9418   5.0211   5.2449
     5.3230   5.4071   5.4768   5.5136   5.5764   5.7192   5.7960   5.8325
     5.8573   5.9155   5.9387   5.9796   5.9958   6.3907   6.4240   6.4495
     6.5267   6.6084   6.6341   6.6361   6.7908   6.8502   6.9500   7.0319
     7.1483   7.3146   7.4542   7.8765   8.0643   8.3119   8.7183   8.8837
     8.9647   9.1116   9.3014   9.4567   9.7187   9.9997  10.4300

          k =-0.0000 0.1463-0.1999 ( 16334 PWs)   bands (ev):

   -95.4513 -95.4512 -95.4512 -95.3830 -95.3830 -95.3830 -55.8688 -55.8687
   -55.8687 -55.8677 -55.8676 -55.8676 -55.8641 -55.8617 -55.8617 -55.8094
   -55.8094 -55.8093 -55.8031 -55.8030 -55.8030 -55.7578 -55.7578 -55.7553
    -0.0534  -0.0521   1.3887   2.0795   4.4759   4.4874   4.5821   4.6033
     4.7547   4.7576   4.8331   4.8418   4.9296   4.9333   5.0430   5.2131
     5.3205   5.3912   5.4736   5.5129   5.5677   5.7873   5.8183   5.8687
     5.9161   5.9505   5.9773   5.9842   6.0104   6.0926   6.4361   6.4425
     6.5577   6.6191   6.6341   6.6361   6.7108   6.7405   6.9698   6.9825
     7.0968   7.2653   7.5356   8.0153   8.0360   8.2754   8.4988   8.8297
     9.0599   9.2627   9.2903   9.5917   9.7246  10.0573  10.6026

          k =-0.0000 0.2926 0.0000 ( 16389 PWs)   bands (ev):

   -95.4513 -95.4512 -95.4512 -95.3831 -95.3831 -95.3830 -55.8688 -55.8687
   -55.8687 -55.8677 -55.8676 -55.8675 -55.8641 -55.8554 -55.8554 -55.8095
   -55.8095 -55.8093 -55.8031 -55.8031 -55.8030 -55.7641 -55.7641 -55.7553
     0.0874   0.9523   0.9600   3.4698   3.4880   3.6515   4.2435   4.2710
     4.6981   4.7454   4.8551   4.9215   4.9281   4.9531   5.0376   5.1398
     5.1773   5.2259   5.4523   5.4900   5.5152   5.5848   5.6598   5.7636
     5.7987   5.8197   5.8962   5.8994   5.9390   6.0393   6.0778   6.1099
     6.2377   6.3705   6.3980   6.5227   6.5843   6.6342   6.6353   6.9988
     7.0828   7.2591   7.4738   7.6787   7.9503   8.0907   8.3215   9.0104
     9.0563   9.3580   9.5139   9.9659  10.2747  10.3226  11.0175

          k =-0.0000 0.2926 0.1000 ( 16367 PWs)   bands (ev):

   -95.4513 -95.4512 -95.4512 -95.3831 -95.3831 -95.3830 -55.8688 -55.8687
   -55.8687 -55.8677 -55.8676 -55.8675 -55.8641 -55.8554 -55.8554 -55.8095
   -55.8095 -55.8093 -55.8031 -55.8031 -55.8030 -55.7641 -55.7641 -55.7553
     0.1430   0.5822   1.4087   2.8082   3.6916   4.0035   4.1584   4.4872
     4.7187   4.7484   4.8524   4.8924   4.9027   4.9420   5.0232   5.1083
     5.1767   5.2360   5.4145   5.4986   5.5409   5.6245   5.6676   5.7715
     5.8000   5.8197   5.8607   5.9283   5.9387   6.0463   6.0904   6.1127
     6.2139   6.3672   6.4059   6.5521   6.5941   6.6342   6.6355   6.9489
     6.9968   7.3013   7.3326   7.5463   7.6906   8.1256   8.6654   8.8555
     8.9779   9.6140   9.7137  10.0811  10.3039  10.5167  10.8026

          k =-0.0000 0.2926-0.1999 ( 16360 PWs)   bands (ev):

   -95.4513 -95.4512 -95.4512 -95.3831 -95.3831 -95.3830 -55.8688 -55.8687
   -55.8687 -55.8677 -55.8676 -55.8675 -55.8641 -55.8554 -55.8554 -55.8095
   -55.8095 -55.8093 -55.8032 -55.8031 -55.8030 -55.7641 -55.7641 -55.7553
     0.3059   0.3118   1.7488   2.3895   3.8148   3.8181   4.5398   4.6142
     4.7135   4.7754   4.8131   4.8316   4.8670   4.9308   4.9983   5.0718
     5.1728   5.2502   5.3827   5.5141   5.5574   5.6457   5.7295   5.7805
     5.8093   5.8207   5.8331   5.9062   5.9570   6.0369   6.1018   6.1301
     6.1750   6.3644   6.4164   6.5948   6.6191   6.6342   6.6356   6.8569
     6.9658   7.0558   7.2514   7.4471   7.8313   8.2136   8.4049   8.7755
     9.5466   9.6704   9.8065  10.0911  10.0943  10.4201  11.2371

          k =-0.0000 0.4389 0.0000 ( 16379 PWs)   bands (ev):

   -95.4513 -95.4511 -95.4511 -95.3832 -95.3832 -95.3830 -55.8688 -55.8686
   -55.8686 -55.8677 -55.8675 -55.8674 -55.8641 -55.8481 -55.8481 -55.8096
   -55.8096 -55.8094 -55.8032 -55.8032 -55.8030 -55.7715 -55.7715 -55.7553
     0.6817   1.5192   1.5492   2.5477   3.3058   3.3074   3.9323   3.9408
     4.5450   4.7006   4.7917   4.8825   4.9407   5.0254   5.0517   5.1587
     5.1942   5.2660   5.3888   5.5026   5.5118   5.5507   5.5951   5.7103
     5.7126   5.7283   5.7697   5.8211   5.8409   5.8483   5.8845   5.9816
     6.0269   6.0317   6.0924   6.3132   6.4855   6.6334   6.6343   6.8553
     6.8959   7.1352   7.1860   7.3372   7.3977   8.1517   8.5670   9.0004
     9.3204   9.3810   9.6281  10.2672  10.8319  11.0356  11.2477

          k =-0.0000 0.4389 0.1000 ( 16368 PWs)   bands (ev):

   -95.4513 -95.4511 -95.4511 -95.3832 -95.3832 -95.3830 -55.8688 -55.8686
   -55.8686 -55.8677 -55.8675 -55.8674 -55.8641 -55.8481 -55.8481 -55.8096
   -55.8096 -55.8094 -55.8032 -55.8032 -55.8030 -55.7715 -55.7715 -55.7553
     0.7363   1.1678   1.9757   2.5997   2.9821   3.3038   3.7213   4.3796
     4.5703   4.6857   4.7629   4.8373   4.8935   5.0068   5.0702   5.1513
     5.2225   5.2897   5.4046   5.4808   5.5053   5.5748   5.6227   5.6849
     5.7195   5.7391   5.7567   5.8247   5.8287   5.8490   5.9010   5.9830
     6.0276   6.0341   6.0765   6.3126   6.5335   6.6334   6.6343   6.7339
     6.8736   7.0701   7.2660   7.4881   7.6373   8.1012   8.2848   8.6756
     8.9016   9.5640  10.0363  10.4988  10.7140  11.1360  11.3822

          k =-0.0000 0.4389-0.1999 ( 16370 PWs)   bands (ev):

   -95.4513 -95.4511 -95.4511 -95.3832 -95.3832 -95.3830 -55.8688 -55.8686
   -55.8686 -55.8677 -55.8675 -55.8674 -55.8641 -55.8481 -55.8481 -55.8096
   -55.8096 -55.8094 -55.8032 -55.8032 -55.8030 -55.7715 -55.7715 -55.7553
     0.8894   0.9095   2.3052   2.7259   2.7897   2.8881   4.0613   4.2155
     4.6033   4.6857   4.7824   4.8871   4.9472   4.9518   5.0517   5.1247
     5.2748   5.2981   5.3984   5.4719   5.4938   5.6188   5.6435   5.6498
     5.7294   5.7458   5.7648   5.7826   5.8344   5.8523   5.9209   5.9839
     6.0304   6.0449   6.0473   6.3093   6.5490   6.6334   6.6342   6.7030
     6.8748   7.2263   7.2332   7.4508   7.6809   7.9987   8.4472   8.6471
     8.7385   8.8983  10.5551  10.8186  10.9710  11.0692  11.6373

          k = 0.0000-0.5852 0.0000 ( 16352 PWs)   bands (ev):

   -95.4513 -95.4510 -95.4510 -95.3832 -95.3832 -95.3830 -55.8688 -55.8686
   -55.8686 -55.8677 -55.8674 -55.8674 -55.8641 -55.8446 -55.8446 -55.8096
   -55.8096 -55.8094 -55.8033 -55.8032 -55.8030 -55.7750 -55.7750 -55.7553
     1.3830   1.6057   2.1873   2.3334   2.3622   2.5459   4.2630   4.3229
     4.4781   4.6877   4.7035   4.7161   4.8009   5.0218   5.0909   5.1022
     5.2486   5.2910   5.3907   5.5517   5.5520   5.6268   5.6562   5.6678
     5.7156   5.7191   5.7204   5.7303   5.7426   5.7435   5.7650   5.7791
     5.8756   6.0089   6.0828   6.1968   6.5958   6.6317   6.6327   6.6344
     6.7475   7.0385   7.0791   7.1847   7.3462   8.1610   8.7547   9.1208
     9.3806   9.5000   9.5523  10.2958  10.5135  10.6895  12.1629

          k = 0.0000-0.5852 0.1000 ( 16378 PWs)   bands (ev):

   -95.4513 -95.4510 -95.4510 -95.3832 -95.3832 -95.3830 -55.8688 -55.8686
   -55.8686 -55.8677 -55.8674 -55.8674 -55.8641 -55.8446 -55.8446 -55.8096
   -55.8096 -55.8094 -55.8033 -55.8032 -55.8030 -55.7750 -55.7750 -55.7553
     1.4300   1.6512   1.9022   2.1004   2.6973   2.8982   3.9211   3.9518
     4.4969   4.6635   4.8155   4.8180   4.9445   5.0239   5.1019   5.1549
     5.2311   5.3632   5.4566   5.5110   5.5186   5.6075   5.6683   5.6706
     5.6928   5.6982   5.7205   5.7296   5.7524   5.7549   5.7707   5.7871
     5.8984   6.0086   6.0361   6.1964   6.4948   6.6324   6.6343   6.6590
     6.8591   7.1386   7.2410   7.2472   7.5135   8.0751   8.5058   8.8022
     8.8135   9.0048  10.0670  10.5294  11.2303  11.3570  12.0481

          k = 0.0000-0.5852-0.1999 ( 16368 PWs)   bands (ev):

   -95.4513 -95.4510 -95.4510 -95.3832 -95.3832 -95.3830 -55.8688 -55.8686
   -55.8686 -55.8677 -55.8674 -55.8674 -55.8641 -55.8446 -55.8446 -55.8096
   -55.8096 -55.8094 -55.8033 -55.8032 -55.8030 -55.7750 -55.7750 -55.7553
     1.5142   1.7171   1.7337   1.9213   3.0179   3.3198   3.4968   3.5712
     4.5248   4.6435   4.7737   4.9033   4.9779   5.0421   5.1018   5.2423
     5.3375   5.3952   5.4237   5.5036   5.5444   5.5629   5.6573   5.6627
     5.6846   5.6892   5.7210   5.7271   5.7543   5.7576   5.7741   5.8087
     5.9418   5.9696   6.0083   6.1948   6.4515   6.6322   6.6342   6.6567
     6.8569   7.3661   7.4903   7.5168   7.6360   7.9261   8.0805   8.5016
     8.5590   8.6036  10.6022  11.0814  11.2032  11.4716  12.1688

          k = 0.1267 0.2195 0.0000 ( 16312 PWs)   bands (ev):

   -95.4512 -95.4512 -95.4512 -95.3831 -95.3830 -95.3830 -55.8688 -55.8688
   -55.8687 -55.8676 -55.8676 -55.8675 -55.8617 -55.8617 -55.8554 -55.8095
   -55.8094 -55.8094 -55.8031 -55.8031 -55.8030 -55.7641 -55.7578 -55.7578
    -0.0332   0.8357   0.8402   3.3835   3.3908   4.2171   4.2185   4.5531
     4.5992   4.6797   4.7790   4.9076   4.9797   4.9909   5.0233   5.1119
     5.1527   5.2658   5.4395   5.4981   5.5722   5.6140   5.6558   5.7948
     5.8421   5.8586   5.8907   5.9123   5.9664   6.1439   6.1790   6.1814
     6.2942   6.4205   6.5316   6.5811   6.5998   6.6538   6.7583   6.7697
     6.8123   7.5247   7.6975   8.2261   8.2973   8.4754   8.5753   8.6652
     8.6774   8.8479   9.2563   9.3942   9.9788  10.8211  10.9465

          k = 0.1267 0.2195 0.1000 ( 16346 PWs)   bands (ev):

   -95.4512 -95.4512 -95.4512 -95.3831 -95.3830 -95.3830 -55.8688 -55.8688
   -55.8687 -55.8676 -55.8676 -55.8675 -55.8617 -55.8617 -55.8554 -55.8095
   -55.8094 -55.8094 -55.8031 -55.8031 -55.8030 -55.7641 -55.7578 -55.7578
     0.0225   0.4630   1.2913   2.7065   4.0721   4.2485   4.2535   4.4677
     4.4975   4.7390   4.8218   4.8883   4.9489   4.9952   5.0230   5.1217
     5.1374   5.2671   5.4220   5.5213   5.5614   5.6411   5.6868   5.8048
     5.8390   5.8492   5.9022   5.9101   5.9712   6.1358   6.1603   6.2037
     6.2836   6.4220   6.5178   6.5769   6.6097   6.6551   6.6768   6.8212
     7.0002   7.2263   7.5792   7.9264   8.0455   8.1213   8.6740   8.9118
     9.1382   9.1804   9.3850   9.5889  10.1893  10.6918  10.8529

          k = 0.1267 0.2195-0.1999 ( 16360 PWs)   bands (ev):

   -95.4512 -95.4512 -95.4512 -95.3831 -95.3830 -95.3830 -55.8688 -55.8688
   -55.8687 -55.8676 -55.8676 -55.8675 -55.8617 -55.8617 -55.8554 -55.8095
   -55.8094 -55.8094 -55.8031 -55.8031 -55.8030 -55.7641 -55.7578 -55.7578
     0.1871   0.1906   1.6299   2.2870   4.3105   4.3428   4.3493   4.3834
     4.5776   4.6086   4.8503   4.8690   4.9256   4.9719   5.0511   5.0828
     5.1671   5.2480   5.4140   5.5292   5.5662   5.6749   5.7531   5.7804
     5.8351   5.8796   5.8875   5.9252   5.9795   6.0916   6.1657   6.1872
     6.2848   6.4248   6.5021   6.5737   6.6197   6.6427   6.7322   6.8201
     6.9180   7.1876   7.5114   7.6719   7.9134   7.9456   8.7785   9.0403
     9.2196   9.2672   9.9022  10.0261  10.2651  10.2681  10.6721

          k = 0.1267 0.3658 0.0000 ( 16370 PWs)   bands (ev):

   -95.4512 -95.4512 -95.4511 -95.3832 -95.3831 -95.3830 -55.8688 -55.8687
   -55.8686 -55.8676 -55.8675 -55.8675 -55.8617 -55.8554 -55.8481 -55.8096
   -55.8095 -55.8094 -55.8032 -55.8031 -55.8030 -55.7715 -55.7641 -55.7578
     0.4464   1.3004   1.3137   3.1666   3.7093   3.7576   3.8792   3.9118
     3.9345   4.4638   4.5105   4.9654   4.9855   5.0106   5.0853   5.1616
     5.2437   5.2630   5.4232   5.4702   5.5168   5.5374   5.6294   5.7406
     5.7803   5.7938   5.8425   5.8568   5.8829   5.9093   5.9318   5.9633
     6.0586   6.0939   6.3064   6.3820   6.4981   6.5507   6.6010   6.6240
     6.7262   7.4585   7.5319   7.9178   8.0182   8.2401   8.5345   8.7640
     8.8696   9.3064   9.7207  10.0361  10.4432  11.1326  11.2177

          k = 0.1267 0.3658 0.1000 ( 16342 PWs)   bands (ev):

   -95.4512 -95.4512 -95.4511 -95.3832 -95.3831 -95.3830 -55.8688 -55.8687
   -55.8686 -55.8676 -55.8675 -55.8675 -55.8617 -55.8554 -55.8481 -55.8095
   -55.8095 -55.8094 -55.8032 -55.8031 -55.8030 -55.7715 -55.7641 -55.7578
     0.5014   0.9366   1.7562   3.1006   3.2217   3.5799   3.9666   4.1948
     4.2812   4.3588   4.6926   4.8744   4.9790   5.0234   5.0823   5.1456
     5.2263   5.2769   5.3654   5.4699   5.5411   5.5701   5.6392   5.7432
     5.7523   5.7937   5.8196   5.8686   5.8930   5.9031   5.9417   5.9691
     6.0641   6.1063   6.3013   6.3855   6.4921   6.5450   6.6166   6.6712
     6.8264   7.0755   7.4908   7.7381   7.9850   8.2908   8.4964   8.9561
     9.1657   9.5821   9.7401   9.9494  10.2738  10.7170  11.0774

          k = 0.1267 0.3658-0.1999 ( 16364 PWs)   bands (ev):

   -95.4512 -95.4512 -95.4511 -95.3832 -95.3831 -95.3830 -55.8688 -55.8687
   -55.8686 -55.8676 -55.8675 -55.8675 -55.8617 -55.8554 -55.8481 -55.8096
   -55.8095 -55.8094 -55.8032 -55.8031 -55.8030 -55.7715 -55.7641 -55.7578
     0.6609   0.6707   2.0994   2.6916   3.3449   3.3676   4.0782   4.0854
     4.4899   4.5362   4.7874   4.8495   4.9233   4.9982   5.0817   5.1198
     5.2178   5.2882   5.3299   5.4677   5.5471   5.6186   5.6614   5.6871
     5.7565   5.7991   5.8094   5.8462   5.9023   5.9257   5.9441   5.9716
     6.0687   6.1215   6.2959   6.3881   6.4898   6.5442   6.6305   6.7761
     6.9150   7.0269   7.1478   7.3868   8.0153   8.2281   9.0711   9.1821
     9.3606   9.3865   9.7035   9.8870  10.1551  10.2695  11.5903

          k = 0.1267 0.5121 0.0000 ( 16377 PWs)   bands (ev):

   -95.4512 -95.4511 -95.4510 -95.3832 -95.3832 -95.3830 -55.8688 -55.8686
   -55.8686 -55.8676 -55.8675 -55.8674 -55.8617 -55.8481 -55.8446 -55.8096
   -55.8096 -55.8094 -55.8033 -55.8032 -55.8030 -55.7750 -55.7715 -55.7578
     1.1433   1.9003   2.0067   2.1720   2.8894   2.9270   3.7608   4.2065
     4.2403   4.3587   4.3804   4.8012   4.8704   5.0314   5.1176   5.1699
     5.3255   5.3769   5.4086   5.4890   5.5463   5.5961   5.6482   5.6698
     5.6795   5.6929   5.7229   5.7693   5.7902   5.8079   5.8330   5.8791
     5.9736   6.0020   6.0481   6.2714   6.4758   6.5201   6.5864   6.6424
     6.7042   6.8979   7.0273   7.8199   7.8699   8.2891   8.5298   8.8016
     9.2417   9.8716  10.2710  10.6086  10.7613  10.9265  11.0563

          k = 0.1267 0.5121 0.1000 ( 16380 PWs)   bands (ev):

   -95.4512 -95.4511 -95.4510 -95.3832 -95.3832 -95.3830 -55.8688 -55.8686
   -55.8686 -55.8676 -55.8675 -55.8674 -55.8617 -55.8481 -55.8446 -55.8096
   -55.8096 -55.8094 -55.8033 -55.8032 -55.8030 -55.7750 -55.7715 -55.7578
     1.1965   1.6159   2.1388   2.4186   2.6054   3.3138   3.6944   3.8035
     4.1214   4.2882   4.6220   4.8287   4.9961   5.0583   5.1217   5.1731
     5.3200   5.3567   5.4264   5.4753   5.5385   5.6062   5.6437   5.6604
     5.6805   5.6987   5.7290   5.7632   5.7898   5.8143   5.8327   5.8908
     5.9732   6.0008   6.0359   6.2732   6.4238   6.5183   6.5997   6.6496
     6.7134   6.9501   7.3552   7.5104   8.0061   8.2527   8.4234   8.9301
     8.9972   9.5832   9.9701  10.6717  10.9217  11.1407  11.4442

          k = 0.1267 0.5121-0.1999 ( 16374 PWs)   bands (ev):

   -95.4512 -95.4511 -95.4510 -95.3832 -95.3832 -95.3830 -55.8688 -55.8686
   -55.8686 -55.8676 -55.8675 -55.8674 -55.8617 -55.8481 -55.8446 -55.8096
   -55.8096 -55.8094 -55.8033 -55.8032 -55.8030 -55.7750 -55.7715 -55.7578
     1.3361   1.3770   2.2862   2.3009   2.8280   3.2650   3.7083   3.9104
     3.9293   3.9569   4.7690   4.9358   5.0042   5.1018   5.1258   5.1821
     5.3205   5.3517   5.4028   5.4821   5.5345   5.6055   5.6339   5.6659
     5.6854   5.7051   5.7272   5.7614   5.7798   5.8229   5.8325   5.9086
     5.9745   5.9939   6.0234   6.2735   6.4074   6.4849   6.6008   6.6053
     6.8317   7.1266   7.4086   7.5125   7.9935   8.1896   8.3587   8.5685
     9.2450   9.3544  10.1335  10.1571  10.9759  11.1366  12.1880

          k = 0.2534 0.4389 0.0000 ( 16380 PWs)   bands (ev):

   -95.4512 -95.4512 -95.4510 -95.3832 -95.3831 -95.3831 -55.8687 -55.8687
   -55.8686 -55.8675 -55.8675 -55.8674 -55.8554 -55.8554 -55.8446 -55.8096
   -55.8095 -55.8095 -55.8032 -55.8031 -55.8031 -55.7750 -55.7641 -55.7641
     1.0333   1.8625   1.8869   2.7918   2.9356   3.5496   3.5769   3.6423
     3.6685   4.1650   4.1858   4.8956   5.0102   5.0971   5.1315   5.2157
     5.2406   5.2915   5.4536   5.4652   5.5360   5.6009   5.6033   5.6619
     5.7293   5.7455   5.7600   5.7681   5.7856   5.8822   5.8840   5.9174
     5.9540   5.9563   6.2311   6.2404   6.3436   6.4624   6.5058   6.6359
     6.6623   7.2840   7.3292   7.3786   7.5854   8.9453   9.1485   9.4056
     9.5682   9.7043   9.9435  10.1692  10.6962  10.8313  11.1310

          k = 0.2534 0.4389 0.1000 ( 16361 PWs)   bands (ev):

   -95.4512 -95.4512 -95.4510 -95.3832 -95.3831 -95.3831 -55.8687 -55.8687
   -55.8686 -55.8675 -55.8675 -55.8674 -55.8554 -55.8554 -55.8446 -55.8096
   -55.8095 -55.8095 -55.8032 -55.8031 -55.8031 -55.7750 -55.7641 -55.7641
     1.0872   1.5135   2.3092   2.8398   2.9831   3.2464   3.3517   3.5843
     3.9751   4.0129   4.5529   4.7300   4.9361   5.1446   5.1566   5.2206
     5.2385   5.2940   5.4426   5.4769   5.5418   5.5984   5.6104   5.6697
     5.7012   5.7347   5.7533   5.7762   5.8005   5.8823   5.8947   5.9097
     5.9308   6.0016   6.2218   6.2479   6.3404   6.4666   6.5328   6.5634
     6.8704   6.8914   7.0641   7.7941   8.0850   8.5986   9.0276   9.3688
     9.6210   9.6834   9.9691  10.2037  10.2447  10.3522  11.2527

          k = 0.2534 0.4389-0.1999 ( 16354 PWs)   bands (ev):

   -95.4512 -95.4512 -95.4510 -95.3832 -95.3831 -95.3831 -55.8687 -55.8687
   -55.8686 -55.8675 -55.8675 -55.8674 -55.8554 -55.8554 -55.8446 -55.8096
   -55.8095 -55.8095 -55.8032 -55.8031 -55.8031 -55.7750 -55.7641 -55.7641
     1.2401   1.2568   2.6339   2.9417   3.0554   3.1102   3.1623   3.1853
     4.3346   4.3470   4.4083   4.4090   5.0362   5.1186   5.1785   5.2014
     5.2584   5.2956   5.4397   5.4828   5.5385   5.6009   5.6370   5.6424
     5.6933   5.7268   5.7468   5.7846   5.8086   5.8822   5.9003   5.9084
     5.9198   6.0327   6.2149   6.2525   6.3366   6.4704   6.5650   6.5720
     6.7298   6.8185   7.4249   7.4315   8.6501   8.8601   8.9808   9.1005
     9.1945   9.6090   9.7397   9.8918  10.3034  10.4533  11.6694

          k = 0.2534 0.5852 0.0000 ( 16380 PWs)   bands (ev):

   -95.4511 -95.4511 -95.4511 -95.3832 -95.3832 -95.3831 -55.8687 -55.8686
   -55.8686 -55.8675 -55.8675 -55.8674 -55.8554 -55.8481 -55.8481 -55.8096
   -55.8096 -55.8095 -55.8032 -55.8032 -55.8031 -55.7715 -55.7715 -55.7641
     1.7317   1.9367   2.4987   2.6323   2.6438   2.8442   2.8622   3.5218
     3.5345   4.4868   4.5269   4.7177   4.8939   5.0030   5.1562   5.2313
     5.2905   5.3790   5.3890   5.4711   5.4753   5.5807   5.5817   5.6666
     5.7153   5.7491   5.7583   5.7691   5.8178   5.8594   5.8612   5.9192
     5.9348   5.9981   6.0167   6.2070   6.3723   6.4084   6.4548   6.7707
     6.7849   6.8509   7.0229   7.2604   7.4767   9.1510   9.5211   9.7041
     9.9415  10.3395  10.3577  10.5853  10.7625  10.8640  10.9990

          k = 0.2534 0.5852 0.1000 ( 16361 PWs)   bands (ev):

   -95.4511 -95.4511 -95.4511 -95.3832 -95.3832 -95.3831 -55.8687 -55.8686
   -55.8686 -55.8675 -55.8675 -55.8674 -55.8554 -55.8481 -55.8481 -55.8096
   -55.8096 -55.8095 -55.8032 -55.8032 -55.8031 -55.7715 -55.7715 -55.7641
     1.7806   1.9812   2.2276   2.4063   2.8183   3.0258   3.1671   3.2583
     3.9011   4.1734   4.1892   4.6636   5.0419   5.1024   5.2191   5.2319
     5.2938   5.3841   5.3912   5.4409   5.4621   5.5687   5.6033   5.6315
     5.7068   5.7572   5.7680   5.7915   5.8232   5.8438   5.8802   5.9129
     5.9393   5.9968   6.0150   6.2078   6.3445   6.4427   6.4812   6.5778
     6.6539   6.9192   7.2361   7.4127   7.9574   8.9421   9.1973   9.2498
     9.6305  10.0048  10.3365  10.7383  10.8342  10.9768  11.1178

          k = 0.2534 0.5852-0.1999 ( 16362 PWs)   bands (ev):

   -95.4511 -95.4511 -95.4511 -95.3832 -95.3832 -95.3831 -55.8687 -55.8686
   -55.8686 -55.8675 -55.8675 -55.8674 -55.8554 -55.8481 -55.8481 -55.8096
   -55.8096 -55.8095 -55.8032 -55.8032 -55.8031 -55.7715 -55.7715 -55.7641
     1.8763   2.0322   2.0643   2.2361   2.9447   2.9787   3.3640   3.6258
     3.7594   3.8158   4.2818   4.3557   5.1179   5.2253   5.2303   5.2710
     5.2958   5.3844   5.3928   5.4025   5.4400   5.5842   5.5908   5.6098
     5.7062   5.7575   5.7680   5.8134   5.8295   5.8411   5.8871   5.9104
     5.9415   5.9950   6.0133   6.2087   6.3287   6.4828   6.5162   6.5314
     6.5585   6.7514   7.7151   7.8264   8.1697   8.4758   8.9233   9.0573
     9.2964   9.6881  10.6191  10.6963  10.7937  11.0394  11.0410

     the Fermi energy is     7.2424 ev

!    total energy              =   -2463.74081539 Ry
     estimated scf accuracy    <          4.5E-11 Ry
     smearing contrib. (-TS)   =       0.00068918 Ry
     internal energy E=F+TS    =   -2463.74150457 Ry

     The total energy is F=E-TS. E is the sum of the following terms:
     one-electron contribution =   -2150.09829250 Ry
     hartree contribution      =    1117.11249324 Ry
     xc contribution           =    -233.38715140 Ry
     ewald contribution        =    -821.18265131 Ry
     DFT-D3 Dispersion         =      -0.44242810 Ry
     one-center paw contrib.   =    -375.74347449 Ry

     convergence has been achieved in   7 iterations

     Forces acting on atoms (cartesian axes, Ry/au):

     atom    1 type  1   force =     0.00088528   -0.00051112    0.00000000
     atom    2 type  1   force =    -0.00000000    0.00102223    0.00000000
     atom    3 type  1   force =    -0.00088528    0.00051112    0.00000000
     atom    4 type  1   force =     0.00000000   -0.00102223   -0.00000000
     atom    5 type  1   force =    -0.00088528   -0.00051112   -0.00000000
     atom    6 type  1   force =     0.00088528    0.00051112    0.00000000
     atom    7 type  1   force =     0.00000000    0.00000000    0.00205492
     atom    8 type  1   force =     0.00000000    0.00000000   -0.00205492
     atom    9 type  1   force =     0.00000000    0.00000000   -0.00205492
     atom   10 type  1   force =     0.00000000    0.00000000    0.00205492
     atom   11 type  1   force =     0.00000000    0.00000000   -0.00205492
     atom   12 type  1   force =     0.00000000    0.00000000    0.00205492
     atom   13 type  2   force =     0.00000000    0.00000000    0.00000000
     atom   14 type  2   force =    -0.00000000   -0.00000000   -0.00000000
     atom   15 type  2   force =     0.00000000    0.00000000    0.00000000
     atom   16 type  2   force =     0.00000000    0.00000000    0.00000000
     atom   17 type  2   force =     0.00000000   -0.00000000   -0.00000000
     atom   18 type  2   force =    -0.00000000   -0.00000000    0.00000000

     Total force =     0.005622     Total SCF correction =     0.000001


     Computing stress (Cartesian axis) and pressure

          total   stress  (Ry/bohr**3)                   (kbar)     P=        0.68
   0.00000605  -0.00000000   0.00000000            0.89       -0.00        0.00
  -0.00000000   0.00000605   0.00000000           -0.00        0.89        0.00
   0.00000000   0.00000000   0.00000174            0.00        0.00        0.26

     Energy error            =      4.5E-05 Ry
     Gradient error          =      2.1E-03 Ry/Bohr
     Cell gradient error     =      8.9E-01 kbar

     number of scf cycles    =   5
     number of bfgs steps    =   4

     enthalpy           old  =   -2463.7407702918 Ry
     enthalpy           new  =   -2463.7408153906 Ry

     CASE: enthalpy          _new < enthalpy          _old

     new trust radius        =       0.0033464011 bohr
     new conv_thr            =            4.5E-11 Ry

     new unit-cell volume =   1997.28802 a.u.^3 (   295.96755 Ang^3 )
     density =      3.61218 g/cm^3

CELL_PARAMETERS (angstrom)
   5.127730768   0.000000000   0.000000000
  -2.563865384   4.440745109   0.000000000
   0.000000000   0.000000000  12.997596052

ATOMIC_POSITIONS (angstrom)
Mg              -1.2969425078        3.7092868453       10.8313300436
Mg               0.0000000000        1.4629165272        6.4987980261
Mg               3.8608078919        0.7314582637       10.8313300436
Mg               2.5638653840        2.9778285817        6.4987980261
Mg               1.2969425078        3.7092868453        2.1662660087
Mg               1.2669228762        0.7314582637        2.1662660087
Mg               1.2819326921        2.2203725545        9.3307141316
Mg               2.5638653840        0.0000000000        7.9994139382
Mg               1.2819326921        2.2203725545       12.3319459556
Mg               2.5638653840        0.0000000000        4.9981821142
Mg               3.8457980761        2.2203725545        3.6668819208
Mg               3.8457980761        2.2203725545        0.6656500968
Ni               1.2819326921        2.2203725545        4.3325320174
Ni               2.5638653840        0.0000000000        0.0000000000
Ni               3.8457980761        2.2203725545        8.6650640349
Ni              -0.0000000000       -0.0000000000        4.3325320174
Ni               0.0000000000        0.0000000000       -0.0000000000
Ni               0.0000000000        0.0000000000        8.6650640349



     Writing config-only to output data dir ./outdir/mg2ni.save/ :
     XML data file
     NEW-OLD atomic charge density approx. for the potential
     New effective cutoffs (rho, wfc):  494.93   61.90

     Check: negative core charge=   -0.000001

     total cpu time spent up to now is      305.0 secs

     Self-consistent Calculation

     iteration #  1     ecut=    60.00 Ry     beta= 0.30
     Davidson diagonalization with overlap
     ethr =  1.00E-06,  avg # of iterations =  2.0

     Threshold (ethr) on eigenvalues was too large:
     Diagonalizing with lowered threshold

     Davidson diagonalization with overlap
     ethr =  2.49E-09,  avg # of iterations =  2.1

     total cpu time spent up to now is      311.0 secs

     total energy              =   -2463.74086078 Ry
     estimated scf accuracy    <       0.00000345 Ry

     iteration #  2     ecut=    60.00 Ry     beta= 0.30
     Davidson diagonalization with overlap
     ethr =  2.61E-09,  avg # of iterations =  2.9

     total cpu time spent up to now is      314.5 secs

     total energy              =   -2463.74086062 Ry
     estimated scf accuracy    <       0.00001080 Ry

     iteration #  3     ecut=    60.00 Ry     beta= 0.30
     Davidson diagonalization with overlap
     ethr =  2.61E-09,  avg # of iterations =  2.8

     total cpu time spent up to now is      317.9 secs

     total energy              =   -2463.74086154 Ry
     estimated scf accuracy    <       0.00000033 Ry

     iteration #  4     ecut=    60.00 Ry     beta= 0.30
     Davidson diagonalization with overlap
     ethr =  2.47E-10,  avg # of iterations =  2.2

     total cpu time spent up to now is      321.0 secs

     total energy              =   -2463.74086155 Ry
     estimated scf accuracy    <       0.00000089 Ry

     iteration #  5     ecut=    60.00 Ry     beta= 0.30
     Davidson diagonalization with overlap
     ethr =  2.47E-10,  avg # of iterations =  2.1

     total cpu time spent up to now is      324.0 secs

     total energy              =   -2463.74086160 Ry
     estimated scf accuracy    <       0.00000002 Ry

     iteration #  6     ecut=    60.00 Ry     beta= 0.30
     Davidson diagonalization with overlap
     ethr =  1.15E-11,  avg # of iterations =  4.1

     total cpu time spent up to now is      328.3 secs

     total energy              =   -2463.74086161 Ry
     estimated scf accuracy    <       0.00000002 Ry

     iteration #  7     ecut=    60.00 Ry     beta= 0.30
     Davidson diagonalization with overlap
     ethr =  1.15E-11,  avg # of iterations =  1.0

     total cpu time spent up to now is      330.8 secs

     total energy              =   -2463.74086161 Ry
     estimated scf accuracy    <          5.0E-10 Ry

     iteration #  8     ecut=    60.00 Ry     beta= 0.30
     Davidson diagonalization with overlap
     ethr =  3.76E-13,  avg # of iterations =  3.4

     total cpu time spent up to now is      334.6 secs

     total energy              =   -2463.74086161 Ry
     estimated scf accuracy    <          6.9E-11 Ry

     iteration #  9     ecut=    60.00 Ry     beta= 0.30
     Davidson diagonalization with overlap
     ethr =  1.00E-13,  avg # of iterations =  1.4

     total cpu time spent up to now is      337.4 secs

     End of self-consistent calculation

          k = 0.0000 0.0000 0.0000 ( 16309 PWs)   bands (ev):

   -95.4505 -95.4504 -95.4504 -95.3813 -95.3813 -95.3813 -55.8678 -55.8678
   -55.8678 -55.8671 -55.8671 -55.8670 -55.8631 -55.8631 -55.8631 -55.8075
   -55.8075 -55.8075 -55.8012 -55.8012 -55.8012 -55.7539 -55.7539 -55.7539
    -0.3974   0.4805   0.4805   3.0938   3.0938   4.7015   4.7015   4.7724
     4.7826   4.8442   4.8442   4.8597   4.9137   4.9822   4.9822   5.4389
     5.4833   5.5049   5.5049   5.5558   5.5558   5.7982   5.7982   5.8424
     5.8424   5.9286   6.0563   6.0617   6.0617   6.6342   6.6342   6.6361
     6.6380   6.6380   6.6381   6.8536   6.8681   6.8681   7.1528   7.5462
     7.6488   7.6488   7.8774   7.8774   7.9319   8.3198   8.5348   8.5348
     8.6039   8.7963   8.7963   8.9805   9.6501   9.6501  10.5378

          k = 0.0000 0.0000 0.1000 ( 16316 PWs)   bands (ev):

   -95.4505 -95.4504 -95.4504 -95.3813 -95.3813 -95.3813 -55.8678 -55.8678
   -55.8678 -55.8671 -55.8671 -55.8671 -55.8631 -55.8631 -55.8631 -55.8075
   -55.8075 -55.8075 -55.8013 -55.8012 -55.8012 -55.7539 -55.7539 -55.7539
    -0.3412   0.1027   0.9357   2.3938   3.8237   4.7089   4.7110   4.7237
     4.7618   4.8178   4.8474   4.8577   4.9180   4.9539   5.0078   5.4514
     5.4810   5.4925   5.4932   5.5040   5.6326   5.7362   5.8392   5.8460
     5.9082   5.9295   6.0567   6.0598   6.0642   6.6336   6.6349   6.6360
     6.6378   6.6380   6.6381   6.6765   6.9269   6.9289   6.9408   7.3813
     7.4160   7.4319   8.0227   8.0522   8.1374   8.4923   8.5570   8.5607
     8.7433   8.7616   8.8410   9.0566   9.6235   9.6382  10.2708

          k = 0.0000 0.0000-0.1999 ( 16334 PWs)   bands (ev):

   -95.4504 -95.4504 -95.4504 -95.3813 -95.3813 -95.3813 -55.8678 -55.8678
   -55.8678 -55.8671 -55.8671 -55.8671 -55.8631 -55.8631 -55.8631 -55.8075
   -55.8075 -55.8075 -55.8013 -55.8012 -55.8012 -55.7539 -55.7539 -55.7539
    -0.1735  -0.1735   1.2696   1.9741   4.4225   4.4225   4.7182   4.7347
     4.7347   4.8010   4.8539   4.8539   4.9315   4.9315   5.0186   5.4577
     5.4806   5.4806   5.4854   5.5389   5.5389   5.8356   5.8694   5.8694
     5.9834   6.0539   6.0539   6.0666   6.0726   6.0726   6.6334   6.6355
     6.6355   6.6380   6.6381   6.6381   7.0394   7.0947   7.0947   7.1663
     7.1663   7.2471   8.1314   8.1314   8.2948   8.4682   8.5699   8.5699
     8.7504   8.8629   8.8629   9.4253   9.4253   9.6334  10.0416

          k =-0.0000 0.1463 0.0000 ( 16313 PWs)   bands (ev):

   -95.4504 -95.4504 -95.4504 -95.3813 -95.3813 -95.3813 -55.8678 -55.8677
   -55.8677 -55.8671 -55.8671 -55.8670 -55.8631 -55.8607 -55.8607 -55.8075
   -55.8075 -55.8075 -55.8013 -55.8013 -55.8012 -55.7563 -55.7563 -55.7539
    -0.2754   0.5998   0.6014   3.1924   3.1949   4.5178   4.6882   4.7169
     4.7572   4.8039   4.8586   4.8676   4.9479   4.9596   4.9932   5.2774
     5.3243   5.4328   5.4816   5.5270   5.5273   5.7106   5.7660   5.8133
     5.8438   5.9232   5.9333   5.9778   5.9955   6.4130   6.4384   6.4821
     6.4984   6.6024   6.6351   6.6375   6.8061   6.9293   7.0157   7.0201
     7.3676   7.4381   7.4884   7.6837   7.9184   8.6019   8.7341   8.8065
     8.9077   9.0646   9.0709   9.5217   9.6742   9.9838  10.4427

          k =-0.0000 0.1463 0.1000 ( 16313 PWs)   bands (ev):

   -95.4504 -95.4504 -95.4504 -95.3813 -95.3813 -95.3813 -55.8678 -55.8677
   -55.8677 -55.8671 -55.8671 -55.8670 -55.8631 -55.8607 -55.8607 -55.8075
   -55.8075 -55.8075 -55.8013 -55.8012 -55.8012 -55.7563 -55.7563 -55.7539
    -0.2193   0.2236   1.0554   2.4992   3.9106   4.5381   4.6544   4.7253
     4.7472   4.8014   4.8182   4.8588   4.9399   4.9430   5.0222   5.2458
     5.3239   5.4073   5.4774   5.5147   5.5771   5.7205   5.7977   5.8340
     5.8586   5.9166   5.9406   5.9814   5.9977   6.3919   6.4253   6.4509
     6.5276   6.6093   6.6351   6.6375   6.7915   6.8510   6.9514   7.0325
     7.1494   7.3157   7.4552   7.8786   8.0655   8.3127   8.7189   8.8832
     8.9648   9.1120   9.3017   9.4567   9.7175   9.9984  10.4289

          k =-0.0000 0.1463-0.1999 ( 16334 PWs)   bands (ev):

   -95.4504 -95.4504 -95.4504 -95.3813 -95.3813 -95.3813 -55.8678 -55.8677
   -55.8677 -55.8671 -55.8670 -55.8670 -55.8631 -55.8607 -55.8607 -55.8075
   -55.8075 -55.8075 -55.8013 -55.8012 -55.8012 -55.7563 -55.7563 -55.7539
    -0.0527  -0.0514   1.3913   2.0790   4.4777   4.4891   4.5832   4.6045
     4.7562   4.7591   4.8346   4.8434   4.9307   4.9344   5.0441   5.2142
     5.3214   5.3914   5.4739   5.5140   5.5689   5.7887   5.8197   5.8696
     5.9177   5.9522   5.9792   5.9857   6.0122   6.0941   6.4375   6.4439
     6.5587   6.6200   6.6350   6.6375   6.7120   6.7413   6.9704   6.9834
     7.0973   7.2658   7.5376   8.0174   8.0364   8.2777   8.4984   8.8290
     9.0602   9.2619   9.2902   9.5916   9.7239  10.0560  10.6003

          k =-0.0000 0.2926 0.0000 ( 16389 PWs)   bands (ev):

   -95.4504 -95.4503 -95.4503 -95.3814 -95.3814 -95.3813 -55.8678 -55.8676
   -55.8676 -55.8671 -55.8670 -55.8669 -55.8631 -55.8545 -55.8545 -55.8076
   -55.8076 -55.8075 -55.8014 -55.8013 -55.8012 -55.7626 -55.7626 -55.7539
     0.0879   0.9534   0.9611   3.4707   3.4892   3.6521   4.2444   4.2720
     4.6993   4.7464   4.8560   4.9230   4.9295   4.9545   5.0389   5.1409
     5.1784   5.2269   5.4532   5.4911   5.5164   5.5858   5.6614   5.7652
     5.7999   5.8214   5.8979   5.9012   5.9402   6.0409   6.0793   6.1114
     6.2388   6.3717   6.3992   6.5235   6.5848   6.6352   6.6366   6.9991
     7.0835   7.2598   7.4750   7.6809   7.9510   8.0912   8.3234   9.0100
     9.0578   9.3585   9.5148   9.9658  10.2739  10.3230  11.0163

          k =-0.0000 0.2926 0.1000 ( 16367 PWs)   bands (ev):

   -95.4504 -95.4503 -95.4503 -95.3814 -95.3814 -95.3813 -55.8678 -55.8676
   -55.8676 -55.8671 -55.8670 -55.8669 -55.8631 -55.8545 -55.8545 -55.8076
   -55.8076 -55.8075 -55.8014 -55.8013 -55.8012 -55.7626 -55.7626 -55.7539
     0.1435   0.5830   1.4103   2.8088   3.6920   4.0041   4.1601   4.4885
     4.7200   4.7492   4.8536   4.8937   4.9040   4.9432   5.0244   5.1096
     5.1779   5.2370   5.4152   5.4996   5.5422   5.6259   5.6692   5.7728
     5.8013   5.8214   5.8621   5.9297   5.9405   6.0478   6.0919   6.1143
     6.2151   6.3684   6.4071   6.5530   6.5946   6.6352   6.6368   6.9494
     6.9975   7.3031   7.3331   7.5471   7.6924   8.1259   8.6664   8.8570
     8.9771   9.6145   9.7147  10.0808  10.3032  10.5176  10.8043

          k =-0.0000 0.2926-0.1999 ( 16360 PWs)   bands (ev):

   -95.4504 -95.4503 -95.4503 -95.3814 -95.3814 -95.3813 -55.8678 -55.8676
   -55.8676 -55.8671 -55.8670 -55.8669 -55.8631 -55.8545 -55.8545 -55.8076
   -55.8076 -55.8075 -55.8014 -55.8013 -55.8012 -55.7626 -55.7626 -55.7539
     0.3066   0.3124   1.7514   2.3890   3.8153   3.8187   4.5416   4.6156
     4.7150   4.7762   4.8145   4.8328   4.8682   4.9318   4.9995   5.0733
     5.1739   5.2512   5.3831   5.5150   5.5590   5.6475   5.7310   5.7815
     5.8107   5.8220   5.8345   5.9072   5.9590   6.0382   6.1035   6.1317
     6.1765   6.3655   6.4176   6.5954   6.6199   6.6351   6.6369   6.8580
     6.9664   7.0572   7.2517   7.4478   7.8335   8.2131   8.4066   8.7742
     9.5481   9.6716   9.8072  10.0908  10.0944  10.4195  11.2365

          k =-0.0000 0.4389 0.0000 ( 16379 PWs)   bands (ev):

   -95.4504 -95.4503 -95.4503 -95.3814 -95.3814 -95.3813 -55.8678 -55.8676
   -55.8676 -55.8671 -55.8669 -55.8669 -55.8631 -55.8472 -55.8472 -55.8077
   -55.8077 -55.8075 -55.8014 -55.8014 -55.8012 -55.7699 -55.7699 -55.7539
     0.6823   1.5202   1.5502   2.5479   3.3065   3.3081   3.9337   3.9421
     4.5458   4.7012   4.7926   4.8839   4.9421   5.0270   5.0529   5.1599
     5.1956   5.2673   5.3900   5.5041   5.5129   5.5518   5.5962   5.7117
     5.7138   5.7300   5.7713   5.8224   5.8425   5.8500   5.8863   5.9827
     6.0280   6.0330   6.0938   6.3139   6.4863   6.6347   6.6352   6.8558
     6.8961   7.1360   7.1873   7.3383   7.3984   8.1519   8.5695   9.0019
     9.3200   9.3824   9.6285  10.2688  10.8355  11.0361  11.2487

          k =-0.0000 0.4389 0.1000 ( 16368 PWs)   bands (ev):

   -95.4504 -95.4503 -95.4503 -95.3814 -95.3814 -95.3813 -55.8678 -55.8676
   -55.8676 -55.8671 -55.8669 -55.8669 -55.8631 -55.8472 -55.8472 -55.8077
   -55.8077 -55.8075 -55.8014 -55.8014 -55.8012 -55.7699 -55.7699 -55.7539
     0.7368   1.1686   1.9771   2.5999   2.9827   3.3044   3.7225   4.3809
     4.5712   4.6865   4.7642   4.8384   4.8945   5.0083   5.0715   5.1527
     5.2239   5.2910   5.4057   5.4824   5.5061   5.5764   5.6238   5.6866
     5.7208   5.7404   5.7581   5.8262   5.8301   5.8507   5.9029   5.9841
     6.0288   6.0354   6.0779   6.3134   6.5343   6.6347   6.6352   6.7342
     6.8742   7.0712   7.2668   7.4894   7.6387   8.1012   8.2868   8.6769
     8.9011   9.5652  10.0375  10.5003  10.7157  11.1367  11.3820

          k =-0.0000 0.4389-0.1999 ( 16370 PWs)   bands (ev):

   -95.4504 -95.4503 -95.4503 -95.3814 -95.3814 -95.3813 -55.8678 -55.8676
   -55.8676 -55.8671 -55.8669 -55.8669 -55.8631 -55.8472 -55.8472 -55.8077
   -55.8077 -55.8075 -55.8014 -55.8014 -55.8012 -55.7699 -55.7699 -55.7539
     0.8900   0.9101   2.3074   2.7264   2.7903   2.8876   4.0636   4.2156
     4.6042   4.6862   4.7839   4.8882   4.9484   4.9532   5.0530   5.1262
     5.2763   5.2997   5.3990   5.4736   5.4946   5.6204   5.6453   5.6511
     5.7307   5.7471   5.7659   5.7841   5.8358   5.8540   5.9228   5.9850
     6.0315   6.0461   6.0487   6.3101   6.5497   6.6347   6.6352   6.7031
     6.8754   7.2279   7.2346   7.4518   7.6828   7.9983   8.4486   8.6460
     8.7404   8.8996  10.5557  10.8203  10.9711  11.0702  11.6378

          k = 0.0000-0.5852 0.0000 ( 16352 PWs)   bands (ev):

   -95.4504 -95.4502 -95.4502 -95.3815 -95.3815 -95.3813 -55.8678 -55.8675
   -55.8675 -55.8671 -55.8669 -55.8668 -55.8631 -55.8438 -55.8438 -55.8078
   -55.8078 -55.8075 -55.8015 -55.8014 -55.8012 -55.7734 -55.7734 -55.7539
     1.3840   1.6056   2.1883   2.3352   2.3621   2.5464   4.2645   4.3242
     4.4789   4.6889   4.7053   4.7162   4.8019   5.0232   5.0919   5.1040
     5.2500   5.2923   5.3917   5.5528   5.5537   5.6287   5.6571   5.6685
     5.7166   5.7206   5.7216   5.7317   5.7435   5.7454   5.7667   5.7810
     5.8772   6.0101   6.0843   6.1976   6.5966   6.6321   6.6341   6.6353
     6.7480   7.0396   7.0799   7.1857   7.3469   8.1612   8.7563   9.1210
     9.3845   9.4991   9.5530  10.2993  10.5150  10.6912  12.1633

          k = 0.0000-0.5852 0.1000 ( 16378 PWs)   bands (ev):

   -95.4504 -95.4502 -95.4502 -95.3815 -95.3815 -95.3813 -55.8678 -55.8675
   -55.8675 -55.8671 -55.8669 -55.8668 -55.8631 -55.8438 -55.8438 -55.8078
   -55.8078 -55.8075 -55.8015 -55.8014 -55.8012 -55.7734 -55.7734 -55.7539
     1.4311   1.6511   1.9034   2.1003   2.6992   2.8989   3.9222   3.9526
     4.4977   4.6639   4.8172   4.8189   4.9456   5.0253   5.1037   5.1560
     5.2326   5.3645   5.4579   5.5119   5.5203   5.6093   5.6693   5.6714
     5.6942   5.6996   5.7217   5.7310   5.7534   5.7567   5.7725   5.7885
     5.9001   6.0098   6.0376   6.1973   6.4956   6.6337   6.6352   6.6592
     6.8597   7.1403   7.2418   7.2482   7.5145   8.0751   8.5078   8.8046
     8.8134   9.0052  10.0683  10.5307  11.2324  11.3593  12.0488

          k = 0.0000-0.5852-0.1999 ( 16368 PWs)   bands (ev):

   -95.4504 -95.4502 -95.4502 -95.3815 -95.3815 -95.3813 -55.8678 -55.8675
   -55.8675 -55.8671 -55.8669 -55.8668 -55.8631 -55.8438 -55.8438 -55.8078
   -55.8078 -55.8075 -55.8015 -55.8014 -55.8012 -55.7734 -55.7734 -55.7539
     1.5153   1.7181   1.7337   1.9210   3.0206   3.3222   3.4958   3.5715
     4.5256   4.6439   4.7751   4.9042   4.9793   5.0431   5.1035   5.2438
     5.3397   5.3968   5.4240   5.5050   5.5457   5.5646   5.6586   5.6640
     5.6857   5.6906   5.7222   5.7284   5.7550   5.7595   5.7761   5.8098
     5.9440   5.9706   6.0094   6.1957   6.4523   6.6335   6.6352   6.6568
     6.8575   7.3672   7.4924   7.5183   7.6367   7.9258   8.0831   8.5029
     8.5604   8.6026  10.6032  11.0818  11.2058  11.4733  12.1692

          k = 0.1267 0.2195 0.0000 ( 16312 PWs)   bands (ev):

   -95.4504 -95.4504 -95.4503 -95.3814 -95.3813 -95.3813 -55.8677 -55.8677
   -55.8676 -55.8671 -55.8670 -55.8670 -55.8607 -55.8607 -55.8545 -55.8076
   -55.8076 -55.8075 -55.8013 -55.8013 -55.8012 -55.7626 -55.7563 -55.7563
    -0.0326   0.8368   0.8413   3.3846   3.3920   4.2175   4.2193   4.5544
     4.6006   4.6807   4.7800   4.9093   4.9810   4.9918   5.0246   5.1130
     5.1539   5.2667   5.4404   5.4990   5.5731   5.6156   5.6574   5.7964
     5.8434   5.8604   5.8926   5.9132   5.9682   6.1454   6.1803   6.1827
     6.2953   6.4217   6.5325   6.5820   6.6007   6.6548   6.7595   6.7707
     6.8134   7.5250   7.6999   8.2269   8.2985   8.4767   8.5770   8.6656
     8.6762   8.8494   9.2561   9.3931   9.9796  10.8201  10.9468

          k = 0.1267 0.2195 0.1000 ( 16346 PWs)   bands (ev):

   -95.4504 -95.4504 -95.4503 -95.3814 -95.3813 -95.3813 -55.8677 -55.8677
   -55.8676 -55.8671 -55.8670 -55.8670 -55.8607 -55.8607 -55.8545 -55.8076
   -55.8076 -55.8075 -55.8013 -55.8013 -55.8012 -55.7626 -55.7563 -55.7563
     0.0231   0.4638   1.2929   2.7070   4.0736   4.2488   4.2544   4.4686
     4.4986   4.7404   4.8230   4.8900   4.9500   4.9964   5.0244   5.1230
     5.1384   5.2679   5.4227   5.5224   5.5624   5.6425   5.6886   5.8059
     5.8406   5.8504   5.9036   5.9118   5.9731   6.1371   6.1617   6.2051
     6.2850   6.4232   6.5186   6.5778   6.6106   6.6562   6.6779   6.8224
     7.0015   7.2280   7.5794   7.9273   8.0454   8.1221   8.6759   8.9113
     9.1395   9.1803   9.3850   9.5887  10.1902  10.6913  10.8521

          k = 0.1267 0.2195-0.1999 ( 16360 PWs)   bands (ev):

   -95.4504 -95.4504 -95.4503 -95.3814 -95.3813 -95.3813 -55.8677 -55.8677
   -55.8676 -55.8671 -55.8670 -55.8670 -55.8607 -55.8607 -55.8545 -55.8076
   -55.8076 -55.8075 -55.8013 -55.8013 -55.8012 -55.7626 -55.7563 -55.7563
     0.1878   0.1913   1.6325   2.2865   4.3112   4.3437   4.3499   4.3842
     4.5792   4.6103   4.8519   4.8701   4.9265   4.9732   5.0526   5.0841
     5.1682   5.2487   5.4144   5.5306   5.5674   5.6768   5.7546   5.7813
     5.8366   5.8808   5.8886   5.9270   5.9815   6.0929   6.1672   6.1888
     6.2864   6.4260   6.5029   6.5747   6.6208   6.6438   6.7333   6.8215
     6.9195   7.1894   7.5117   7.6711   7.9135   7.9465   8.7806   9.0397
     9.2200   9.2668   9.9026  10.0273  10.2647  10.2694  10.6704

          k = 0.1267 0.3658 0.0000 ( 16370 PWs)   bands (ev):

   -95.4504 -95.4503 -95.4503 -95.3814 -95.3814 -95.3813 -55.8678 -55.8677
   -55.8676 -55.8670 -55.8670 -55.8669 -55.8607 -55.8545 -55.8472 -55.8077
   -55.8076 -55.8076 -55.8014 -55.8013 -55.8012 -55.7699 -55.7626 -55.7563
     0.4469   1.3014   1.3148   3.1668   3.7103   3.7585   3.8801   3.9129
     3.9350   4.4646   4.5113   4.9667   4.9869   5.0120   5.0868   5.1630
     5.2450   5.2645   5.4244   5.4718   5.5180   5.5387   5.6305   5.7418
     5.7817   5.7951   5.8440   5.8583   5.8844   5.9109   5.9336   5.9646
     6.0598   6.0951   6.3075   6.3829   6.4989   6.5519   6.6020   6.6252
     6.7274   7.4586   7.5327   7.9185   8.0192   8.2413   8.5351   8.7647
     8.8717   9.3064   9.7207  10.0357  10.4445  11.1340  11.2187

          k = 0.1267 0.3658 0.1000 ( 16342 PWs)   bands (ev):

   -95.4504 -95.4503 -95.4503 -95.3814 -95.3814 -95.3813 -55.8678 -55.8677
   -55.8676 -55.8670 -55.8670 -55.8669 -55.8607 -55.8545 -55.8472 -55.8077
   -55.8076 -55.8076 -55.8014 -55.8013 -55.8012 -55.7699 -55.7626 -55.7563
     0.5020   0.9374   1.7577   3.1009   3.2223   3.5804   3.9670   4.1961
     4.2815   4.3603   4.6936   4.8757   4.9806   5.0250   5.0836   5.1471
     5.2276   5.2783   5.3664   5.4715   5.5425   5.5713   5.6404   5.7445
     5.7537   5.7950   5.8209   5.8701   5.8949   5.9045   5.9434   5.9704
     6.0654   6.1076   6.3024   6.3864   6.4930   6.5461   6.6178   6.6724
     6.8277   7.0759   7.4915   7.7390   7.9855   8.2912   8.4980   8.9568
     9.1670   9.5819   9.7403   9.9490  10.2756  10.7185  11.0793

          k = 0.1267 0.3658-0.1999 ( 16364 PWs)   bands (ev):

   -95.4504 -95.4503 -95.4503 -95.3814 -95.3814 -95.3813 -55.8678 -55.8677
   -55.8676 -55.8670 -55.8670 -55.8669 -55.8607 -55.8545 -55.8472 -55.8077
   -55.8076 -55.8076 -55.8014 -55.8013 -55.8012 -55.7699 -55.7626 -55.7563
     0.6615   0.6714   2.1020   2.6911   3.3454   3.3680   4.0787   4.0860
     4.4919   4.5366   4.7883   4.8512   4.9248   4.9999   5.0831   5.1211
     5.2190   5.2896   5.3309   5.4692   5.5484   5.6197   5.6630   5.6885
     5.7577   5.8003   5.8107   5.8475   5.9041   5.9272   5.9459   5.9729
     6.0700   6.1228   6.2969   6.3891   6.4908   6.5453   6.6318   6.7770
     6.9163   7.0277   7.1492   7.3866   8.0155   8.2285   9.0729   9.1834
     9.3619   9.3865   9.7035   9.8867  10.1554  10.2713  11.5889

          k = 0.1267 0.5121 0.0000 ( 16377 PWs)   bands (ev):

   -95.4504 -95.4503 -95.4502 -95.3815 -95.3814 -95.3813 -55.8678 -55.8676
   -55.8675 -55.8670 -55.8669 -55.8668 -55.8608 -55.8472 -55.8438 -55.8078
   -55.8077 -55.8076 -55.8015 -55.8014 -55.8012 -55.7734 -55.7699 -55.7563
     1.1439   1.9012   2.0077   2.1724   2.8902   2.9276   3.7611   4.2077
     4.2415   4.3595   4.3813   4.8026   4.8721   5.0328   5.1193   5.1715
     5.3268   5.3783   5.4100   5.4903   5.5476   5.5974   5.6494   5.6712
     5.6809   5.6942   5.7239   5.7703   5.7918   5.8094   5.8347   5.8808
     5.9747   6.0032   6.0497   6.2723   6.4767   6.5212   6.5875   6.6435
     6.7054   6.8988   7.0277   7.8203   7.8707   8.2895   8.5302   8.8018
     9.2453   9.8718  10.2726  10.6103  10.7630  10.9277  11.0564

          k = 0.1267 0.5121 0.1000 ( 16380 PWs)   bands (ev):

   -95.4504 -95.4503 -95.4502 -95.3815 -95.3814 -95.3813 -55.8678 -55.8676
   -55.8675 -55.8670 -55.8669 -55.8668 -55.8608 -55.8472 -55.8438 -55.8078
   -55.8077 -55.8076 -55.8015 -55.8014 -55.8012 -55.7734 -55.7699 -55.7563
     1.1970   1.6167   2.1391   2.4195   2.6063   3.3148   3.6953   3.8039
     4.1220   4.2892   4.6228   4.8304   4.9976   5.0598   5.1234   5.1747
     5.3212   5.3580   5.4279   5.4768   5.5398   5.6078   5.6448   5.6617
     5.6819   5.7000   5.7300   5.7644   5.7913   5.8155   5.8344   5.8927
     5.9744   6.0020   6.0374   6.2741   6.4247   6.5193   6.6008   6.6507
     6.7145   6.9512   7.3557   7.5108   8.0068   8.2529   8.4253   8.9306
     8.9987   9.5852   9.9703  10.6725  10.9219  11.1420  11.4464

          k = 0.1267 0.5121-0.1999 ( 16374 PWs)   bands (ev):

   -95.4504 -95.4503 -95.4502 -95.3815 -95.3814 -95.3813 -55.8678 -55.8676
   -55.8675 -55.8670 -55.8669 -55.8668 -55.8608 -55.8472 -55.8438 -55.8078
   -55.8077 -55.8076 -55.8015 -55.8014 -55.8012 -55.7734 -55.7699 -55.7563
     1.3368   1.3775   2.2867   2.3010   2.8305   3.2646   3.7106   3.9111
     3.9298   3.9565   4.7696   4.9379   5.0058   5.1034   5.1275   5.1835
     5.3217   5.3530   5.4043   5.4836   5.5358   5.6072   5.6351   5.6673
     5.6866   5.7065   5.7284   5.7626   5.7812   5.8240   5.8343   5.9106
     5.9757   5.9950   6.0247   6.2744   6.4082   6.4857   6.6019   6.6063
     6.8332   7.1269   7.4095   7.5132   7.9941   8.1902   8.3609   8.5697
     9.2447   9.3562  10.1341  10.1584  10.9760  11.1369  12.1892

          k = 0.2534 0.4389 0.0000 ( 16380 PWs)   bands (ev):

   -95.4503 -95.4503 -95.4502 -95.3815 -95.3814 -95.3814 -55.8677 -55.8677
   -55.8675 -55.8670 -55.8670 -55.8668 -55.8545 -55.8545 -55.8438 -55.8078
   -55.8077 -55.8077 -55.8015 -55.8014 -55.8013 -55.7734 -55.7626 -55.7626
     1.0338   1.8635   1.8878   2.7925   2.9354   3.5502   3.5783   3.6422
     3.6692   4.1664   4.1872   4.8970   5.0115   5.0987   5.1331   5.2173
     5.2422   5.2932   5.4549   5.4666   5.5372   5.6022   5.6049   5.6629
     5.7301   5.7473   5.7616   5.7692   5.7870   5.8839   5.8853   5.9186
     5.9559   5.9575   6.2322   6.2416   6.3448   6.4635   6.5070   6.6371
     6.6633   7.2848   7.3303   7.3791   7.5853   8.9460   9.1518   9.4043
     9.5684   9.7051   9.9439  10.1680  10.6977  10.8342  11.1335

          k = 0.2534 0.4389 0.1000 ( 16361 PWs)   bands (ev):

   -95.4503 -95.4503 -95.4502 -95.3815 -95.3814 -95.3814 -55.8677 -55.8677
   -55.8675 -55.8670 -55.8670 -55.8668 -55.8545 -55.8545 -55.8438 -55.8078
   -55.8077 -55.8077 -55.8015 -55.8014 -55.8013 -55.7734 -55.7626 -55.7626
     1.0878   1.5142   2.3106   2.8406   2.9829   3.2473   3.3518   3.5848
     3.9766   4.0136   4.5541   4.7314   4.9376   5.1462   5.1580   5.2222
     5.2399   5.2955   5.4440   5.4784   5.5431   5.5999   5.6118   5.6708
     5.7023   5.7361   5.7545   5.7776   5.8019   5.8840   5.8960   5.9110
     5.9326   6.0029   6.2229   6.2491   6.3416   6.4677   6.5340   6.5645
     6.8716   6.8921   7.0643   7.7948   8.0858   8.6006   9.0280   9.3692
     9.6213   9.6835   9.9700  10.2053  10.2465  10.3513  11.2551

          k = 0.2534 0.4389-0.1999 ( 16354 PWs)   bands (ev):

   -95.4503 -95.4503 -95.4502 -95.3815 -95.3814 -95.3814 -55.8677 -55.8677
   -55.8675 -55.8670 -55.8670 -55.8668 -55.8545 -55.8545 -55.8438 -55.8078
   -55.8077 -55.8077 -55.8015 -55.8013 -55.8013 -55.7734 -55.7626 -55.7626
     1.2408   1.2574   2.6359   2.9426   3.0561   3.1107   3.1626   3.1842
     4.3370   4.3492   4.4086   4.4089   5.0377   5.1203   5.1801   5.2028
     5.2598   5.2970   5.4413   5.4843   5.5397   5.6025   5.6385   5.6436
     5.6942   5.7282   5.7480   5.7859   5.8101   5.8839   5.9019   5.9094
     5.9216   6.0338   6.2160   6.2536   6.3378   6.4713   6.5664   6.5733
     6.7304   6.8187   7.4260   7.4328   8.6513   8.8609   8.9806   9.1024
     9.1955   9.6100   9.7398   9.8924  10.3054  10.4516  11.6707

          k = 0.2534 0.5852 0.0000 ( 16380 PWs)   bands (ev):

   -95.4503 -95.4503 -95.4503 -95.3814 -95.3814 -95.3814 -55.8677 -55.8676
   -55.8676 -55.8670 -55.8669 -55.8669 -55.8545 -55.8473 -55.8472 -55.8077
   -55.8077 -55.8077 -55.8014 -55.8014 -55.8013 -55.7699 -55.7699 -55.7626
     1.7327   1.9365   2.4997   2.6324   2.6456   2.8448   2.8621   3.5225
     3.5351   4.4882   4.5281   4.7192   4.8955   5.0044   5.1578   5.2330
     5.2922   5.3806   5.3906   5.4725   5.4765   5.5817   5.5829   5.6679
     5.7165   5.7499   5.7599   5.7707   5.8190   5.8613   5.8627   5.9205
     5.9359   5.9994   6.0182   6.2081   6.3734   6.4097   6.4559   6.7720
     6.7860   6.8518   7.0233   7.2612   7.4768   9.1508   9.5240   9.7047
     9.9419  10.3413  10.3582  10.5862  10.7633  10.8627  11.0017

          k = 0.2534 0.5852 0.1000 ( 16361 PWs)   bands (ev):

   -95.4503 -95.4503 -95.4503 -95.3814 -95.3814 -95.3814 -55.8677 -55.8676
   -55.8676 -55.8670 -55.8669 -55.8669 -55.8545 -55.8473 -55.8472 -55.8077
   -55.8077 -55.8077 -55.8014 -55.8014 -55.8013 -55.7699 -55.7699 -55.7626
     1.7817   1.9811   2.2288   2.4063   2.8186   3.0274   3.1673   3.2593
     3.9019   4.1747   4.1900   4.6649   5.0435   5.1039   5.2205   5.2336
     5.2956   5.3857   5.3928   5.4424   5.4635   5.5698   5.6044   5.6325
     5.7083   5.7588   5.7696   5.7928   5.8244   5.8453   5.8818   5.9141
     5.9406   5.9980   6.0165   6.2090   6.3456   6.4440   6.4824   6.5787
     6.6547   6.9198   7.2376   7.4130   7.9580   8.9445   9.1978   9.2506
     9.6314  10.0063  10.3370  10.7382  10.8341  10.9763  11.1179

          k = 0.2534 0.5852-0.1999 ( 16362 PWs)   bands (ev):

   -95.4503 -95.4503 -95.4503 -95.3814 -95.3814 -95.3814 -55.8677 -55.8676
   -55.8676 -55.8670 -55.8669 -55.8669 -55.8545 -55.8473 -55.8472 -55.8077
   -55.8077 -55.8077 -55.8014 -55.8014 -55.8013 -55.7699 -55.7699 -55.7626
     1.8774   2.0334   2.0643   2.2358   2.9450   2.9787   3.3667   3.6282
     3.7585   3.8160   4.2841   4.3558   5.1194   5.2266   5.2319   5.2725
     5.2976   5.3861   5.3944   5.4042   5.4415   5.5854   5.5916   5.6109
     5.7076   5.7590   5.7697   5.8151   5.8307   5.8422   5.8888   5.9115
     5.9429   5.9962   6.0148   6.2099   6.3297   6.4839   6.5174   6.5324
     6.5594   6.7517   7.7162   7.8268   8.1720   8.4768   8.9250   9.0578
     9.2968   9.6892  10.6209  10.6954  10.7933  11.0391  11.0405

     the Fermi energy is     7.2435 ev

!    total energy              =   -2463.74086161 Ry
     estimated scf accuracy    <          3.8E-11 Ry
     smearing contrib. (-TS)   =       0.00068290 Ry
     internal energy E=F+TS    =   -2463.74154451 Ry

     The total energy is F=E-TS. E is the sum of the following terms:
     one-electron contribution =   -2149.91810970 Ry
     hartree contribution      =    1117.02800141 Ry
     xc contribution           =    -233.38688058 Ry
     ewald contribution        =    -821.27873584 Ry
     DFT-D3 Dispersion         =      -0.44246744 Ry
     one-center paw contrib.   =    -375.74335236 Ry

     convergence has been achieved in   9 iterations

     Forces acting on atoms (cartesian axes, Ry/au):

     atom    1 type  1   force =     0.00070600   -0.00040761   -0.00000000
     atom    2 type  1   force =    -0.00000000    0.00081522    0.00000000
     atom    3 type  1   force =    -0.00070600    0.00040761    0.00000000
     atom    4 type  1   force =     0.00000000   -0.00081522    0.00000000
     atom    5 type  1   force =    -0.00070600   -0.00040761    0.00000000
     atom    6 type  1   force =     0.00070600    0.00040761   -0.00000000
     atom    7 type  1   force =     0.00000000    0.00000000    0.00164110
     atom    8 type  1   force =     0.00000000    0.00000000   -0.00164110
     atom    9 type  1   force =     0.00000000    0.00000000   -0.00164110
     atom   10 type  1   force =    -0.00000000   -0.00000000    0.00164110
     atom   11 type  1   force =     0.00000000    0.00000000   -0.00164110
     atom   12 type  1   force =     0.00000000    0.00000000    0.00164110
     atom   13 type  2   force =     0.00000000    0.00000000    0.00000000
     atom   14 type  2   force =     0.00000000    0.00000000   -0.00000000
     atom   15 type  2   force =     0.00000000    0.00000000    0.00000000
     atom   16 type  2   force =     0.00000000    0.00000000    0.00000000
     atom   17 type  2   force =     0.00000000    0.00000000   -0.00000000
     atom   18 type  2   force =    -0.00000000   -0.00000000    0.00000000

     Total force =     0.004489     Total SCF correction =     0.000001


     Computing stress (Cartesian axis) and pressure

          total   stress  (Ry/bohr**3)                   (kbar)     P=        0.61
   0.00000459  -0.00000000   0.00000000            0.68       -0.00        0.00
  -0.00000000   0.00000459   0.00000000           -0.00        0.68        0.00
   0.00000000   0.00000000   0.00000328            0.00        0.00        0.48

     Energy error            =      4.6E-05 Ry
     Gradient error          =      1.6E-03 Ry/Bohr
     Cell gradient error     =      6.8E-01 kbar

     number of scf cycles    =   6
     number of bfgs steps    =   5

     enthalpy           old  =   -2463.7408153906 Ry
     enthalpy           new  =   -2463.7408616078 Ry

     CASE: enthalpy          _new < enthalpy          _old

     new trust radius        =       0.0050187152 bohr
     new conv_thr            =            4.6E-11 Ry

     new unit-cell volume =   1997.34844 a.u.^3 (   295.97650 Ang^3 )
     density =      3.61207 g/cm^3

CELL_PARAMETERS (angstrom)
   5.128185851   0.000000000   0.000000000
  -2.564092926   4.441139222   0.000000000
   0.000000000   0.000000000  12.995682410

ATOMIC_POSITIONS (angstrom)
Mg              -1.2959124312        3.7089548725       10.8297353420
Mg               0.0000000000        1.4643686996        6.4978412052
Mg               3.8600053568        0.7321843499       10.8297353420
Mg               2.5640929255        2.9767705228        6.4978412052
Mg               1.2959124312        3.7089548725        2.1659470684
Mg               1.2681804944        0.7321843499        2.1659470684
Mg               1.2820464628        2.2205696112        9.3319957650
Mg               2.5640929255        0.0000000000        7.9955807822
Mg               1.2820464628        2.2205696112       12.3274749189
Mg               2.5640929255        0.0000000000        5.0001016283
Mg               3.8461393883        2.2205696112        3.6636866454
Mg               3.8461393883        2.2205696112        0.6682074915
Ni               1.2820464628        2.2205696112        4.3318941367
Ni               2.5640929255        0.0000000000       -0.0000000000
Ni               3.8461393883        2.2205696112        8.6637882736
Ni               0.0000000000        0.0000000000        4.3318941367
Ni               0.0000000000        0.0000000000       -0.0000000000
Ni              -0.0000000000       -0.0000000000        8.6637882736



     Writing config-only to output data dir ./outdir/mg2ni.save/ :
     XML data file
     NEW-OLD atomic charge density approx. for the potential
     New effective cutoffs (rho, wfc):  495.05   61.92

     Check: negative core charge=   -0.000001

     total cpu time spent up to now is      340.7 secs

     Self-consistent Calculation

     iteration #  1     ecut=    60.00 Ry     beta= 0.30
     Davidson diagonalization with overlap
     ethr =  1.00E-06,  avg # of iterations =  2.0

     Threshold (ethr) on eigenvalues was too large:
     Diagonalizing with lowered threshold

     Davidson diagonalization with overlap
     ethr =  2.44E-09,  avg # of iterations =  2.3

     total cpu time spent up to now is      347.1 secs

     total energy              =   -2463.74091095 Ry
     estimated scf accuracy    <       0.00000335 Ry

     iteration #  2     ecut=    60.00 Ry     beta= 0.30
     Davidson diagonalization with overlap
     ethr =  2.54E-09,  avg # of iterations =  2.0

     total cpu time spent up to now is      350.0 secs

     total energy              =   -2463.74091067 Ry
     estimated scf accuracy    <       0.00000512 Ry

     iteration #  3     ecut=    60.00 Ry     beta= 0.30
     Davidson diagonalization with overlap
     ethr =  2.54E-09,  avg # of iterations =  2.4

     total cpu time spent up to now is      353.2 secs

     total energy              =   -2463.74091104 Ry
     estimated scf accuracy    <       0.00000246 Ry

     iteration #  4     ecut=    60.00 Ry     beta= 0.30
     Davidson diagonalization with overlap
     ethr =  1.86E-09,  avg # of iterations =  2.1

     total cpu time spent up to now is      356.0 secs

     total energy              =   -2463.74091114 Ry
     estimated scf accuracy    <       0.00000234 Ry

     iteration #  5     ecut=    60.00 Ry     beta= 0.30
     Davidson diagonalization with overlap
     ethr =  1.77E-09,  avg # of iterations =  1.0

     total cpu time spent up to now is      358.3 secs

     total energy              =   -2463.74091131 Ry
     estimated scf accuracy    <       0.00000004 Ry

     iteration #  6     ecut=    60.00 Ry     beta= 0.30
     Davidson diagonalization with overlap
     ethr =  2.86E-11,  avg # of iterations =  4.2

     total cpu time spent up to now is      363.1 secs

     total energy              =   -2463.74091133 Ry
     estimated scf accuracy    <       0.00000008 Ry

     iteration #  7     ecut=    60.00 Ry     beta= 0.30
     Davidson diagonalization with overlap
     ethr =  2.86E-11,  avg # of iterations =  1.8

     total cpu time spent up to now is      365.9 secs

     total energy              =   -2463.74091133 Ry
     estimated scf accuracy    <          2.8E-09 Ry

     iteration #  8     ecut=    60.00 Ry     beta= 0.30
     Davidson diagonalization with overlap
     ethr =  2.15E-12,  avg # of iterations =  3.1

     total cpu time spent up to now is      369.6 secs

     total energy              =   -2463.74091133 Ry
     estimated scf accuracy    <          3.6E-10 Ry

     iteration #  9     ecut=    60.00 Ry     beta= 0.30
     Davidson diagonalization with overlap
     ethr =  2.71E-13,  avg # of iterations =  2.0

     total cpu time spent up to now is      372.7 secs

     total energy              =   -2463.74091133 Ry
     estimated scf accuracy    <          1.2E-10 Ry

     iteration # 10     ecut=    60.00 Ry     beta= 0.30
     Davidson diagonalization with overlap
     ethr =  1.00E-13,  avg # of iterations =  2.3

     total cpu time spent up to now is      375.7 secs

     End of self-consistent calculation

          k = 0.0000 0.0000 0.0000 ( 16309 PWs)   bands (ev):

   -95.4506 -95.4506 -95.4506 -95.3800 -95.3800 -95.3800 -55.8676 -55.8676
   -55.8676 -55.8676 -55.8676 -55.8675 -55.8630 -55.8630 -55.8630 -55.8061
   -55.8061 -55.8061 -55.7999 -55.7999 -55.7998 -55.7531 -55.7531 -55.7531
    -0.3973   0.4812   0.4812   3.0939   3.0939   4.7026   4.7026   4.7738
     4.7832   4.8455   4.8455   4.8617   4.9141   4.9826   4.9826   5.4395
     5.4830   5.5047   5.5047   5.5550   5.5550   5.7997   5.7997   5.8432
     5.8432   5.9287   6.0579   6.0633   6.0633   6.6343   6.6343   6.6362
     6.6387   6.6387   6.6387   6.8514   6.8681   6.8681   7.1558   7.5462
     7.6484   7.6484   7.8789   7.8789   7.9349   8.3149   8.5342   8.5342
     8.6012   8.7954   8.7954   8.9800   9.6444   9.6444  10.5376

          k = 0.0000 0.0000 0.1000 ( 16316 PWs)   bands (ev):

   -95.4506 -95.4506 -95.4506 -95.3800 -95.3800 -95.3800 -55.8676 -55.8676
   -55.8676 -55.8676 -55.8676 -55.8675 -55.8630 -55.8630 -55.8630 -55.8061
   -55.8061 -55.8061 -55.7999 -55.7999 -55.7998 -55.7531 -55.7531 -55.7531
    -0.3411   0.1031   0.9370   2.3931   3.8245   4.7100   4.7121   4.7248
     4.7629   4.8190   4.8492   4.8591   4.9185   4.9543   5.0082   5.4520
     5.4803   5.4921   5.4931   5.5041   5.6323   5.7370   5.8401   5.8464
     5.9083   5.9311   6.0583   6.0614   6.0658   6.6338   6.6350   6.6361
     6.6385   6.6387   6.6387   6.6778   6.9249   6.9290   6.9408   7.3816
     7.4149   7.4322   8.0249   8.0548   8.1388   8.4923   8.5553   8.5595
     8.7399   8.7603   8.8405   9.0544   9.6175   9.6326  10.2652

          k = 0.0000 0.0000-0.2000 ( 16334 PWs)   bands (ev):

   -95.4506 -95.4506 -95.4506 -95.3800 -95.3800 -95.3800 -55.8676 -55.8676
   -55.8676 -55.8676 -55.8675 -55.8675 -55.8630 -55.8630 -55.8630 -55.8061
   -55.8061 -55.8061 -55.7999 -55.7999 -55.7999 -55.7531 -55.7531 -55.7531
    -0.1734  -0.1734   1.2724   1.9721   4.4236   4.4236   4.7195   4.7358
     4.7358   4.8020   4.8554   4.8554   4.9319   4.9319   5.0190   5.4570
     5.4810   5.4810   5.4851   5.5391   5.5391   5.8365   5.8695   5.8695
     5.9850   6.0551   6.0551   6.0682   6.0735   6.0735   6.6336   6.6356
     6.6356   6.6386   6.6388   6.6388   7.0400   7.0938   7.0938   7.1658
     7.1658   7.2470   8.1339   8.1339   8.2970   8.4684   8.5683   8.5683
     8.7491   8.8622   8.8622   9.4196   9.4196   9.6276  10.0352

          k =-0.0000 0.1463 0.0000 ( 16313 PWs)   bands (ev):

   -95.4506 -95.4506 -95.4506 -95.3800 -95.3800 -95.3800 -55.8676 -55.8676
   -55.8676 -55.8676 -55.8675 -55.8675 -55.8630 -55.8607 -55.8606 -55.8062
   -55.8062 -55.8061 -55.7999 -55.7999 -55.7999 -55.7555 -55.7555 -55.7531
    -0.2753   0.6004   0.6020   3.1926   3.1951   4.5183   4.6893   4.7178
     4.7584   4.8049   4.8601   4.8688   4.9485   4.9602   4.9937   5.2771
     5.3244   5.4319   5.4817   5.5267   5.5271   5.7119   5.7674   5.8142
     5.8446   5.9233   5.9348   5.9792   5.9972   6.4137   6.4390   6.4824
     6.4984   6.6025   6.6352   6.6381   6.8059   6.9293   7.0157   7.0189
     7.3694   7.4385   7.4883   7.6851   7.9187   8.5981   8.7347   8.8068
     8.9068   9.0638   9.0697   9.5202   9.6701   9.9803  10.4398

          k =-0.0000 0.1463 0.1000 ( 16313 PWs)   bands (ev):

   -95.4506 -95.4506 -95.4506 -95.3800 -95.3800 -95.3800 -55.8676 -55.8676
   -55.8676 -55.8676 -55.8675 -55.8675 -55.8630 -55.8607 -55.8606 -55.8062
   -55.8062 -55.8061 -55.7999 -55.7999 -55.7999 -55.7555 -55.7555 -55.7531
    -0.2193   0.2239   1.0567   2.4986   3.9113   4.5386   4.6554   4.7262
     4.7485   4.8021   4.8199   4.8600   4.9403   4.9436   5.0228   5.2460
     5.3239   5.4064   5.4771   5.5150   5.5770   5.7212   5.7989   5.8348
     5.8594   5.9170   5.9422   5.9829   5.9994   6.3923   6.4261   6.4516
     6.5278   6.6094   6.6352   6.6381   6.7912   6.8511   6.9517   7.0320
     7.1496   7.3160   7.4553   7.8804   8.0659   8.3123   8.7181   8.8807
     8.9632   9.1110   9.3006   9.4551   9.7140   9.9948  10.4253

          k =-0.0000 0.1463-0.2000 ( 16334 PWs)   bands (ev):

   -95.4506 -95.4506 -95.4506 -95.3800 -95.3800 -95.3800 -55.8676 -55.8676
   -55.8676 -55.8676 -55.8675 -55.8675 -55.8630 -55.8607 -55.8606 -55.8062
   -55.8062 -55.8061 -55.7999 -55.7999 -55.7999 -55.7555 -55.7555 -55.7531
    -0.0525  -0.0513   1.3941   2.0769   4.4789   4.4902   4.5836   4.6053
     4.7572   4.7601   4.8358   4.8446   4.9312   4.9348   5.0447   5.2147
     5.3215   5.3906   5.4732   5.5145   5.5694   5.7896   5.8204   5.8697
     5.9188   5.9534   5.9807   5.9865   6.0136   6.0945   6.4384   6.4446
     6.5590   6.6200   6.6351   6.6381   6.7124   6.7411   6.9702   6.9835
     7.0967   7.2654   7.5392   8.0189   8.0357   8.2797   8.4963   8.8266
     9.0591   9.2589   9.2885   9.5899   9.7211  10.0525  10.5950

          k =-0.0000 0.2926 0.0000 ( 16389 PWs)   bands (ev):

   -95.4506 -95.4505 -95.4505 -95.3801 -95.3801 -95.3800 -55.8676 -55.8676
   -55.8675 -55.8675 -55.8675 -55.8674 -55.8630 -55.8545 -55.8545 -55.8063
   -55.8063 -55.8062 -55.8000 -55.8000 -55.7999 -55.7617 -55.7617 -55.7531
     0.0879   0.9540   0.9617   3.4706   3.4894   3.6519   4.2447   4.2723
     4.7001   4.7467   4.8563   4.9240   4.9304   4.9555   5.0396   5.1413
     5.1789   5.2273   5.4533   5.4914   5.5170   5.5861   5.6626   5.7663
     5.8005   5.8227   5.8992   5.9026   5.9406   6.0421   6.0802   6.1124
     6.2391   6.3722   6.3997   6.5235   6.5843   6.6353   6.6373   6.9983
     7.0832   7.2593   7.4754   7.6822   7.9501   8.0906   8.3243   9.0071
     9.0582   9.3574   9.5145   9.9640  10.2712  10.3216  11.0130

          k =-0.0000 0.2926 0.1000 ( 16367 PWs)   bands (ev):

   -95.4506 -95.4505 -95.4505 -95.3801 -95.3801 -95.3800 -55.8676 -55.8676
   -55.8675 -55.8675 -55.8675 -55.8674 -55.8630 -55.8545 -55.8545 -55.8063
   -55.8063 -55.8062 -55.8000 -55.8000 -55.7999 -55.7617 -55.7617 -55.7531
     0.1435   0.5833   1.4115   2.8082   3.6916   4.0038   4.1611   4.4892
     4.7208   4.7494   4.8542   4.8945   4.9048   4.9440   5.0251   5.1102
     5.1785   5.2373   5.4150   5.4998   5.5429   5.6267   5.6703   5.7735
     5.8019   5.8226   5.8630   5.9304   5.9419   6.0487   6.0928   6.1153
     6.2156   6.3688   6.4076   6.5529   6.5942   6.6353   6.6375   6.9487
     6.9972   7.3040   7.3324   7.5468   7.6936   8.1248   8.6663   8.8572
     8.9742   9.6133   9.7148  10.0788  10.3006  10.5167  10.8044

          k =-0.0000 0.2926-0.2000 ( 16360 PWs)   bands (ev):

   -95.4506 -95.4505 -95.4505 -95.3801 -95.3801 -95.3800 -55.8676 -55.8676
   -55.8675 -55.8675 -55.8675 -55.8674 -55.8630 -55.8545 -55.8545 -55.8063
   -55.8063 -55.8062 -55.8000 -55.8000 -55.7999 -55.7617 -55.7617 -55.7531
     0.3067   0.3125   1.7540   2.3869   3.8149   3.8184   4.5431   4.6165
     4.7159   4.7764   4.8153   4.8334   4.8688   4.9322   5.0000   5.0745
     5.1745   5.2515   5.3826   5.5152   5.5601   5.6490   5.7319   5.7816
     5.8115   5.8227   5.8353   5.9075   5.9608   6.0387   6.1047   6.1328
     6.1773   6.3659   6.4182   6.5949   6.6197   6.6352   6.6376   6.8580
     6.9660   7.0579   7.2505   7.4476   7.8353   8.2107   8.4076   8.7707
     9.5482   9.6712   9.8068  10.0885  10.0930  10.4171  11.2338

          k =-0.0000 0.4389 0.0000 ( 16379 PWs)   bands (ev):

   -95.4506 -95.4504 -95.4504 -95.3802 -95.3802 -95.3800 -55.8676 -55.8676
   -55.8674 -55.8674 -55.8674 -55.8674 -55.8630 -55.8473 -55.8473 -55.8064
   -55.8064 -55.8062 -55.8001 -55.8001 -55.7999 -55.7689 -55.7689 -55.7531
     0.6822   1.5206   1.5506   2.5473   3.3064   3.3081   3.9342   3.9426
     4.5461   4.7011   4.7928   4.8847   4.9429   5.0283   5.0536   5.1606
     5.1965   5.2680   5.3905   5.5051   5.5134   5.5522   5.5965   5.7126
     5.7143   5.7312   5.7723   5.8231   5.8437   5.8513   5.8876   5.9830
     6.0283   6.0338   6.0945   6.3137   6.4861   6.6353   6.6354   6.8552
     6.8951   7.1357   7.1877   7.3383   7.3981   8.1507   8.5711   9.0023
     9.3172   9.3825   9.6272  10.2686  10.8384  11.0349  11.2480

          k =-0.0000 0.4389 0.1000 ( 16368 PWs)   bands (ev):

   -95.4506 -95.4504 -95.4504 -95.3802 -95.3802 -95.3800 -55.8676 -55.8676
   -55.8674 -55.8674 -55.8674 -55.8674 -55.8630 -55.8473 -55.8473 -55.8064
   -55.8064 -55.8062 -55.8001 -55.8000 -55.7999 -55.7689 -55.7689 -55.7531
     0.7368   1.1688   1.9781   2.5993   2.9826   3.3039   3.7232   4.3817
     4.5715   4.6864   4.7647   4.8389   4.8949   5.0094   5.0722   5.1537
     5.2249   5.2918   5.4061   5.4835   5.5060   5.5774   5.6242   5.6878
     5.7215   5.7411   5.7589   5.8271   5.8310   5.8519   5.9043   5.9846
     6.0291   6.0361   6.0786   6.3132   6.5340   6.6353   6.6354   6.7332
     6.8737   7.0714   7.2665   7.4898   7.6388   8.0996   8.2878   8.6772
     8.8987   9.5647  10.0373  10.5004  10.7158  11.1360  11.3800

          k =-0.0000 0.4389-0.2000 ( 16370 PWs)   bands (ev):

   -95.4506 -95.4504 -95.4504 -95.3802 -95.3802 -95.3800 -55.8676 -55.8676
   -55.8674 -55.8674 -55.8674 -55.8674 -55.8630 -55.8473 -55.8473 -55.8064
   -55.8064 -55.8062 -55.8001 -55.8000 -55.7999 -55.7689 -55.7689 -55.7531
     0.8901   0.9101   2.3095   2.7262   2.7902   2.8854   4.0659   4.2145
     4.6044   4.6858   4.7851   4.8886   4.9489   4.9541   5.0536   5.1272
     5.2774   5.3009   5.3987   5.4748   5.4946   5.6216   5.6467   5.6517
     5.7313   5.7477   5.7662   5.7849   5.8366   5.8553   5.9243   5.9855
     6.0319   6.0466   6.0495   6.3100   6.5492   6.6353   6.6353   6.7019
     6.8750   7.2286   7.2350   7.4518   7.6841   7.9960   8.4489   8.6426
     8.7413   8.8994  10.5545  10.8212  10.9693  11.0700  11.6364

          k = 0.0000-0.5851 0.0000 ( 16352 PWs)   bands (ev):

   -95.4506 -95.4504 -95.4504 -95.3802 -95.3802 -95.3800 -55.8676 -55.8676
   -55.8674 -55.8674 -55.8674 -55.8673 -55.8630 -55.8439 -55.8439 -55.8064
   -55.8064 -55.8062 -55.8001 -55.8001 -55.7999 -55.7723 -55.7723 -55.7531
     1.3846   1.6044   2.1888   2.3369   2.3608   2.5462   4.2653   4.3249
     4.4790   4.6892   4.7066   4.7153   4.8021   5.0240   5.0923   5.1054
     5.2508   5.2929   5.3922   5.5531   5.5550   5.6303   5.6570   5.6684
     5.7168   5.7216   5.7221   5.7326   5.7437   5.7469   5.7681   5.7825
     5.8784   6.0105   6.0851   6.1975   6.5964   6.6313   6.6347   6.6354
     6.7473   7.0398   7.0798   7.1858   7.3466   8.1599   8.7569   9.1193
     9.3881   9.4957   9.5521  10.3021  10.5146  10.6910  12.1627

          k = 0.0000-0.5851 0.1000 ( 16378 PWs)   bands (ev):

   -95.4506 -95.4504 -95.4504 -95.3802 -95.3802 -95.3800 -55.8676 -55.8676
   -55.8674 -55.8674 -55.8674 -55.8673 -55.8630 -55.8439 -55.8439 -55.8064
   -55.8064 -55.8062 -55.8001 -55.8001 -55.7999 -55.7723 -55.7723 -55.7531
     1.4317   1.6499   1.9041   2.0992   2.7009   2.8987   3.9226   3.9524
     4.4979   4.6635   4.8186   4.8192   4.9460   5.0259   5.1051   5.1565
     5.2336   5.3652   5.4587   5.5119   5.5215   5.6107   5.6696   5.6715
     5.6951   5.7004   5.7222   5.7319   5.7535   5.7583   5.7739   5.7893
     5.9012   6.0102   6.0383   6.1973   6.4953   6.6344   6.6353   6.6580
     6.8591   7.1412   7.2416   7.2480   7.5145   8.0734   8.5089   8.8061
     8.8114   9.0038  10.0682  10.5305  11.2327  11.3599  12.0478

          k = 0.0000-0.5851-0.2000 ( 16368 PWs)   bands (ev):

   -95.4506 -95.4504 -95.4504 -95.3802 -95.3802 -95.3800 -55.8676 -55.8676
   -55.8674 -55.8674 -55.8674 -55.8673 -55.8630 -55.8439 -55.8439 -55.8064
   -55.8064 -55.8062 -55.8001 -55.8001 -55.7999 -55.7723 -55.7723 -55.7531
     1.5160   1.7187   1.7328   1.9196   3.0234   3.3243   3.4931   3.5707
     4.5258   4.6435   4.7761   4.9045   4.9801   5.0435   5.1049   5.2447
     5.3417   5.3978   5.4234   5.5060   5.5464   5.5658   5.6593   5.6647
     5.6862   5.6915   5.7226   5.7291   5.7549   5.7611   5.7777   5.8101
     5.9459   5.9706   6.0098   6.1958   6.4520   6.6340   6.6353   6.6556
     6.8570   7.3674   7.4935   7.5190   7.6359   7.9236   8.0849   8.5028
     8.5608   8.5994  10.6026  11.0803  11.2073  11.4737  12.1686

          k = 0.1267 0.2194 0.0000 ( 16312 PWs)   bands (ev):

   -95.4506 -95.4506 -95.4505 -95.3801 -95.3800 -95.3800 -55.8676 -55.8676
   -55.8675 -55.8675 -55.8675 -55.8674 -55.8607 -55.8606 -55.8545 -55.8063
   -55.8062 -55.8062 -55.8000 -55.7999 -55.7999 -55.7617 -55.7555 -55.7555
    -0.0327   0.8374   0.8419   3.3848   3.3922   4.2170   4.2196   4.5552
     4.6015   4.6809   4.7804   4.9106   4.9817   4.9921   5.0254   5.1135
     5.1544   5.2669   5.4406   5.4990   5.5731   5.6166   5.6586   5.7974
     5.8440   5.8618   5.8941   5.9134   5.9698   6.1464   6.1810   6.1835
     6.2955   6.4222   6.5326   6.5822   6.6007   6.6550   6.7599   6.7709
     6.8138   7.5241   7.7015   8.2265   8.2988   8.4771   8.5778   8.6641
     8.6727   8.8498   9.2541   9.3899   9.9787  10.8171  10.9455

          k = 0.1267 0.2194 0.1000 ( 16346 PWs)   bands (ev):

   -95.4506 -95.4506 -95.4505 -95.3801 -95.3800 -95.3800 -55.8676 -55.8676
   -55.8675 -55.8675 -55.8675 -55.8674 -55.8607 -55.8606 -55.8545 -55.8063
   -55.8062 -55.8062 -55.8000 -55.7999 -55.7999 -55.7617 -55.7555 -55.7555
     0.0231   0.4641   1.2941   2.7064   4.0744   4.2484   4.2547   4.4689
     4.4993   4.7412   4.8236   4.8912   4.9503   4.9972   5.0252   5.1237
     5.1389   5.2680   5.4225   5.5228   5.5626   5.6433   5.6901   5.8064
     5.8418   5.8509   5.9044   5.9131   5.9747   6.1377   6.1625   6.2059
     6.2856   6.4236   6.5186   6.5780   6.6107   6.6564   6.6783   6.8229
     7.0021   7.2287   7.5783   7.9271   8.0437   8.1220   8.6773   8.9087
     9.1399   9.1786   9.3833   9.5864  10.1895  10.6889  10.8490

          k = 0.1267 0.2194-0.2000 ( 16360 PWs)   bands (ev):

   -95.4506 -95.4506 -95.4505 -95.3801 -95.3800 -95.3800 -55.8676 -55.8676
   -55.8675 -55.8675 -55.8675 -55.8674 -55.8607 -55.8606 -55.8545 -55.8063
   -55.8062 -55.8062 -55.8000 -55.7999 -55.7999 -55.7617 -55.7555 -55.7555
     0.1879   0.1914   1.6352   2.2844   4.3113   4.3440   4.3499   4.3844
     4.5801   4.6114   4.8531   4.8707   4.9268   4.9741   5.0537   5.0848
     5.1688   5.2487   5.4137   5.5314   5.5679   5.6783   5.7555   5.7811
     5.8375   5.8814   5.8890   5.9284   5.9832   6.0934   6.1681   6.1898
     6.2875   6.4265   6.5028   6.5748   6.6210   6.6442   6.7336   6.8221
     6.9203   7.1906   7.5107   7.6684   7.9123   7.9466   8.7824   9.0372
     9.2189   9.2646   9.9013  10.0272  10.2620  10.2696  10.6661

          k = 0.1267 0.3657 0.0000 ( 16370 PWs)   bands (ev):

   -95.4506 -95.4505 -95.4504 -95.3802 -95.3801 -95.3800 -55.8676 -55.8675
   -55.8675 -55.8675 -55.8674 -55.8674 -55.8607 -55.8545 -55.8473 -55.8064
   -55.8063 -55.8062 -55.8001 -55.8000 -55.7999 -55.7689 -55.7617 -55.7555
     0.4468   1.3019   1.3152   3.1662   3.7105   3.7584   3.8804   3.9133
     3.9346   4.4647   4.5114   4.9676   4.9879   5.0129   5.0879   5.1638
     5.2457   5.2655   5.4249   5.4727   5.5186   5.5394   5.6308   5.7424
     5.7825   5.7959   5.8451   5.8594   5.8854   5.9120   5.9351   5.9653
     6.0603   6.0956   6.3079   6.3830   6.4988   6.5524   6.6021   6.6257
     6.7278   7.4572   7.5321   7.9180   8.0190   8.2413   8.5342   8.7642
     8.8729   9.3044   9.7193  10.0335  10.4441  11.1340  11.2181

          k = 0.1267 0.3657 0.1000 ( 16342 PWs)   bands (ev):

   -95.4506 -95.4505 -95.4504 -95.3802 -95.3801 -95.3800 -55.8676 -55.8675
   -55.8675 -55.8675 -55.8674 -55.8674 -55.8607 -55.8545 -55.8473 -55.8064
   -55.8063 -55.8062 -55.8001 -55.8000 -55.7999 -55.7689 -55.7617 -55.7555
     0.5019   0.9376   1.7588   3.1001   3.2222   3.5802   3.9667   4.1969
     4.2809   4.3612   4.6940   4.8765   4.9818   5.0260   5.0843   5.1482
     5.2283   5.2793   5.3667   5.4726   5.5432   5.5720   5.6410   5.7452
     5.7545   5.7956   5.8217   5.8711   5.8963   5.9054   5.9447   5.9712
     6.0661   6.1080   6.3028   6.3866   6.4931   6.5465   6.6182   6.6727
     6.8282   7.0748   7.4907   7.7384   7.9847   8.2904   8.4984   8.9563
     9.1671   9.5799   9.7391   9.9467  10.2759  10.7182  11.0798

          k = 0.1267 0.3657-0.2000 ( 16364 PWs)   bands (ev):

   -95.4506 -95.4505 -95.4504 -95.3802 -95.3801 -95.3800 -55.8676 -55.8675
   -55.8675 -55.8675 -55.8674 -55.8674 -55.8607 -55.8545 -55.8473 -55.8064
   -55.8063 -55.8062 -55.8001 -55.8000 -55.7999 -55.7689 -55.7617 -55.7555
     0.6616   0.6714   2.1045   2.6891   3.3451   3.3676   4.0785   4.0857
     4.4936   4.5359   4.7885   4.8525   4.9258   5.0011   5.0839   5.1219
     5.2197   5.2905   5.3312   5.4703   5.5492   5.6201   5.6641   5.6892
     5.7584   5.8008   5.8114   5.8483   5.9053   5.9282   5.9472   5.9737
     6.0708   6.1233   6.2973   6.3893   6.4909   6.5455   6.6324   6.7770
     6.9167   7.0274   7.1496   7.3846   8.0144   8.2278   9.0737   9.1834
     9.3619   9.3848   9.7020   9.8845  10.1540  10.2717  11.5849

          k = 0.1267 0.5120 0.0000 ( 16377 PWs)   bands (ev):

   -95.4506 -95.4504 -95.4504 -95.3802 -95.3802 -95.3800 -55.8676 -55.8675
   -55.8674 -55.8674 -55.8674 -55.8673 -55.8607 -55.8473 -55.8439 -55.8064
   -55.8064 -55.8062 -55.8001 -55.8001 -55.7999 -55.7723 -55.7689 -55.7555
     1.1438   1.9013   2.0080   2.1719   2.8902   2.9275   3.7605   4.2082
     4.2419   4.3595   4.3814   4.8033   4.8731   5.0335   5.1207   5.1727
     5.3276   5.3791   5.4108   5.4909   5.5483   5.5981   5.6499   5.6720
     5.6818   5.6950   5.7240   5.7706   5.7929   5.8104   5.8361   5.8822
     5.9751   6.0037   6.0506   6.2724   6.4766   6.5215   6.5879   6.6437
     6.7058   6.8984   7.0267   7.8195   7.8703   8.2882   8.5292   8.8006
     9.2484   9.8697  10.2728  10.6105  10.7635  10.9270  11.0548

          k = 0.1267 0.5120 0.1000 ( 16380 PWs)   bands (ev):

   -95.4506 -95.4504 -95.4504 -95.3802 -95.3802 -95.3800 -55.8676 -55.8675
   -55.8674 -55.8674 -55.8674 -55.8673 -55.8607 -55.8473 -55.8439 -55.8064
   -55.8064 -55.8062 -55.8001 -55.8001 -55.7999 -55.7723 -55.7689 -55.7555
     1.1970   1.6168   2.1387   2.4196   2.6067   3.3150   3.6952   3.8035
     4.1217   4.2894   4.6229   4.8315   4.9987   5.0607   5.1247   5.1759
     5.3218   5.3587   5.4288   5.4776   5.5403   5.6090   5.6452   5.6624
     5.6826   5.7009   5.7304   5.7650   5.7923   5.8162   5.8357   5.8941
     5.9748   6.0025   6.0382   6.2742   6.4247   6.5193   6.6012   6.6508
     6.7147   6.9512   7.3548   7.5096   8.0063   8.2518   8.4259   8.9296
     8.9990   9.5860   9.9688  10.6715  10.9204  11.1421  11.4470

          k = 0.1267 0.5120-0.2000 ( 16374 PWs)   bands (ev):

   -95.4506 -95.4504 -95.4504 -95.3802 -95.3802 -95.3800 -55.8676 -55.8675
   -55.8674 -55.8674 -55.8674 -55.8673 -55.8607 -55.8473 -55.8439 -55.8064
   -55.8064 -55.8062 -55.8001 -55.8001 -55.7999 -55.7723 -55.7689 -55.7555
     1.3370   1.3775   2.2865   2.3003   2.8331   3.2626   3.7127   3.9111
     3.9295   3.9547   4.7695   4.9397   5.0068   5.1046   5.1288   5.1842
     5.3222   5.3537   5.4054   5.4846   5.5363   5.6084   5.6355   5.6681
     5.6871   5.7073   5.7289   5.7632   5.7820   5.8245   5.8356   5.9124
     5.9761   5.9953   6.0255   6.2746   6.4082   6.4854   6.6023   6.6066
     6.8341   7.1257   7.4089   7.5123   7.9934   8.1896   8.3621   8.5694
     9.2424   9.3572  10.1329  10.1580  10.9746  11.1357  12.1887

          k = 0.2534 0.4389 0.0000 ( 16380 PWs)   bands (ev):

   -95.4505 -95.4505 -95.4504 -95.3802 -95.3801 -95.3801 -55.8675 -55.8675
   -55.8675 -55.8675 -55.8674 -55.8673 -55.8545 -55.8545 -55.8439 -55.8064
   -55.8063 -55.8063 -55.8001 -55.8000 -55.8000 -55.7723 -55.7617 -55.7617
     1.0337   1.8639   1.8882   2.7926   2.9341   3.5498   3.5793   3.6410
     3.6693   4.1670   4.1877   4.8979   5.0122   5.0997   5.1341   5.2186
     5.2433   5.2945   5.4554   5.4675   5.5377   5.6029   5.6060   5.6632
     5.7301   5.7486   5.7627   5.7695   5.7876   5.8852   5.8860   5.9191
     5.9574   5.9581   6.2326   6.2422   6.3453   6.4638   6.5074   6.6375
     6.6633   7.2842   7.3304   7.3782   7.5832   8.9457   9.1547   9.4007
     9.5672   9.7048   9.9429  10.1646  10.6976  10.8363  11.1349

          k = 0.2534 0.4389 0.1000 ( 16361 PWs)   bands (ev):

   -95.4505 -95.4505 -95.4504 -95.3802 -95.3801 -95.3801 -55.8675 -55.8675
   -55.8675 -55.8675 -55.8674 -55.8673 -55.8545 -55.8545 -55.8439 -55.8064
   -55.8063 -55.8063 -55.8001 -55.8000 -55.8000 -55.7723 -55.7617 -55.7617
     1.0877   1.5143   2.3114   2.8407   2.9816   3.2475   3.3510   3.5843
     3.9777   4.0135   4.5548   4.7322   4.9384   5.1474   5.1589   5.2235
     5.2407   5.2966   5.4448   5.4793   5.5436   5.6010   5.6127   5.6711
     5.7027   5.7370   5.7550   5.7785   5.8026   5.8853   5.8967   5.9117
     5.9339   6.0034   6.2233   6.2496   6.3421   6.4678   6.5345   6.5649
     6.8718   6.8915   7.0630   7.7940   8.0851   8.6013   9.0272   9.3684
     9.6198   9.6821   9.9696  10.2059  10.2469  10.3481  11.2560

          k = 0.2534 0.4389-0.2000 ( 16354 PWs)   bands (ev):

   -95.4505 -95.4505 -95.4504 -95.3802 -95.3801 -95.3801 -55.8675 -55.8675
   -55.8675 -55.8674 -55.8674 -55.8673 -55.8545 -55.8545 -55.8439 -55.8064
   -55.8063 -55.8063 -55.8001 -55.8000 -55.8000 -55.7723 -55.7617 -55.7617
     1.2408   1.2574   2.6376   2.9431   3.0562   3.1105   3.1619   3.1815
     4.3392   4.3511   4.4070   4.4086   5.0387   5.1216   5.1812   5.2038
     5.2606   5.2979   5.4425   5.4853   5.5402   5.6037   5.6396   5.6440
     5.6943   5.7289   5.7485   5.7865   5.8111   5.8853   5.9030   5.9098
     5.9231   6.0342   6.2164   6.2541   6.3382   6.4714   6.5670   6.5740
     6.7298   6.8175   7.4256   7.4327   8.6512   8.8601   8.9787   9.1030
     9.1955   9.6096   9.7386   9.8915  10.3068  10.4475  11.6709

          k = 0.2534 0.5851 0.0000 ( 16380 PWs)   bands (ev):

   -95.4505 -95.4504 -95.4504 -95.3802 -95.3802 -95.3801 -55.8675 -55.8675
   -55.8674 -55.8674 -55.8674 -55.8674 -55.8545 -55.8473 -55.8473 -55.8064
   -55.8064 -55.8063 -55.8001 -55.8001 -55.8000 -55.7689 -55.7689 -55.7617
     1.7334   1.9353   2.5001   2.6315   2.6473   2.8444   2.8609   3.5224
     3.5349   4.4890   4.5285   4.7200   4.8966   5.0050   5.1589   5.2344
     5.2936   5.3818   5.3917   5.4734   5.4772   5.5819   5.5834   5.6686
     5.7169   5.7498   5.7610   5.7719   5.8195   5.8627   5.8637   5.9212
     5.9365   6.0001   6.0192   6.2086   6.3738   6.4103   6.4563   6.7723
     6.7860   6.8515   7.0223   7.2607   7.4751   9.1493   9.5261   9.7038
     9.9408  10.3415  10.3568  10.5852  10.7629  10.8593  11.0035

          k = 0.2534 0.5851 0.1000 ( 16361 PWs)   bands (ev):

   -95.4505 -95.4504 -95.4504 -95.3802 -95.3802 -95.3801 -55.8675 -55.8675
   -55.8674 -55.8674 -55.8674 -55.8674 -55.8545 -55.8473 -55.8473 -55.8064
   -55.8064 -55.8063 -55.8001 -55.8001 -55.8000 -55.7689 -55.7689 -55.7617
     1.7824   1.9800   2.2296   2.4052   2.8180   3.0285   3.1665   3.2596
     3.9019   4.1754   4.1899   4.6657   5.0445   5.1047   5.2213   5.2349
     5.2971   5.3869   5.3940   5.4434   5.4643   5.5702   5.6047   5.6327
     5.7091   5.7598   5.7707   5.7934   5.8249   5.8463   5.8829   5.9146
     5.9412   5.9987   6.0175   6.2095   6.3459   6.4445   6.4828   6.5787
     6.6544   6.9191   7.2380   7.4117   7.9570   8.9458   9.1964   9.2502
     9.6310  10.0062  10.3362  10.7368  10.8322  10.9740  11.1164

          k = 0.2534 0.5851-0.2000 ( 16362 PWs)   bands (ev):

   -95.4505 -95.4504 -95.4504 -95.3802 -95.3802 -95.3801 -55.8675 -55.8675
   -55.8674 -55.8674 -55.8674 -55.8674 -55.8545 -55.8473 -55.8473 -55.8064
   -55.8064 -55.8063 -55.8001 -55.8000 -55.8000 -55.7689 -55.7689 -55.7617
     1.8781   2.0342   2.0633   2.2345   2.9446   2.9777   3.3695   3.6304
     3.7558   3.8151   4.2863   4.3547   5.1203   5.2273   5.2330   5.2734
     5.2991   5.3873   5.3957   5.4054   5.4425   5.5859   5.5915   5.6111
     5.7086   5.7600   5.7708   5.8163   5.8313   5.8427   5.8899   5.9118
     5.9436   5.9968   6.0157   6.2104   6.3300   6.4842   6.5179   6.5325
     6.5593   6.7507   7.7160   7.8255   8.1733   8.4763   8.9253   9.0566
     9.2960   9.6890  10.6220  10.6923  10.7914  11.0371  11.0383

     the Fermi energy is     7.2435 ev

!    total energy              =   -2463.74091133 Ry
     estimated scf accuracy    <          1.6E-11 Ry
     smearing contrib. (-TS)   =       0.00067503 Ry
     internal energy E=F+TS    =   -2463.74158636 Ry

     The total energy is F=E-TS. E is the sum of the following terms:
     one-electron contribution =   -2149.75230703 Ry
     hartree contribution      =    1116.94645206 Ry
     xc contribution           =    -233.38535473 Ry
     ewald contribution        =    -821.36498308 Ry
     DFT-D3 Dispersion         =      -0.44246048 Ry
     one-center paw contrib.   =    -375.74293309 Ry

     convergence has been achieved in  10 iterations

     Forces acting on atoms (cartesian axes, Ry/au):

     atom    1 type  1   force =     0.00043138   -0.00024906   -0.00000000
     atom    2 type  1   force =    -0.00000000    0.00049811    0.00000000
     atom    3 type  1   force =    -0.00043138    0.00024906   -0.00000000
     atom    4 type  1   force =     0.00000000   -0.00049811    0.00000000
     atom    5 type  1   force =    -0.00043138   -0.00024906    0.00000000
     atom    6 type  1   force =     0.00043138    0.00024906    0.00000000
     atom    7 type  1   force =     0.00000000    0.00000000    0.00101476
     atom    8 type  1   force =    -0.00000000   -0.00000000   -0.00101476
     atom    9 type  1   force =     0.00000000    0.00000000   -0.00101476
     atom   10 type  1   force =     0.00000000    0.00000000    0.00101476
     atom   11 type  1   force =     0.00000000    0.00000000   -0.00101476
     atom   12 type  1   force =     0.00000000    0.00000000    0.00101476
     atom   13 type  2   force =    -0.00000000   -0.00000000    0.00000000
     atom   14 type  2   force =    -0.00000000   -0.00000000   -0.00000000
     atom   15 type  2   force =     0.00000000    0.00000000    0.00000000
     atom   16 type  2   force =    -0.00000000   -0.00000000    0.00000000
     atom   17 type  2   force =     0.00000000    0.00000000    0.00000000
     atom   18 type  2   force =     0.00000000    0.00000000    0.00000000

     Total force =     0.002769     Total SCF correction =     0.000000


     Computing stress (Cartesian axis) and pressure

          total   stress  (Ry/bohr**3)                   (kbar)     P=        0.40
   0.00000186  -0.00000000   0.00000000            0.27       -0.00        0.00
  -0.00000000   0.00000186   0.00000000           -0.00        0.27        0.00
   0.00000000   0.00000000   0.00000435            0.00        0.00        0.64

     Energy error            =      5.0E-05 Ry
     Gradient error          =      1.0E-03 Ry/Bohr
     Cell gradient error     =      6.4E-01 kbar

     number of scf cycles    =   7
     number of bfgs steps    =   6

     enthalpy           old  =   -2463.7408616078 Ry
     enthalpy           new  =   -2463.7409113300 Ry

     CASE: enthalpy          _new < enthalpy          _old

     new trust radius        =       0.0075269645 bohr
     new conv_thr            =            5.0E-11 Ry

     new unit-cell volume =   1997.60511 a.u.^3 (   296.01454 Ang^3 )
     density =      3.61161 g/cm^3

CELL_PARAMETERS (angstrom)
   5.128673205   0.000000000   0.000000000
  -2.564336602   4.441561283   0.000000000
   0.000000000   0.000000000  12.994882378

ATOMIC_POSITIONS (angstrom)
Mg              -1.2943239012        3.7083191080       10.8290686487
Mg               0.0000000000        1.4664843497        6.4974411892
Mg               3.8586605035        0.7332421749       10.8290686487
Mg               2.5643366023        2.9750769332        6.4974411892
Mg               1.2943239012        3.7083191080        2.1658137298
Mg               1.2700127011        0.7332421749        2.1658137298
Mg               1.2821683012        2.2207806414        9.3354041275
Mg               2.5643366023        0.0000000000        7.9911057104
Mg               1.2821683012        2.2207806414       12.3227331699
Mg               2.5643366023        0.0000000000        5.0037766680
Mg               3.8465049034        2.2207806414        3.6594782510
Mg               3.8465049034        2.2207806414        0.6721492086
Ni               1.2821683012        2.2207806414        4.3316274594
Ni               2.5643366023        0.0000000000       -0.0000000000
Ni               3.8465049034        2.2207806414        8.6632549190
Ni              -0.0000000000       -0.0000000000        4.3316274594
Ni               0.0000000000        0.0000000000       -0.0000000000
Ni              -0.0000000000       -0.0000000000        8.6632549190



     Writing config-only to output data dir ./outdir/mg2ni.save/ :
     XML data file
     NEW-OLD atomic charge density approx. for the potential
     New effective cutoffs (rho, wfc):  495.09   61.93

     Check: negative core charge=   -0.000001

     total cpu time spent up to now is      378.8 secs

     Self-consistent Calculation

     iteration #  1     ecut=    60.00 Ry     beta= 0.30
     Davidson diagonalization with overlap
     ethr =  1.00E-06,  avg # of iterations =  2.0

     Threshold (ethr) on eigenvalues was too large:
     Diagonalizing with lowered threshold

     Davidson diagonalization with overlap
     ethr =  3.79E-09,  avg # of iterations =  2.3

     total cpu time spent up to now is      385.0 secs

     total energy              =   -2463.74094080 Ry
     estimated scf accuracy    <       0.00000520 Ry

     iteration #  2     ecut=    60.00 Ry     beta= 0.30
     Davidson diagonalization with overlap
     ethr =  3.94E-09,  avg # of iterations =  2.0

     total cpu time spent up to now is      387.9 secs

     total energy              =   -2463.74094027 Ry
     estimated scf accuracy    <       0.00000585 Ry

     iteration #  3     ecut=    60.00 Ry     beta= 0.30
     Davidson diagonalization with overlap
     ethr =  3.94E-09,  avg # of iterations =  2.2

     total cpu time spent up to now is      390.8 secs

     total energy              =   -2463.74094069 Ry
     estimated scf accuracy    <       0.00000708 Ry

     iteration #  4     ecut=    60.00 Ry     beta= 0.30
     Davidson diagonalization with overlap
     ethr =  3.94E-09,  avg # of iterations =  1.1

     total cpu time spent up to now is      393.7 secs

     total energy              =   -2463.74094115 Ry
     estimated scf accuracy    <       0.00000011 Ry

     iteration #  5     ecut=    60.00 Ry     beta= 0.30
     Davidson diagonalization with overlap
     ethr =  8.33E-11,  avg # of iterations =  4.1

     total cpu time spent up to now is      398.3 secs

     total energy              =   -2463.74094122 Ry
     estimated scf accuracy    <       0.00000017 Ry

     iteration #  6     ecut=    60.00 Ry     beta= 0.30
     Davidson diagonalization with overlap
     ethr =  8.33E-11,  avg # of iterations =  1.6

     total cpu time spent up to now is      401.1 secs

     total energy              =   -2463.74094123 Ry
     estimated scf accuracy    <       0.00000002 Ry

     iteration #  7     ecut=    60.00 Ry     beta= 0.30
     Davidson diagonalization with overlap
     ethr =  1.31E-11,  avg # of iterations =  2.1

     total cpu time spent up to now is      404.3 secs

     total energy              =   -2463.74094123 Ry
     estimated scf accuracy    <          4.4E-09 Ry

     iteration #  8     ecut=    60.00 Ry     beta= 0.30
     Davidson diagonalization with overlap
     ethr =  3.33E-12,  avg # of iterations =  2.0

     total cpu time spent up to now is      407.5 secs

     total energy              =   -2463.74094123 Ry
     estimated scf accuracy    <          4.1E-10 Ry

     iteration #  9     ecut=    60.00 Ry     beta= 0.30
     Davidson diagonalization with overlap
     ethr =  3.07E-13,  avg # of iterations =  2.5

     total cpu time spent up to now is      410.6 secs

     End of self-consistent calculation

          k = 0.0000 0.0000 0.0000 ( 16309 PWs)   bands (ev):

   -95.4515 -95.4515 -95.4515 -95.3788 -95.3788 -95.3788 -55.8690 -55.8690
   -55.8690 -55.8681 -55.8680 -55.8680 -55.8635 -55.8635 -55.8635 -55.8048
   -55.8048 -55.8048 -55.7986 -55.7986 -55.7985 -55.7526 -55.7526 -55.7526
    -0.3977   0.4815   0.4815   3.0928   3.0928   4.7037   4.7037   4.7754
     4.7834   4.8468   4.8468   4.8640   4.9143   4.9826   4.9826   5.4398
     5.4823   5.5038   5.5038   5.5529   5.5529   5.8014   5.8014   5.8437
     5.8437   5.9282   6.0597   6.0651   6.0651   6.6340   6.6340   6.6359
     6.6392   6.6392   6.6392   6.8482   6.8681   6.8681   7.1577   7.5459
     7.6477   7.6477   7.8809   7.8809   7.9390   8.3062   8.5328   8.5328
     8.5966   8.7937   8.7937   8.9787   9.6355   9.6355  10.5363

          k = 0.0000 0.0000 0.1000 ( 16316 PWs)   bands (ev):

   -95.4515 -95.4515 -95.4515 -95.3788 -95.3788 -95.3788 -55.8690 -55.8690
   -55.8690 -55.8681 -55.8680 -55.8680 -55.8635 -55.8635 -55.8635 -55.8048
   -55.8048 -55.8048 -55.7986 -55.7986 -55.7985 -55.7526 -55.7526 -55.7526
    -0.3415   0.1030   0.9382   2.3910   3.8240   4.7112   4.7131   4.7255
     4.7639   4.8201   4.8512   4.8605   4.9186   4.9544   5.0082   5.4522
     5.4783   5.4910   5.4926   5.5037   5.6313   5.7373   5.8408   5.8464
     5.9077   5.9328   6.0601   6.0632   6.0676   6.6335   6.6347   6.6357
     6.6390   6.6391   6.6392   6.6776   6.9219   6.9292   6.9409   7.3818
     7.4130   7.4325   8.0278   8.0585   8.1405   8.4918   8.5520   8.5572
     8.7340   8.7581   8.8392   9.0503   9.6080   9.6239  10.2559

          k = 0.0000 0.0000-0.2000 ( 16334 PWs)   bands (ev):

   -95.4515 -95.4515 -95.4515 -95.3788 -95.3788 -95.3788 -55.8690 -55.8690
   -55.8690 -55.8680 -55.8680 -55.8680 -55.8635 -55.8635 -55.8635 -55.8048
   -55.8048 -55.8048 -55.7986 -55.7985 -55.7985 -55.7526 -55.7526 -55.7526
    -0.1736  -0.1736   1.2755   1.9678   4.4239   4.4239   4.7208   4.7369
     4.7369   4.8029   4.8570   4.8570   4.9321   4.9321   5.0190   5.4551
     5.4810   5.4810   5.4839   5.5390   5.5390   5.8372   5.8690   5.8690
     5.9867   6.0558   6.0558   6.0699   6.0737   6.0737   6.6333   6.6353
     6.6353   6.6391   6.6392   6.6392   7.0408   7.0923   7.0923   7.1649
     7.1649   7.2468   8.1373   8.1373   8.2998   8.4682   8.5655   8.5655
     8.7466   8.8608   8.8608   9.4103   9.4103   9.6189  10.0247

          k =-0.0000 0.1463 0.0000 ( 16313 PWs)   bands (ev):

   -95.4515 -95.4515 -95.4515 -95.3789 -95.3789 -95.3788 -55.8690 -55.8690
   -55.8689 -55.8681 -55.8680 -55.8680 -55.8635 -55.8612 -55.8612 -55.8049
   -55.8049 -55.8048 -55.7986 -55.7986 -55.7985 -55.7549 -55.7549 -55.7526
    -0.2757   0.6007   0.6023   3.1915   3.1940   4.5185   4.6903   4.7186
     4.7596   4.8059   4.8616   4.8700   4.9487   4.9603   4.9939   5.2762
     5.3240   5.4299   5.4812   5.5250   5.5266   5.7132   5.7689   5.8150
     5.8452   5.9229   5.9365   5.9807   5.9990   6.4144   6.4395   6.4823
     6.4981   6.6021   6.6349   6.6386   6.8055   6.9291   7.0155   7.0170
     7.3700   7.4389   7.4877   7.6868   7.9186   8.5909   8.7347   8.8066
     8.9050   9.0622   9.0674   9.5175   9.6634   9.9744  10.4346

          k =-0.0000 0.1463 0.1000 ( 16313 PWs)   bands (ev):

   -95.4515 -95.4515 -95.4515 -95.3789 -95.3789 -95.3788 -55.8690 -55.8690
   -55.8690 -55.8681 -55.8680 -55.8680 -55.8635 -55.8612 -55.8612 -55.8049
   -55.8049 -55.8048 -55.7986 -55.7986 -55.7985 -55.7549 -55.7549 -55.7526
    -0.2196   0.2238   1.0578   2.4964   3.9109   4.5389   4.6563   4.7269
     4.7497   4.8024   4.8218   4.8611   4.9403   4.9439   5.0230   5.2457
     5.3235   5.4044   5.4761   5.5149   5.5762   5.7212   5.8000   5.8355
     5.8599   5.9170   5.9439   5.9844   6.0012   6.3918   6.4267   6.4520
     6.5277   6.6090   6.6349   6.6385   6.7904   6.8509   6.9512   7.0309
     7.1494   7.3162   7.4551   7.8825   8.0660   8.3109   8.7164   8.8763
     8.9600   9.1088   9.2983   9.4520   9.7085   9.9890  10.4192

          k =-0.0000 0.1463-0.2000 ( 16334 PWs)   bands (ev):

   -95.4515 -95.4515 -95.4515 -95.3789 -95.3789 -95.3788 -55.8690 -55.8690
   -55.8690 -55.8681 -55.8680 -55.8680 -55.8635 -55.8612 -55.8612 -55.8049
   -55.8049 -55.8048 -55.7986 -55.7986 -55.7986 -55.7549 -55.7549 -55.7526
    -0.0528  -0.0516   1.3972   2.0727   4.4794   4.4906   4.5838   4.6060
     4.7582   4.7612   4.8369   4.8459   4.9314   4.9349   5.0449   5.2149
     5.3213   5.3886   5.4715   5.5147   5.5696   5.7901   5.8209   5.8693
     5.9198   5.9545   5.9824   5.9866   6.0149   6.0937   6.4392   6.4451
     6.5590   6.6196   6.6348   6.6386   6.7124   6.7406   6.9696   6.9834
     7.0956   7.2644   7.5412   8.0200   8.0345   8.2822   8.4925   8.8223
     9.0571   9.2539   9.2857   9.5870   9.7160  10.0469  10.5860

          k =-0.0000 0.2925 0.0000 ( 16389 PWs)   bands (ev):

   -95.4515 -95.4514 -95.4514 -95.3789 -95.3789 -95.3788 -55.8690 -55.8689
   -55.8689 -55.8681 -55.8679 -55.8679 -55.8635 -55.8551 -55.8551 -55.8050
   -55.8050 -55.8049 -55.7987 -55.7987 -55.7986 -55.7611 -55.7611 -55.7526
     0.0875   0.9541   0.9618   3.4692   3.4884   3.6515   4.2447   4.2724
     4.7009   4.7467   4.8562   4.9251   4.9309   4.9563   5.0400   5.1412
     5.1789   5.2273   5.4526   5.4913   5.5171   5.5859   5.6635   5.7672
     5.8006   5.8239   5.9005   5.9039   5.9408   6.0432   6.0810   6.1132
     6.2387   6.3724   6.3999   6.5229   6.5833   6.6350   6.6377   6.9966
     7.0823   7.2582   7.4755   7.6825   7.9478   8.0892   8.3242   9.0012
     9.0578   9.3550   9.5135   9.9609  10.2671  10.3180  11.0076

          k =-0.0000 0.2925 0.1000 ( 16367 PWs)   bands (ev):

   -95.4515 -95.4514 -95.4514 -95.3789 -95.3789 -95.3788 -55.8690 -55.8689
   -55.8689 -55.8681 -55.8679 -55.8679 -55.8635 -55.8551 -55.8551 -55.8050
   -55.8050 -55.8049 -55.7987 -55.7987 -55.7986 -55.7611 -55.7611 -55.7526
     0.1431   0.5831   1.4124   2.8061   3.6909   4.0030   4.1614   4.4897
     4.7217   4.7493   4.8547   4.8951   4.9053   4.9445   5.0254   5.1106
     5.1787   5.2370   5.4140   5.4995   5.5433   5.6271   5.6712   5.7737
     5.8021   5.8239   5.8637   5.9308   5.9435   6.0495   6.0937   6.1162
     6.2154   6.3690   6.4079   6.5521   6.5933   6.6350   6.6379   6.9472
     6.9962   7.3040   7.3308   7.5452   7.6947   8.1227   8.6652   8.8562
     8.9690   9.6100   9.7143  10.0754  10.2963  10.5141  10.8026

          k =-0.0000 0.2925-0.2000 ( 16360 PWs)   bands (ev):

   -95.4515 -95.4514 -95.4514 -95.3789 -95.3789 -95.3788 -55.8690 -55.8689
   -55.8689 -55.8681 -55.8679 -55.8679 -55.8635 -55.8551 -55.8551 -55.8050
   -55.8050 -55.8049 -55.7987 -55.7987 -55.7986 -55.7611 -55.7611 -55.7526
     0.3064   0.3121   1.7570   2.3828   3.8141   3.8179   4.5444   4.6168
     4.7166   4.7762   4.8158   4.8339   4.8693   4.9321   5.0001   5.0756
     5.1746   5.2513   5.3812   5.5149   5.5610   5.6503   5.7327   5.7808
     5.8120   5.8232   5.8359   5.9074   5.9627   6.0387   6.1057   6.1338
     6.1777   6.3660   6.4186   6.5940   6.6187   6.6349   6.6380   6.8570
     6.9647   7.0584   7.2479   7.4467   7.8374   8.2064   8.4086   8.7647
     9.5470   9.6691   9.8059  10.0843  10.0907  10.4131  11.2287

          k =-0.0000 0.4388 0.0000 ( 16379 PWs)   bands (ev):

   -95.4515 -95.4514 -95.4514 -95.3790 -95.3790 -95.3788 -55.8690 -55.8688
   -55.8688 -55.8681 -55.8679 -55.8679 -55.8635 -55.8481 -55.8481 -55.8051
   -55.8051 -55.8049 -55.7988 -55.7987 -55.7986 -55.7681 -55.7681 -55.7526
     0.6817   1.5206   1.5506   2.5461   3.3057   3.3076   3.9338   3.9421
     4.5462   4.7005   4.7926   4.8851   4.9433   5.0296   5.0540   5.1608
     5.1973   5.2684   5.3905   5.5058   5.5132   5.5523   5.5962   5.7132
     5.7144   5.7324   5.7733   5.8234   5.8448   5.8526   5.8890   5.9830
     6.0283   6.0343   6.0947   6.3129   6.4851   6.6350   6.6358   6.8535
     6.8928   7.1348   7.1873   7.3373   7.3970   8.1483   8.5717   9.0016
     9.3116   9.3814   9.6243  10.2664  10.8407  11.0321  11.2453

          k =-0.0000 0.4388 0.1000 ( 16368 PWs)   bands (ev):

   -95.4515 -95.4514 -95.4514 -95.3790 -95.3790 -95.3788 -55.8690 -55.8688
   -55.8688 -55.8681 -55.8679 -55.8679 -55.8635 -55.8481 -55.8481 -55.8051
   -55.8051 -55.8049 -55.7988 -55.7987 -55.7986 -55.7681 -55.7681 -55.7526
     0.7363   1.1685   1.9787   2.5981   2.9819   3.3021   3.7234   4.3819
     4.5716   4.6858   4.7647   4.8392   4.8949   5.0104   5.0724   5.1545
     5.2257   5.2921   5.4059   5.4845   5.5052   5.5784   5.6240   5.6890
     5.7219   5.7414   5.7593   5.8278   5.8316   5.8531   5.9058   5.9846
     6.0290   6.0367   6.0788   6.3126   6.5327   6.6350   6.6358   6.7309
     6.8723   7.0710   7.2655   7.4899   7.6375   8.0965   8.2877   8.6767
     8.8941   9.5622  10.0357  10.4992  10.7140  11.1343  11.3766

          k =-0.0000 0.4388-0.2000 ( 16370 PWs)   bands (ev):

   -95.4515 -95.4514 -95.4514 -95.3790 -95.3790 -95.3788 -55.8690 -55.8688
   -55.8688 -55.8681 -55.8679 -55.8679 -55.8635 -55.8481 -55.8481 -55.8051
   -55.8051 -55.8049 -55.7988 -55.7987 -55.7986 -55.7681 -55.7681 -55.7526
     0.8898   0.9096   2.3117   2.7256   2.7898   2.8813   4.0684   4.2121
     4.6045   4.6849   4.7864   4.8886   4.9488   4.9549   5.0536   5.1282
     5.2783   5.3020   5.3976   5.4759   5.4940   5.6225   5.6481   5.6519
     5.7316   5.7480   5.7661   5.7856   5.8372   5.8565   5.9259   5.9856
     6.0317   6.0467   6.0502   6.3096   6.5477   6.6350   6.6357   6.6993
     6.8737   7.2284   7.2345   7.4512   7.6853   7.9918   8.4487   8.6367
     8.7411   8.8975  10.5514  10.8218  10.9655  11.0688  11.6333

          k = 0.0000-0.5851 0.0000 ( 16352 PWs)   bands (ev):

   -95.4515 -95.4513 -95.4513 -95.3790 -95.3790 -95.3788 -55.8690 -55.8688
   -55.8688 -55.8681 -55.8678 -55.8678 -55.8635 -55.8448 -55.8448 -55.8051
   -55.8051 -55.8049 -55.7988 -55.7988 -55.7986 -55.7715 -55.7715 -55.7526
     1.3852   1.6023   2.1888   2.3389   2.3583   2.5452   4.2655   4.3249
     4.4790   4.6888   4.7073   4.7136   4.8019   5.0247   5.0923   5.1069
     5.2514   5.2931   5.3925   5.5530   5.5561   5.6321   5.6562   5.6676
     5.7165   5.7223   5.7224   5.7332   5.7434   5.7484   5.7695   5.7841
     5.8796   6.0105   6.0853   6.1969   6.5951   6.6293   6.6351   6.6351
     6.7454   7.0395   7.0789   7.1851   7.3456   8.1573   8.7566   9.1156
     9.3913   9.4893   9.5499  10.3043  10.5116  10.6880  12.1621

          k = 0.0000-0.5851 0.1000 ( 16378 PWs)   bands (ev):

   -95.4515 -95.4513 -95.4513 -95.3790 -95.3790 -95.3788 -55.8690 -55.8688
   -55.8688 -55.8681 -55.8678 -55.8678 -55.8635 -55.8448 -55.8448 -55.8051
   -55.8051 -55.8049 -55.7988 -55.7988 -55.7986 -55.7715 -55.7715 -55.7526
     1.4323   1.6479   1.9046   2.0970   2.7026   2.8977   3.9221   3.9512
     4.4978   4.6625   4.8190   4.8201   4.9458   5.0259   5.1066   5.1567
     5.2344   5.3654   5.4592   5.5114   5.5226   5.6121   5.6693   5.6708
     5.6957   5.7009   5.7224   5.7326   5.7531   5.7599   5.7753   5.7900
     5.9023   6.0102   6.0385   6.1968   6.4941   6.6347   6.6350   6.6555
     6.8575   7.1416   7.2406   7.2468   7.5136   8.0702   8.5093   8.8068
     8.8073   9.0001  10.0668  10.5287  11.2305  11.3580  12.0451

          k = 0.0000-0.5851-0.2000 ( 16368 PWs)   bands (ev):

   -95.4515 -95.4513 -95.4513 -95.3790 -95.3790 -95.3788 -55.8690 -55.8688
   -55.8688 -55.8681 -55.8678 -55.8678 -55.8635 -55.8448 -55.8448 -55.8051
   -55.8051 -55.8049 -55.7988 -55.7988 -55.7986 -55.7715 -55.7715 -55.7526
     1.5167   1.7192   1.7311   1.9172   3.0267   3.3267   3.4882   3.5685
     4.5257   4.6426   4.7771   4.9043   4.9803   5.0436   5.1064   5.2451
     5.3440   5.3985   5.4218   5.5066   5.5466   5.5670   5.6597   5.6650
     5.6862   5.6921   5.7228   5.7294   5.7541   5.7630   5.7796   5.8099
     5.9480   5.9698   6.0098   6.1955   6.4508   6.6343   6.6350   6.6531
     6.8557   7.3670   7.4938   7.5193   7.6331   7.9196   8.0860   8.5011
     8.5608   8.5937  10.6001  11.0768  11.2080  11.4729  12.1679

          k = 0.1267 0.2194 0.0000 ( 16312 PWs)   bands (ev):

   -95.4515 -95.4515 -95.4514 -95.3789 -95.3789 -95.3789 -55.8690 -55.8690
   -55.8689 -55.8680 -55.8680 -55.8679 -55.8612 -55.8612 -55.8551 -55.8050
   -55.8049 -55.8049 -55.7987 -55.7986 -55.7986 -55.7611 -55.7549 -55.7549
    -0.0331   0.8376   0.8420   3.3837   3.3911   4.2161   4.2199   4.5560
     4.6024   4.6807   4.7805   4.9119   4.9821   4.9918   5.0259   5.1137
     5.1545   5.2666   5.4401   5.4983   5.5725   5.6173   5.6597   5.7982
     5.8444   5.8632   5.8958   5.9130   5.9714   6.1473   6.1815   6.1841
     6.2951   6.4225   6.5322   6.5819   6.6003   6.6547   6.7601   6.7706
     6.8138   7.5219   7.7025   8.2253   8.2987   8.4768   8.5781   8.6600
     8.6671   8.8495   9.2508   9.3846   9.9759  10.8123  10.9431

          k = 0.1267 0.2194 0.1000 ( 16346 PWs)   bands (ev):

   -95.4515 -95.4515 -95.4514 -95.3789 -95.3789 -95.3789 -55.8690 -55.8690
   -55.8689 -55.8680 -55.8680 -55.8679 -55.8612 -55.8612 -55.8551 -55.8050
   -55.8049 -55.8049 -55.7987 -55.7986 -55.7986 -55.7611 -55.7549 -55.7549
     0.0227   0.4639   1.2951   2.7043   4.0741   4.2474   4.2549   4.4690
     4.4998   4.7418   4.8240   4.8924   4.9503   4.9977   5.0258   5.1240
     5.1389   5.2675   5.4216   5.5226   5.5622   5.6436   5.6916   5.8063
     5.8429   5.8510   5.9047   5.9145   5.9764   6.1379   6.1633   6.2065
     6.2858   6.4239   6.5181   6.5777   6.6103   6.6563   6.6784   6.8231
     7.0022   7.2282   7.5762   7.9262   8.0403   8.1214   8.6789   8.9041
     9.1397   9.1754   9.3798   9.5819  10.1868  10.6846  10.8437

          k = 0.1267 0.2194-0.2000 ( 16360 PWs)   bands (ev):

   -95.4515 -95.4515 -95.4514 -95.3789 -95.3789 -95.3789 -55.8690 -55.8690
   -55.8689 -55.8680 -55.8680 -55.8679 -55.8612 -55.8612 -55.8551 -55.8050
   -55.8049 -55.8049 -55.7987 -55.7986 -55.7986 -55.7611 -55.7549 -55.7549
     0.1876   0.1910   1.6382   2.2802   4.3110   4.3442   4.3496   4.3844
     4.5805   4.6119   4.8542   4.8709   4.9266   4.9749   5.0546   5.0853
     5.1689   5.2479   5.4120   5.5320   5.5680   5.6798   5.7561   5.7801
     5.8384   5.8815   5.8887   5.9299   5.9851   6.0929   6.1690   6.1906
     6.2884   6.4267   6.5022   6.5746   6.6208   6.6442   6.7332   6.8220
     6.9209   7.1918   7.5085   7.6635   7.9101   7.9464   8.7846   9.0329
     9.2169   9.2608   9.8980  10.0255  10.2568  10.2689  10.6593

          k = 0.1267 0.3657 0.0000 ( 16370 PWs)   bands (ev):

   -95.4515 -95.4514 -95.4514 -95.3790 -95.3789 -95.3789 -55.8690 -55.8689
   -55.8688 -55.8681 -55.8680 -55.8679 -55.8612 -55.8551 -55.8481 -55.8051
   -55.8050 -55.8049 -55.7988 -55.7987 -55.7986 -55.7681 -55.7611 -55.7549
     0.4463   1.3019   1.3153   3.1651   3.7096   3.7571   3.8803   3.9134
     3.9339   4.4643   4.5111   4.9680   4.9888   5.0135   5.0889   5.1642
     5.2460   5.2663   5.4250   5.4735   5.5187   5.5396   5.6308   5.7427
     5.7829   5.7964   5.8460   5.8604   5.8862   5.9130   5.9366   5.9657
     6.0605   6.0955   6.3081   6.3825   6.4981   6.5526   6.6019   6.6259
     6.7277   7.4540   7.5301   7.9166   8.0177   8.2399   8.5320   8.7629
     8.8733   9.3000   9.7170  10.0298  10.4421  11.1323  11.2159

          k = 0.1267 0.3657 0.1000 ( 16342 PWs)   bands (ev):

   -95.4515 -95.4514 -95.4514 -95.3790 -95.3789 -95.3789 -55.8690 -55.8689
   -55.8688 -55.8681 -55.8680 -55.8679 -55.8612 -55.8551 -55.8481 -55.8051
   -55.8050 -55.8049 -55.7988 -55.7987 -55.7986 -55.7681 -55.7611 -55.7549
     0.5014   0.9373   1.7596   3.0977   3.2218   3.5794   3.9659   4.1976
     4.2796   4.3613   4.6940   4.8768   4.9828   5.0270   5.0846   5.1490
     5.2285   5.2801   5.3664   5.4734   5.5435   5.5722   5.6412   5.7455
     5.7550   5.7959   5.8222   5.8720   5.8977   5.9061   5.9460   5.9717
     6.0665   6.1078   6.3029   6.3863   6.4926   6.5464   6.6183   6.6726
     6.8282   7.0723   7.4885   7.7363   7.9831   8.2887   8.4976   8.9551
     9.1661   9.5761   9.7368   9.9429  10.2748  10.7158  11.0790

          k = 0.1267 0.3657-0.2000 ( 16364 PWs)   bands (ev):

   -95.4515 -95.4514 -95.4514 -95.3790 -95.3789 -95.3789 -55.8690 -55.8689
   -55.8688 -55.8681 -55.8680 -55.8679 -55.8612 -55.8551 -55.8481 -55.8051
   -55.8050 -55.8049 -55.7988 -55.7987 -55.7986 -55.7681 -55.7611 -55.7549
     0.6612   0.6710   2.1073   2.6850   3.3445   3.3667   4.0779   4.0851
     4.4955   4.5342   4.7882   4.8536   4.9265   5.0022   5.0846   5.1224
     5.2201   5.2912   5.3309   5.4711   5.5496   5.6199   5.6650   5.6894
     5.7587   5.8011   5.8119   5.8487   5.9066   5.9289   5.9485   5.9743
     6.0714   6.1231   6.2974   6.3891   6.4906   6.5452   6.6327   6.7761
     6.9166   7.0257   7.1489   7.3807   8.0124   8.2265   9.0738   9.1820
     9.3606   9.3813   9.6995   9.8811  10.1504  10.2711  11.5780

          k = 0.1267 0.5120 0.0000 ( 16377 PWs)   bands (ev):

   -95.4515 -95.4514 -95.4513 -95.3790 -95.3790 -95.3789 -55.8690 -55.8688
   -55.8688 -55.8681 -55.8679 -55.8678 -55.8612 -55.8481 -55.8448 -55.8051
   -55.8051 -55.8049 -55.7988 -55.7987 -55.7986 -55.7715 -55.7681 -55.7549
     1.1434   1.9011   2.0079   2.1709   2.8898   2.9269   3.7595   4.2079
     4.2413   4.3591   4.3811   4.8033   4.8737   5.0340   5.1221   5.1739
     5.3280   5.3797   5.4113   5.4911   5.5486   5.5986   5.6501   5.6727
     5.6826   5.6954   5.7236   5.7703   5.7939   5.8112   5.8374   5.8834
     5.9752   6.0039   6.0511   6.2720   6.4759   6.5213   6.5879   6.6433
     6.7057   6.8967   7.0241   7.8178   7.8687   8.2854   8.5269   8.7984
     9.2510   9.8648  10.2713  10.6091  10.7632  10.9238  11.0520

          k = 0.1267 0.5120 0.1000 ( 16380 PWs)   bands (ev):

   -95.4515 -95.4514 -95.4513 -95.3790 -95.3790 -95.3789 -55.8690 -55.8688
   -55.8688 -55.8681 -55.8679 -55.8678 -55.8612 -55.8481 -55.8448 -55.8051
   -55.8051 -55.8049 -55.7988 -55.7987 -55.7986 -55.7715 -55.7681 -55.7549
     1.1966   1.6165   2.1377   2.4191   2.6068   3.3146   3.6941   3.8027
     4.1211   4.2889   4.6225   4.8322   4.9996   5.0613   5.1259   5.1770
     5.3220   5.3590   5.4294   5.4781   5.5404   5.6100   5.6453   5.6627
     5.6831   5.7014   5.7302   5.7652   5.7931   5.8165   5.8371   5.8956
     5.9748   6.0025   6.0387   6.2740   6.4240   6.5186   6.6011   6.6505
     6.7143   6.9502   7.3522   7.5067   8.0051   8.2495   8.4251   8.9274
     8.9979   9.5856   9.9655  10.6682  10.9178  11.1415  11.4459

          k = 0.1267 0.5120-0.2000 ( 16374 PWs)   bands (ev):

   -95.4515 -95.4514 -95.4513 -95.3790 -95.3790 -95.3789 -55.8690 -55.8688
   -55.8688 -55.8681 -55.8679 -55.8678 -55.8612 -55.8481 -55.8448 -55.8051
   -55.8051 -55.8049 -55.7988 -55.7987 -55.7986 -55.7715 -55.7681 -55.7549
     1.3368   1.3769   2.2858   2.2987   2.8361   3.2587   3.7150   3.9107
     3.9287   3.9514   4.7686   4.9417   5.0074   5.1057   5.1301   5.1845
     5.3221   5.3541   5.4063   5.4853   5.5364   5.6095   5.6356   5.6686
     5.6873   5.7078   5.7290   5.7635   5.7826   5.8246   5.8370   5.9143
     5.9761   5.9950   6.0261   6.2745   6.4075   6.4843   6.6022   6.6065
     6.8348   7.1230   7.4067   7.5095   7.9917   8.1881   8.3623   8.5675
     9.2380   9.3583  10.1297  10.1560  10.9724  11.1339  12.1867

          k = 0.2534 0.4388 0.0000 ( 16380 PWs)   bands (ev):

   -95.4514 -95.4514 -95.4513 -95.3790 -95.3789 -95.3789 -55.8689 -55.8689
   -55.8688 -55.8680 -55.8680 -55.8678 -55.8551 -55.8551 -55.8448 -55.8051
   -55.8050 -55.8050 -55.7988 -55.7987 -55.7986 -55.7715 -55.7611 -55.7611
     1.0332   1.8638   1.8881   2.7925   2.9318   3.5489   3.5803   3.6387
     3.6689   4.1669   4.1875   4.8986   5.0124   5.1005   5.1349   5.2197
     5.2444   5.2958   5.4554   5.4680   5.5377   5.6033   5.6072   5.6629
     5.7295   5.7500   5.7637   5.7695   5.7880   5.8863   5.8866   5.9192
     5.9582   5.9589   6.2327   6.2426   6.3453   6.4636   6.5074   6.6373
     6.6627   7.2822   7.3292   7.3757   7.5791   8.9447   9.1574   9.3941
     9.5650   9.7041   9.9412  10.1593  10.6960  10.8373  11.1350

          k = 0.2534 0.4388 0.1000 ( 16361 PWs)   bands (ev):

   -95.4514 -95.4514 -95.4513 -95.3790 -95.3789 -95.3789 -55.8689 -55.8689
   -55.8688 -55.8680 -55.8680 -55.8678 -55.8551 -55.8551 -55.8448 -55.8051
   -55.8050 -55.8050 -55.7988 -55.7987 -55.7986 -55.7715 -55.7611 -55.7611
     1.0872   1.5140   2.3119   2.8406   2.9794   3.2475   3.3495   3.5825
     3.9787   4.0127   4.5549   4.7328   4.9387   5.1485   5.1593   5.2248
     5.2412   5.2974   5.4453   5.4800   5.5437   5.6021   5.6133   5.6709
     5.7026   5.7377   5.7552   5.7791   5.8031   5.8866   5.8971   5.9121
     5.9352   6.0033   6.2235   6.2499   6.3421   6.4675   6.5345   6.5649
     6.8713   6.8898   7.0600   7.7913   8.0826   8.6007   9.0257   9.3669
     9.6164   9.6797   9.9683  10.2061  10.2460  10.3429  11.2550

          k = 0.2534 0.4388-0.2000 ( 16354 PWs)   bands (ev):

   -95.4514 -95.4514 -95.4513 -95.3790 -95.3789 -95.3789 -55.8689 -55.8689
   -55.8688 -55.8680 -55.8680 -55.8678 -55.8551 -55.8551 -55.8448 -55.8051
   -55.8050 -55.8050 -55.7988 -55.7987 -55.7986 -55.7715 -55.7611 -55.7611
     1.2404   1.2569   2.6392   2.9434   3.0560   3.1098   3.1603   3.1769
     4.3418   4.3533   4.4040   4.4075   5.0393   5.1226   5.1823   5.2045
     5.2611   5.2984   5.4434   5.4861   5.5403   5.6048   5.6405   5.6440
     5.6939   5.7292   5.7488   5.7867   5.8118   5.8866   5.9038   5.9097
     5.9246   6.0338   6.2166   6.2544   6.3383   6.4708   6.5673   6.5745
     6.7282   6.8148   7.4236   7.4312   8.6494   8.8572   8.9752   9.1020
     9.1951   9.6082   9.7366   9.8897  10.3086  10.4407  11.6707

          k = 0.2534 0.5851 0.0000 ( 16380 PWs)   bands (ev):

   -95.4514 -95.4514 -95.4513 -95.3790 -95.3790 -95.3789 -55.8689 -55.8688
   -55.8688 -55.8680 -55.8679 -55.8679 -55.8551 -55.8481 -55.8481 -55.8051
   -55.8051 -55.8050 -55.7988 -55.7987 -55.7987 -55.7681 -55.7681 -55.7611
     1.7341   1.9333   2.5001   2.6297   2.6493   2.8435   2.8587   3.5217
     3.5343   4.4893   4.5283   4.7204   4.8970   5.0052   5.1596   5.2358
     5.2950   5.3829   5.3928   5.4739   5.4774   5.5816   5.5834   5.6689
     5.7170   5.7488   5.7619   5.7732   5.8198   5.8641   5.8646   5.9214
     5.9367   6.0007   6.0200   6.2089   6.3736   6.4105   6.4561   6.7720
     6.7851   6.8503   7.0197   7.2588   7.4715   9.1468   9.5274   9.7012
     9.9389  10.3397  10.3536  10.5818  10.7618  10.8538  11.0043

          k = 0.2534 0.5851 0.1000 ( 16361 PWs)   bands (ev):

   -95.4514 -95.4514 -95.4513 -95.3790 -95.3790 -95.3789 -55.8689 -55.8688
   -55.8688 -55.8680 -55.8679 -55.8679 -55.8551 -55.8481 -55.8481 -55.8051
   -55.8051 -55.8050 -55.7988 -55.7987 -55.7987 -55.7681 -55.7681 -55.7611
     1.7831   1.9779   2.2304   2.4031   2.8168   3.0294   3.1647   3.2597
     3.9013   4.1755   4.1890   4.6660   5.0451   5.1050   5.2218   5.2362
     5.2986   5.3881   5.3952   5.4441   5.4647   5.5700   5.6043   5.6324
     5.7098   5.7607   5.7717   5.7935   5.8250   5.8472   5.8840   5.9146
     5.9416   5.9992   6.0183   6.2098   6.3456   6.4446   6.4827   6.5781
     6.6532   6.9172   7.2373   7.4085   7.9541   8.9461   9.1928   9.2490
     9.6297  10.0045  10.3345  10.7347  10.8288  10.9705  11.1140

          k = 0.2534 0.5851-0.2000 ( 16362 PWs)   bands (ev):

   -95.4514 -95.4514 -95.4513 -95.3790 -95.3790 -95.3789 -55.8689 -55.8688
   -55.8688 -55.8680 -55.8679 -55.8679 -55.8551 -55.8481 -55.8481 -55.8051
   -55.8051 -55.8050 -55.7988 -55.7987 -55.7987 -55.7681 -55.7681 -55.7611
     1.8788   2.0351   2.0615   2.2321   2.9436   2.9758   3.3729   3.6330
     3.7511   3.8129   4.2889   4.3524   5.1209   5.2275   5.2341   5.2739
     5.3007   5.3884   5.3969   5.4067   5.4433   5.5860   5.5907   5.6107
     5.7094   5.7609   5.7720   5.8174   5.8316   5.8426   5.8910   5.9115
     5.9441   5.9971   6.0165   6.2107   6.3296   6.4840   6.5180   6.5322
     6.5586   6.7483   7.7142   7.8220   8.1734   8.4738   8.9241   9.0536
     9.2947   9.6881  10.6233  10.6870  10.7887  11.0342  11.0348

     the Fermi energy is     7.2426 ev

!    total energy              =   -2463.74094123 Ry
     estimated scf accuracy    <          2.5E-11 Ry
     smearing contrib. (-TS)   =       0.00066585 Ry
     internal energy E=F+TS    =   -2463.74160709 Ry

     The total energy is F=E-TS. E is the sum of the following terms:
     one-electron contribution =   -2149.60368156 Ry
     hartree contribution      =    1116.87030498 Ry
     xc contribution           =    -233.38243611 Ry
     ewald contribution        =    -821.44119323 Ry
     DFT-D3 Dispersion         =      -0.44241457 Ry
     one-center paw contrib.   =    -375.74218658 Ry

     convergence has been achieved in   9 iterations

     Forces acting on atoms (cartesian axes, Ry/au):

     atom    1 type  1   force =     0.00001597   -0.00000922    0.00000000
     atom    2 type  1   force =    -0.00000000    0.00001844    0.00000000
     atom    3 type  1   force =    -0.00001597    0.00000922    0.00000000
     atom    4 type  1   force =     0.00000000   -0.00001844   -0.00000000
     atom    5 type  1   force =    -0.00001597   -0.00000922    0.00000000
     atom    6 type  1   force =     0.00001597    0.00000922    0.00000000
     atom    7 type  1   force =     0.00000000    0.00000000    0.00008052
     atom    8 type  1   force =     0.00000000    0.00000000   -0.00008052
     atom    9 type  1   force =     0.00000000    0.00000000   -0.00008052
     atom   10 type  1   force =     0.00000000    0.00000000    0.00008052
     atom   11 type  1   force =     0.00000000    0.00000000   -0.00008052
     atom   12 type  1   force =     0.00000000    0.00000000    0.00008052
     atom   13 type  2   force =    -0.00000000    0.00000000    0.00000000
     atom   14 type  2   force =     0.00000000   -0.00000000    0.00000000
     atom   15 type  2   force =    -0.00000000   -0.00000000    0.00000000
     atom   16 type  2   force =     0.00000000    0.00000000    0.00000000
     atom   17 type  2   force =     0.00000000   -0.00000000    0.00000000
     atom   18 type  2   force =     0.00000000    0.00000000    0.00000000

     Total force =     0.000202     Total SCF correction =     0.000001


     Computing stress (Cartesian axis) and pressure

          total   stress  (Ry/bohr**3)                   (kbar)     P=       -0.00
  -0.00000226   0.00000000   0.00000000           -0.33        0.00        0.00
   0.00000000  -0.00000226   0.00000000            0.00       -0.33        0.00
   0.00000000   0.00000000   0.00000448            0.00        0.00        0.66

     Energy error            =      3.0E-05 Ry
     Gradient error          =      8.1E-05 Ry/Bohr
     Cell gradient error     =      6.6E-01 kbar

     number of scf cycles    =   8
     number of bfgs steps    =   7

     enthalpy           old  =   -2463.7409113300 Ry
     enthalpy           new  =   -2463.7409412349 Ry

     CASE: enthalpy          _new < enthalpy          _old

     new trust radius        =       0.0009470479 bohr
     new conv_thr            =            1.0E-11 Ry

     new unit-cell volume =   1997.61107 a.u.^3 (   296.01542 Ang^3 )
     density =      3.61160 g/cm^3

CELL_PARAMETERS (angstrom)
   5.128409202   0.000000000   0.000000000
  -2.564204601   4.441332650   0.000000000
   0.000000000   0.000000000  12.996259142

ATOMIC_POSITIONS (angstrom)
Mg              -1.2941514422        3.7080671170       10.8302159520
Mg               0.0000000000        1.4665310665        6.4981295712
Mg               3.8583560434        0.7332655333       10.8302159520
Mg               2.5642046012        2.9748015838        6.4981295712
Mg               1.2941514422        3.7080671170        2.1660431904
Mg               1.2700531590        0.7332655333        2.1660431904
Mg               1.2821023006        2.2206663251        9.3366623889
Mg               2.5642046012        0.0000000000        7.9916831343
Mg               1.2821023006        2.2206663251       12.3237695150
Mg               2.5642046012        0.0000000000        5.0045760082
Mg               3.8463069018        2.2206663251        3.6595967535
Mg               3.8463069018        2.2206663251        0.6724896274
Ni               1.2821023006        2.2206663251        4.3320863807
Ni               2.5642046012        0.0000000000       -0.0000000000
Ni               3.8463069018        2.2206663251        8.6641727616
Ni              -0.0000000000       -0.0000000000        4.3320863807
Ni               0.0000000000        0.0000000000       -0.0000000000
Ni              -0.0000000000       -0.0000000000        8.6641727616



     Writing config-only to output data dir ./outdir/mg2ni.save/ :
     XML data file
     NEW-OLD atomic charge density approx. for the potential
     New effective cutoffs (rho, wfc):  495.01   61.92

     Check: negative core charge=   -0.000001

     total cpu time spent up to now is      413.9 secs

     Self-consistent Calculation

     iteration #  1     ecut=    60.00 Ry     beta= 0.30
     Davidson diagonalization with overlap
     ethr =  1.00E-06,  avg # of iterations =  2.0

     Threshold (ethr) on eigenvalues was too large:
     Diagonalizing with lowered threshold

     Davidson diagonalization with overlap
     ethr =  9.85E-11,  avg # of iterations =  2.7

     total cpu time spent up to now is      420.5 secs

     total energy              =   -2463.74094286 Ry
     estimated scf accuracy    <       0.00000015 Ry

     iteration #  2     ecut=    60.00 Ry     beta= 0.30
     Davidson diagonalization with overlap
     ethr =  1.13E-10,  avg # of iterations =  2.3

     total cpu time spent up to now is      423.9 secs

     total energy              =   -2463.74094285 Ry
     estimated scf accuracy    <       0.00000033 Ry

     iteration #  3     ecut=    60.00 Ry     beta= 0.30
     Davidson diagonalization with overlap
     ethr =  1.13E-10,  avg # of iterations =  2.6

     total cpu time spent up to now is      427.3 secs

     total energy              =   -2463.74094287 Ry
     estimated scf accuracy    <       0.00000007 Ry

     iteration #  4     ecut=    60.00 Ry     beta= 0.30
     Davidson diagonalization with overlap
     ethr =  5.67E-11,  avg # of iterations =  2.2

     total cpu time spent up to now is      430.2 secs

     total energy              =   -2463.74094287 Ry
     estimated scf accuracy    <       0.00000013 Ry

     iteration #  5     ecut=    60.00 Ry     beta= 0.30
     Davidson diagonalization with overlap
     ethr =  5.67E-11,  avg # of iterations =  1.4

     total cpu time spent up to now is      432.9 secs

     total energy              =   -2463.74094288 Ry
     estimated scf accuracy    <          1.4E-09 Ry

     iteration #  6     ecut=    60.00 Ry     beta= 0.30
     Davidson diagonalization with overlap
     ethr =  1.08E-12,  avg # of iterations =  4.0

     total cpu time spent up to now is      437.2 secs

     total energy              =   -2463.74094288 Ry
     estimated scf accuracy    <          3.4E-09 Ry

     iteration #  7     ecut=    60.00 Ry     beta= 0.30
     Davidson diagonalization with overlap
     ethr =  1.08E-12,  avg # of iterations =  1.1

     total cpu time spent up to now is      439.8 secs

     total energy              =   -2463.74094288 Ry
     estimated scf accuracy    <          4.0E-10 Ry

     iteration #  8     ecut=    60.00 Ry     beta= 0.30
     Davidson diagonalization with overlap
     ethr =  3.01E-13,  avg # of iterations =  2.5

     total cpu time spent up to now is      443.1 secs

     total energy              =   -2463.74094288 Ry
     estimated scf accuracy    <          2.3E-11 Ry

     iteration #  9     ecut=    60.00 Ry     beta= 0.30
     Davidson diagonalization with overlap
     ethr =  1.00E-13,  avg # of iterations =  2.0

     total cpu time spent up to now is      446.1 secs

     total energy              =   -2463.74094288 Ry
     estimated scf accuracy    <          1.4E-11 Ry

     iteration # 10     ecut=    60.00 Ry     beta= 0.30
     Davidson diagonalization with overlap
     ethr =  1.00E-13,  avg # of iterations =  1.0

     total cpu time spent up to now is      448.4 secs

     End of self-consistent calculation

          k = 0.0000 0.0000 0.0000 ( 16309 PWs)   bands (ev):

   -95.4515 -95.4515 -95.4515 -95.3787 -95.3787 -95.3787 -55.8691 -55.8691
   -55.8690 -55.8680 -55.8680 -55.8680 -55.8635 -55.8635 -55.8635 -55.8047
   -55.8047 -55.8047 -55.7984 -55.7984 -55.7984 -55.7524 -55.7524 -55.7524
    -0.3977   0.4813   0.4813   3.0921   3.0921   4.7038   4.7038   4.7755
     4.7832   4.8469   4.8469   4.8640   4.9144   4.9826   4.9826   5.4399
     5.4825   5.5038   5.5038   5.5527   5.5527   5.8016   5.8016   5.8438
     5.8438   5.9282   6.0600   6.0654   6.0654   6.6343   6.6343   6.6362
     6.6394   6.6394   6.6394   6.8487   6.8689   6.8689   7.1563   7.5465
     7.6481   7.6481   7.8815   7.8815   7.9397   8.3052   8.5331   8.5331
     8.5968   8.7941   8.7941   8.9791   9.6358   9.6358  10.5364

          k = 0.0000 0.0000 0.1000 ( 16316 PWs)   bands (ev):

   -95.4515 -95.4515 -95.4515 -95.3787 -95.3787 -95.3787 -55.8691 -55.8690
   -55.8690 -55.8680 -55.8680 -55.8680 -55.8635 -55.8635 -55.8635 -55.8047
   -55.8047 -55.8047 -55.7985 -55.7984 -55.7984 -55.7524 -55.7524 -55.7524
    -0.3415   0.1029   0.9380   2.3903   3.8233   4.7113   4.7132   4.7253
     4.7639   4.8202   4.8513   4.8605   4.9187   4.9545   5.0082   5.4523
     5.4782   5.4911   5.4928   5.5037   5.6315   5.7371   5.8409   5.8465
     5.9078   5.9329   6.0603   6.0635   6.0678   6.6338   6.6350   6.6360
     6.6392   6.6393   6.6394   6.6765   6.9224   6.9300   6.9416   7.3824
     7.4135   7.4332   8.0284   8.0591   8.1411   8.4921   8.5521   8.5575
     8.7337   8.7585   8.8397   9.0502   9.6080   9.6243  10.2554

          k = 0.0000 0.0000-0.2000 ( 16334 PWs)   bands (ev):

   -95.4515 -95.4515 -95.4515 -95.3787 -95.3787 -95.3787 -55.8691 -55.8690
   -55.8690 -55.8680 -55.8680 -55.8680 -55.8635 -55.8635 -55.8635 -55.8047
   -55.8047 -55.8047 -55.7985 -55.7984 -55.7984 -55.7524 -55.7524 -55.7524
    -0.1737  -0.1737   1.2754   1.9671   4.4233   4.4233   4.7209   4.7370
     4.7370   4.8030   4.8570   4.8570   4.9322   4.9322   5.0190   5.4549
     5.4811   5.4811   5.4840   5.5393   5.5393   5.8374   5.8691   5.8691
     5.9869   6.0557   6.0557   6.0702   6.0734   6.0734   6.6336   6.6356
     6.6356   6.6393   6.6395   6.6395   7.0415   7.0929   7.0929   7.1656
     7.1656   7.2475   8.1379   8.1379   8.3004   8.4685   8.5657   8.5657
     8.7470   8.8612   8.8612   9.4099   9.4099   9.6193  10.0241

          k =-0.0000 0.1463 0.0000 ( 16313 PWs)   bands (ev):

   -95.4515 -95.4515 -95.4515 -95.3787 -95.3787 -95.3787 -55.8691 -55.8690
   -55.8690 -55.8680 -55.8680 -55.8680 -55.8635 -55.8612 -55.8611 -55.8048
   -55.8048 -55.8047 -55.7985 -55.7985 -55.7984 -55.7548 -55.7548 -55.7524
    -0.2757   0.6005   0.6021   3.1907   3.1933   4.5188   4.6904   4.7187
     4.7597   4.8061   4.8615   4.8701   4.9488   4.9604   4.9939   5.2763
     5.3241   5.4299   5.4812   5.5248   5.5266   5.7134   5.7691   5.8152
     5.8453   5.9229   5.9367   5.9809   5.9992   6.4147   6.4398   6.4823
     6.4985   6.6024   6.6352   6.6388   6.8061   6.9295   7.0159   7.0174
     7.3690   7.4393   7.4880   7.6874   7.9191   8.5899   8.7348   8.8068
     8.9051   9.0626   9.0676   9.5179   9.6636   9.9746  10.4344

          k =-0.0000 0.1463 0.1000 ( 16313 PWs)   bands (ev):

   -95.4515 -95.4515 -95.4515 -95.3787 -95.3787 -95.3787 -55.8691 -55.8690
   -55.8690 -55.8680 -55.8680 -55.8680 -55.8635 -55.8612 -55.8611 -55.8048
   -55.8048 -55.8047 -55.7985 -55.7984 -55.7984 -55.7548 -55.7548 -55.7524
    -0.2196   0.2237   1.0576   2.4958   3.9102   4.5391   4.6564   4.7270
     4.7497   4.8023   4.8220   4.8612   4.9404   4.9440   5.0230   5.2459
     5.3236   5.4043   5.4761   5.5149   5.5762   5.7211   5.8001   5.8356
     5.8600   5.9171   5.9441   5.9846   6.0014   6.3917   6.4270   6.4522
     6.5280   6.6092   6.6352   6.6388   6.7907   6.8514   6.9510   7.0313
     7.1496   7.3167   7.4555   7.8831   8.0665   8.3110   8.7166   8.8763
     8.9600   9.1091   9.2985   9.4523   9.7086   9.9891  10.4190

          k =-0.0000 0.1463-0.2000 ( 16334 PWs)   bands (ev):

   -95.4515 -95.4515 -95.4515 -95.3787 -95.3787 -95.3787 -55.8691 -55.8690
   -55.8690 -55.8680 -55.8680 -55.8680 -55.8635 -55.8612 -55.8611 -55.8048
   -55.8048 -55.8047 -55.7985 -55.7984 -55.7984 -55.7548 -55.7548 -55.7524
    -0.0528  -0.0516   1.3970   2.0720   4.4789   4.4902   4.5840   4.6061
     4.7583   4.7613   4.8370   4.8461   4.9315   4.9350   5.0449   5.2151
     5.3215   5.3886   5.4714   5.5148   5.5697   5.7902   5.8210   5.8694
     5.9199   5.9546   5.9826   5.9864   6.0149   6.0932   6.4395   6.4454
     6.5594   6.6198   6.6351   6.6388   6.7125   6.7410   6.9702   6.9839
     7.0960   7.2649   7.5417   8.0203   8.0348   8.2828   8.4925   8.8224
     9.0575   9.2539   9.2861   9.5874   9.7157  10.0472  10.5854

          k =-0.0000 0.2926 0.0000 ( 16389 PWs)   bands (ev):

   -95.4515 -95.4514 -95.4514 -95.3788 -95.3788 -95.3787 -55.8690 -55.8690
   -55.8689 -55.8681 -55.8679 -55.8679 -55.8635 -55.8551 -55.8551 -55.8049
   -55.8049 -55.8048 -55.7985 -55.7985 -55.7984 -55.7609 -55.7609 -55.7524
     0.0875   0.9540   0.9617   3.4685   3.4877   3.6519   4.2448   4.2726
     4.7012   4.7469   4.8563   4.9251   4.9309   4.9563   5.0400   5.1412
     5.1790   5.2273   5.4525   5.4914   5.5171   5.5859   5.6636   5.7672
     5.8007   5.8241   5.9007   5.9040   5.9409   6.0434   6.0813   6.1134
     6.2386   6.3727   6.4002   6.5230   6.5836   6.6353   6.6380   6.9969
     7.0826   7.2585   7.4759   7.6818   7.9475   8.0895   8.3237   9.0002
     9.0578   9.3550   9.5137   9.9612  10.2677  10.3176  11.0079

          k =-0.0000 0.2926 0.1000 ( 16367 PWs)   bands (ev):

   -95.4515 -95.4514 -95.4514 -95.3788 -95.3788 -95.3787 -55.8690 -55.8690
   -55.8689 -55.8681 -55.8679 -55.8679 -55.8635 -55.8551 -55.8551 -55.8049
   -55.8049 -55.8048 -55.7985 -55.7985 -55.7984 -55.7609 -55.7609 -55.7524
     0.1431   0.5830   1.4122   2.8055   3.6912   4.0032   4.1609   4.4898
     4.7220   4.7494   4.8548   4.8951   4.9054   4.9445   5.0254   5.1106
     5.1787   5.2370   5.4139   5.4995   5.5433   5.6270   5.6712   5.7738
     5.8022   5.8240   5.8638   5.9309   5.9437   6.0496   6.0939   6.1165
     6.2153   6.3693   6.4082   6.5523   6.5937   6.6353   6.6381   6.9474
     6.9964   7.3037   7.3310   7.5450   7.6949   8.1230   8.6653   8.8559
     8.9688   9.6095   9.7148  10.0758  10.2967  10.5137  10.8017

          k =-0.0000 0.2926-0.2000 ( 16360 PWs)   bands (ev):

   -95.4515 -95.4514 -95.4514 -95.3788 -95.3788 -95.3787 -55.8690 -55.8690
   -55.8689 -55.8681 -55.8679 -55.8679 -55.8635 -55.8551 -55.8551 -55.8049
   -55.8049 -55.8048 -55.7986 -55.7985 -55.7984 -55.7609 -55.7609 -55.7524
     0.3064   0.3121   1.7569   2.3821   3.8144   3.8182   4.5443   4.6167
     4.7166   4.7765   4.8157   4.8340   4.8694   4.9321   5.0001   5.0756
     5.1747   5.2513   5.3811   5.5150   5.5611   5.6503   5.7328   5.7807
     5.8120   5.8234   5.8360   5.9075   5.9629   6.0387   6.1059   6.1340
     6.1776   6.3663   6.4190   6.5944   6.6187   6.6352   6.6383   6.8569
     6.9649   7.0587   7.2477   7.4470   7.8379   8.2063   8.4092   8.7645
     9.5465   9.6685   9.8065  10.0842  10.0911  10.4135  11.2284

          k =-0.0000 0.4388 0.0000 ( 16379 PWs)   bands (ev):

   -95.4515 -95.4513 -95.4513 -95.3789 -95.3789 -95.3787 -55.8690 -55.8689
   -55.8688 -55.8681 -55.8679 -55.8679 -55.8635 -55.8481 -55.8480 -55.8050
   -55.8050 -55.8048 -55.7986 -55.7986 -55.7984 -55.7680 -55.7680 -55.7524
     0.6818   1.5206   1.5506   2.5464   3.3058   3.3077   3.9334   3.9416
     4.5466   4.7007   4.7927   4.8850   4.9434   5.0297   5.0541   5.1609
     5.1973   5.2683   5.3906   5.5059   5.5132   5.5523   5.5962   5.7133
     5.7145   5.7325   5.7734   5.8235   5.8448   5.8527   5.8892   5.9831
     6.0284   6.0345   6.0946   6.3133   6.4851   6.6353   6.6360   6.8535
     6.8928   7.1350   7.1873   7.3372   7.3972   8.1485   8.5710   9.0013
     9.3107   9.3812   9.6242  10.2656  10.8400  11.0320  11.2448

          k =-0.0000 0.4388 0.1000 ( 16368 PWs)   bands (ev):

   -95.4515 -95.4513 -95.4513 -95.3789 -95.3789 -95.3787 -55.8690 -55.8689
   -55.8688 -55.8681 -55.8679 -55.8679 -55.8635 -55.8481 -55.8480 -55.8050
   -55.8050 -55.8048 -55.7986 -55.7986 -55.7984 -55.7680 -55.7680 -55.7524
     0.7364   1.1685   1.9786   2.5984   2.9821   3.3016   3.7235   4.3817
     4.5719   4.6859   4.7645   4.8394   4.8951   5.0105   5.0723   5.1546
     5.2258   5.2921   5.4059   5.4845   5.5052   5.5784   5.6240   5.6892
     5.7220   5.7415   5.7594   5.8279   5.8317   5.8533   5.9059   5.9847
     6.0291   6.0369   6.0788   6.3130   6.5327   6.6353   6.6360   6.7308
     6.8724   7.0711   7.2657   7.4902   7.6370   8.0966   8.2871   8.6769
     8.8938   9.5613  10.0355  10.4988  10.7132  11.1346  11.3771

          k =-0.0000 0.4388-0.2000 ( 16370 PWs)   bands (ev):

   -95.4515 -95.4513 -95.4513 -95.3789 -95.3789 -95.3787 -55.8690 -55.8689
   -55.8688 -55.8681 -55.8679 -55.8679 -55.8635 -55.8481 -55.8480 -55.8050
   -55.8050 -55.8048 -55.7986 -55.7986 -55.7984 -55.7680 -55.7680 -55.7524
     0.8898   0.9097   2.3116   2.7258   2.7900   2.8808   4.0685   4.2119
     4.6048   4.6851   4.7867   4.8885   4.9487   4.9550   5.0534   5.1283
     5.2783   5.3021   5.3976   5.4760   5.4940   5.6226   5.6483   5.6519
     5.7317   5.7480   5.7661   5.7857   5.8372   5.8566   5.9261   5.9857
     6.0317   6.0468   6.0504   6.3099   6.5477   6.6353   6.6360   6.6993
     6.8738   7.2281   7.2342   7.4514   7.6856   7.9917   8.4490   8.6365
     8.7406   8.8968  10.5509  10.8223  10.9654  11.0690  11.6331

          k = 0.0000-0.5851 0.0000 ( 16352 PWs)   bands (ev):

   -95.4515 -95.4513 -95.4513 -95.3789 -95.3789 -95.3787 -55.8690 -55.8688
   -55.8688 -55.8681 -55.8678 -55.8678 -55.8635 -55.8448 -55.8447 -55.8050
   -55.8050 -55.8048 -55.7987 -55.7986 -55.7984 -55.7713 -55.7713 -55.7524
     1.3855   1.6024   2.1889   2.3390   2.3582   2.5452   4.2653   4.3246
     4.4793   4.6885   4.7070   4.7138   4.8020   5.0249   5.0924   5.1070
     5.2514   5.2930   5.3927   5.5530   5.5560   5.6322   5.6562   5.6676
     5.7165   5.7224   5.7225   5.7333   5.7434   5.7485   5.7696   5.7843
     5.8797   6.0106   6.0851   6.1972   6.5950   6.6291   6.6353   6.6354
     6.7453   7.0398   7.0790   7.1851   7.3459   8.1575   8.7563   9.1152
     9.3906   9.4886   9.5498  10.3037  10.5104  10.6864  12.1632

          k = 0.0000-0.5851 0.1000 ( 16378 PWs)   bands (ev):

   -95.4515 -95.4513 -95.4513 -95.3789 -95.3789 -95.3787 -55.8690 -55.8688
   -55.8688 -55.8681 -55.8678 -55.8678 -55.8635 -55.8448 -55.8447 -55.8050
   -55.8050 -55.8048 -55.7987 -55.7986 -55.7984 -55.7713 -55.7713 -55.7524
     1.4325   1.6480   1.9048   2.0970   2.7027   2.8976   3.9218   3.9509
     4.4982   4.6627   4.8191   4.8202   4.9458   5.0256   5.1067   5.1569
     5.2346   5.3654   5.4593   5.5114   5.5227   5.6123   5.6694   5.6708
     5.6957   5.7010   5.7225   5.7327   5.7531   5.7601   5.7754   5.7902
     5.9025   6.0103   6.0384   6.1972   6.4940   6.6349   6.6353   6.6554
     6.8576   7.1416   7.2407   7.2467   7.5138   8.0702   8.5091   8.8065
     8.8069   8.9993  10.0666  10.5284  11.2291  11.3565  12.0449

          k = 0.0000-0.5851-0.2000 ( 16368 PWs)   bands (ev):

   -95.4515 -95.4513 -95.4513 -95.3789 -95.3789 -95.3787 -55.8690 -55.8688
   -55.8688 -55.8681 -55.8678 -55.8678 -55.8635 -55.8448 -55.8447 -55.8050
   -55.8050 -55.8048 -55.7987 -55.7986 -55.7984 -55.7713 -55.7713 -55.7524
     1.5169   1.7195   1.7312   1.9172   3.0268   3.3267   3.4877   3.5682
     4.5260   4.6428   4.7775   4.9043   4.9802   5.0438   5.1064   5.2450
     5.3442   5.3983   5.4219   5.5067   5.5465   5.5672   5.6597   5.6650
     5.6862   5.6921   5.7229   5.7295   5.7541   5.7632   5.7798   5.8100
     5.9481   5.9697   6.0100   6.1958   6.4507   6.6346   6.6353   6.6531
     6.8558   7.3673   7.4934   7.5195   7.6325   7.9195   8.0855   8.5005
     8.5612   8.5935  10.5996  11.0765  11.2076  11.4726  12.1690

          k = 0.1267 0.2194 0.0000 ( 16312 PWs)   bands (ev):

   -95.4515 -95.4515 -95.4514 -95.3788 -95.3787 -95.3787 -55.8690 -55.8690
   -55.8689 -55.8680 -55.8680 -55.8679 -55.8612 -55.8612 -55.8551 -55.8049
   -55.8048 -55.8048 -55.7985 -55.7985 -55.7984 -55.7609 -55.7548 -55.7548
    -0.0330   0.8374   0.8419   3.3830   3.3905   4.2163   4.2203   4.5561
     4.6026   4.6808   4.7807   4.9120   4.9821   4.9918   5.0260   5.1137
     5.1545   5.2667   5.4400   5.4982   5.5725   5.6173   5.6599   5.7982
     5.8446   5.8633   5.8959   5.9130   5.9717   6.1476   6.1817   6.1843
     6.2951   6.4228   6.5325   6.5822   6.6006   6.6550   6.7604   6.7708
     6.8140   7.5220   7.7020   8.2255   8.2991   8.4769   8.5781   8.6595
     8.6668   8.8495   9.2512   9.3847   9.9755  10.8127  10.9436

          k = 0.1267 0.2194 0.1000 ( 16346 PWs)   bands (ev):

   -95.4515 -95.4515 -95.4514 -95.3788 -95.3787 -95.3787 -55.8690 -55.8690
   -55.8689 -55.8680 -55.8680 -55.8679 -55.8612 -55.8612 -55.8551 -55.8049
   -55.8048 -55.8048 -55.7985 -55.7985 -55.7984 -55.7609 -55.7548 -55.7548
     0.0227   0.4639   1.2949   2.7037   4.0734   4.2477   4.2553   4.4692
     4.5001   4.7419   4.8241   4.8924   4.9503   4.9977   5.0258   5.1240
     5.1390   5.2675   5.4215   5.5227   5.5623   5.6436   5.6916   5.8063
     5.8431   5.8511   5.9048   5.9146   5.9766   6.1380   6.1636   6.2067
     6.2858   6.4242   6.5184   6.5779   6.6105   6.6566   6.6787   6.8235
     7.0025   7.2275   7.5765   7.9263   8.0402   8.1219   8.6795   8.9039
     9.1400   9.1755   9.3797   9.5816  10.1863  10.6848  10.8438

          k = 0.1267 0.2194-0.2000 ( 16360 PWs)   bands (ev):

   -95.4515 -95.4515 -95.4514 -95.3788 -95.3787 -95.3787 -55.8690 -55.8690
   -55.8689 -55.8680 -55.8680 -55.8679 -55.8612 -55.8612 -55.8551 -55.8049
   -55.8048 -55.8048 -55.7985 -55.7985 -55.7984 -55.7609 -55.7548 -55.7548
     0.1876   0.1910   1.6381   2.2796   4.3112   4.3445   4.3499   4.3847
     4.5801   4.6116   4.8543   4.8710   4.9266   4.9750   5.0547   5.0853
     5.1690   5.2479   5.4120   5.5321   5.5681   5.6798   5.7562   5.7800
     5.8385   5.8815   5.8887   5.9301   5.9853   6.0927   6.1692   6.1907
     6.2885   6.4271   6.5025   6.5748   6.6210   6.6445   6.7333   6.8219
     6.9213   7.1921   7.5085   7.6634   7.9105   7.9469   8.7852   9.0332
     9.2174   9.2609   9.8974  10.0252  10.2564  10.2690  10.6593

          k = 0.1267 0.3657 0.0000 ( 16370 PWs)   bands (ev):

   -95.4515 -95.4514 -95.4513 -95.3789 -95.3788 -95.3787 -55.8690 -55.8689
   -55.8689 -55.8680 -55.8679 -55.8679 -55.8612 -55.8551 -55.8480 -55.8050
   -55.8049 -55.8048 -55.7986 -55.7985 -55.7984 -55.7680 -55.7609 -55.7548
     0.4464   1.3019   1.3152   3.1654   3.7092   3.7566   3.8804   3.9134
     3.9342   4.4645   4.5113   4.9680   4.9889   5.0135   5.0890   5.1641
     5.2460   5.2664   5.4249   5.4735   5.5187   5.5396   5.6308   5.7428
     5.7830   5.7965   5.8462   5.8605   5.8864   5.9131   5.9367   5.9658
     6.0606   6.0955   6.3084   6.3828   6.4983   6.5528   6.6021   6.6261
     6.7279   7.4537   7.5298   7.9168   8.0176   8.2396   8.5319   8.7632
     8.8731   9.2995   9.7175  10.0302  10.4418  11.1319  11.2156

          k = 0.1267 0.3657 0.1000 ( 16342 PWs)   bands (ev):

   -95.4515 -95.4514 -95.4513 -95.3789 -95.3788 -95.3787 -55.8690 -55.8689
   -55.8689 -55.8680 -55.8679 -55.8679 -55.8612 -55.8551 -55.8480 -55.8050
   -55.8049 -55.8048 -55.7986 -55.7985 -55.7984 -55.7680 -55.7609 -55.7548
     0.5015   0.9373   1.7595   3.0972   3.2221   3.5797   3.9663   4.1977
     4.2798   4.3608   4.6941   4.8768   4.9828   5.0270   5.0846   5.1490
     5.2285   5.2802   5.3663   5.4734   5.5435   5.5721   5.6412   5.7456
     5.7550   5.7960   5.8223   5.8721   5.8978   5.9063   5.9461   5.9718
     6.0667   6.1078   6.3032   6.3865   6.4928   6.5466   6.6185   6.6727
     6.8284   7.0721   7.4882   7.7358   7.9833   8.2890   8.4972   8.9554
     9.1659   9.5760   9.7372   9.9433  10.2742  10.7149  11.0785

          k = 0.1267 0.3657-0.2000 ( 16364 PWs)   bands (ev):

   -95.4515 -95.4514 -95.4513 -95.3789 -95.3788 -95.3787 -55.8690 -55.8689
   -55.8689 -55.8680 -55.8679 -55.8679 -55.8612 -55.8551 -55.8480 -55.8050
   -55.8049 -55.8048 -55.7986 -55.7985 -55.7984 -55.7680 -55.7609 -55.7548
     0.6612   0.6710   2.1072   2.6844   3.3448   3.3670   4.0782   4.0855
     4.4956   4.5341   4.7881   4.8535   4.9264   5.0021   5.0846   5.1225
     5.2200   5.2913   5.3309   5.4711   5.5496   5.6199   5.6651   5.6894
     5.7588   5.8013   5.8120   5.8488   5.9068   5.9290   5.9486   5.9744
     6.0716   6.1230   6.2976   6.3894   6.4908   6.5454   6.6329   6.7761
     6.9167   7.0254   7.1486   7.3804   8.0129   8.2270   9.0737   9.1816
     9.3606   9.3810   9.7001   9.8816  10.1500  10.2707  11.5776

          k = 0.1267 0.5120 0.0000 ( 16377 PWs)   bands (ev):

   -95.4515 -95.4513 -95.4513 -95.3789 -95.3789 -95.3787 -55.8690 -55.8689
   -55.8688 -55.8681 -55.8679 -55.8678 -55.8612 -55.8481 -55.8447 -55.8050
   -55.8050 -55.8048 -55.7986 -55.7986 -55.7984 -55.7713 -55.7680 -55.7548
     1.1436   1.9012   2.0079   2.1710   2.8899   2.9269   3.7599   4.2076
     4.2410   4.3593   4.3814   4.8031   4.8735   5.0340   5.1222   5.1739
     5.3281   5.3798   5.4114   5.4911   5.5486   5.5987   5.6501   5.6728
     5.6828   5.6955   5.7237   5.7703   5.7940   5.8113   5.8375   5.8836
     5.9753   6.0040   6.0511   6.2723   6.4759   6.5214   6.5881   6.6434
     6.7058   6.8965   7.0238   7.8180   7.8686   8.2852   8.5269   8.7988
     9.2502   9.8638  10.2707  10.6086  10.7631  10.9228  11.0524

          k = 0.1267 0.5120 0.1000 ( 16380 PWs)   bands (ev):

   -95.4515 -95.4513 -95.4513 -95.3789 -95.3789 -95.3787 -55.8690 -55.8689
   -55.8688 -55.8681 -55.8679 -55.8678 -55.8612 -55.8481 -55.8447 -55.8050
   -55.8050 -55.8048 -55.7986 -55.7986 -55.7984 -55.7713 -55.7680 -55.7548
     1.1968   1.6166   2.1378   2.4191   2.6070   3.3146   3.6937   3.8031
     4.1213   4.2887   4.6226   4.8319   4.9996   5.0612   5.1260   5.1770
     5.3221   5.3590   5.4295   5.4781   5.5404   5.6101   5.6454   5.6628
     5.6832   5.7015   5.7302   5.7652   5.7932   5.8166   5.8372   5.8957
     5.9749   6.0026   6.0388   6.2743   6.4241   6.5187   6.6013   6.6506
     6.7144   6.9500   7.3519   7.5064   8.0054   8.2498   8.4244   8.9274
     8.9975   9.5851   9.9654  10.6675  10.9182  11.1417  11.4450

          k = 0.1267 0.5120-0.2000 ( 16374 PWs)   bands (ev):

   -95.4515 -95.4513 -95.4513 -95.3789 -95.3789 -95.3787 -55.8690 -55.8689
   -55.8688 -55.8681 -55.8679 -55.8678 -55.8612 -55.8481 -55.8447 -55.8050
   -55.8050 -55.8048 -55.7986 -55.7986 -55.7984 -55.7713 -55.7680 -55.7548
     1.3369   1.3770   2.2860   2.2988   2.8362   3.2582   3.7151   3.9109
     3.9289   3.9513   4.7686   4.9419   5.0073   5.1057   5.1302   5.1845
     5.3221   5.3540   5.4064   5.4854   5.5363   5.6096   5.6356   5.6687
     5.6874   5.7078   5.7290   5.7635   5.7827   5.8247   5.8371   5.9144
     5.9762   5.9950   6.0262   6.2748   6.4076   6.4843   6.6024   6.6068
     6.8350   7.1228   7.4062   7.5089   7.9919   8.1884   8.3617   8.5669
     9.2377   9.3589  10.1292  10.1554  10.9731  11.1346  12.1865

          k = 0.2534 0.4388 0.0000 ( 16380 PWs)   bands (ev):

   -95.4514 -95.4514 -95.4513 -95.3789 -95.3788 -95.3788 -55.8689 -55.8689
   -55.8688 -55.8680 -55.8680 -55.8678 -55.8551 -55.8551 -55.8447 -55.8050
   -55.8049 -55.8049 -55.7986 -55.7985 -55.7985 -55.7713 -55.7609 -55.7609
     1.0333   1.8638   1.8881   2.7929   2.9321   3.5490   3.5806   3.6387
     3.6691   4.1665   4.1871   4.8986   5.0123   5.1005   5.1349   5.2197
     5.2444   5.2958   5.4554   5.4681   5.5377   5.6034   5.6074   5.6630
     5.7296   5.7501   5.7638   5.7695   5.7880   5.8864   5.8867   5.9193
     5.9582   5.9589   6.2330   6.2429   6.3454   6.4637   6.5075   6.6374
     6.6628   7.2818   7.3290   7.3754   7.5786   8.9451   9.1570   9.3936
     9.5654   9.7047   9.9418  10.1598  10.6957  10.8365  11.1343

          k = 0.2534 0.4388 0.1000 ( 16361 PWs)   bands (ev):

   -95.4514 -95.4514 -95.4513 -95.3789 -95.3788 -95.3788 -55.8689 -55.8689
   -55.8688 -55.8680 -55.8680 -55.8678 -55.8551 -55.8551 -55.8447 -55.8050
   -55.8049 -55.8049 -55.7986 -55.7985 -55.7985 -55.7713 -55.7609 -55.7609
     1.0874   1.5141   2.3118   2.8410   2.9796   3.2478   3.3496   3.5821
     3.9788   4.0127   4.5547   4.7328   4.9385   5.1485   5.1593   5.2249
     5.2412   5.2974   5.4452   5.4800   5.5436   5.6023   5.6134   5.6709
     5.7026   5.7378   5.7553   5.7792   5.8031   5.8868   5.8972   5.9122
     5.9352   6.0033   6.2238   6.2502   6.3422   6.4676   6.5347   6.5651
     6.8712   6.8896   7.0597   7.7907   8.0821   8.6000   9.0264   9.3674
     9.6161   9.6802   9.9685  10.2064  10.2455  10.3429  11.2540

          k = 0.2534 0.4388-0.2000 ( 16354 PWs)   bands (ev):

   -95.4514 -95.4514 -95.4513 -95.3789 -95.3788 -95.3788 -55.8689 -55.8689
   -55.8688 -55.8680 -55.8680 -55.8678 -55.8551 -55.8551 -55.8447 -55.8050
   -55.8049 -55.8049 -55.7986 -55.7985 -55.7985 -55.7713 -55.7609 -55.7609
     1.2406   1.2570   2.6392   2.9437   3.0563   3.1100   3.1602   3.1766
     4.3419   4.3534   4.4038   4.4075   5.0391   5.1224   5.1823   5.2045
     5.2611   5.2984   5.4434   5.4862   5.5402   5.6050   5.6406   5.6440
     5.6939   5.7293   5.7489   5.7868   5.8119   5.8867   5.9039   5.9097
     5.9247   6.0338   6.2169   6.2547   6.3384   6.4709   6.5675   6.5747
     6.7281   6.8147   7.4230   7.4306   8.6488   8.8566   8.9752   9.1013
     9.1957   9.6083   9.7374   9.8900  10.3094  10.4408  11.6714

          k = 0.2534 0.5851 0.0000 ( 16380 PWs)   bands (ev):

   -95.4514 -95.4513 -95.4513 -95.3789 -95.3789 -95.3788 -55.8689 -55.8689
   -55.8689 -55.8680 -55.8679 -55.8679 -55.8551 -55.8481 -55.8481 -55.8050
   -55.8050 -55.8049 -55.7986 -55.7986 -55.7985 -55.7680 -55.7680 -55.7609
     1.7344   1.9334   2.5002   2.6297   2.6495   2.8435   2.8589   3.5219
     3.5344   4.4891   4.5281   4.7203   4.8968   5.0050   5.1595   5.2359
     5.2951   5.3830   5.3929   5.4739   5.4774   5.5815   5.5833   5.6690
     5.7171   5.7487   5.7620   5.7733   5.8199   5.8642   5.8647   5.9215
     5.9368   6.0009   6.0202   6.2092   6.3737   6.4107   6.4563   6.7720
     6.7849   6.8502   7.0194   7.2585   7.4711   9.1475   9.5270   9.7006
     9.9394  10.3387  10.3532  10.5809  10.7623  10.8541  11.0037

          k = 0.2534 0.5851 0.1000 ( 16361 PWs)   bands (ev):

   -95.4514 -95.4513 -95.4513 -95.3789 -95.3789 -95.3788 -55.8689 -55.8689
   -55.8689 -55.8680 -55.8679 -55.8679 -55.8551 -55.8481 -55.8481 -55.8050
   -55.8050 -55.8049 -55.7986 -55.7986 -55.7985 -55.7680 -55.7680 -55.7609
     1.7834   1.9781   2.2306   2.4031   2.8171   3.0295   3.1647   3.2598
     3.9013   4.1753   4.1887   4.6660   5.0449   5.1048   5.2217   5.2363
     5.2987   5.3882   5.3953   5.4441   5.4647   5.5700   5.6042   5.6324
     5.7099   5.7608   5.7718   5.7936   5.8251   5.8473   5.8841   5.9146
     5.9417   5.9993   6.0185   6.2101   6.3457   6.4447   6.4829   6.5781
     6.6532   6.9171   7.2369   7.4079   7.9535   8.9455   9.1922   9.2492
     9.6300  10.0039  10.3350  10.7354  10.8289  10.9711  11.1146

          k = 0.2534 0.5851-0.2000 ( 16362 PWs)   bands (ev):

   -95.4514 -95.4513 -95.4513 -95.3789 -95.3789 -95.3788 -55.8689 -55.8689
   -55.8689 -55.8680 -55.8679 -55.8679 -55.8551 -55.8481 -55.8481 -55.8050
   -55.8050 -55.8049 -55.7986 -55.7986 -55.7985 -55.7680 -55.7680 -55.7609
     1.8790   2.0353   2.0616   2.2322   2.9438   2.9760   3.3730   3.6331
     3.7507   3.8126   4.2890   4.3523   5.1208   5.2274   5.2342   5.2738
     5.3008   5.3884   5.3970   5.4067   5.4433   5.5860   5.5907   5.6106
     5.7095   5.7610   5.7721   5.8175   5.8317   5.8427   5.8911   5.9115
     5.9442   5.9972   6.0167   6.2110   6.3297   6.4841   6.5181   6.5323
     6.5586   6.7482   7.7135   7.8213   8.1728   8.4730   8.9234   9.0532
     9.2953   9.6885  10.6241  10.6872  10.7895  11.0350  11.0355

     the Fermi energy is     7.2425 ev

!    total energy              =   -2463.74094288 Ry
     estimated scf accuracy    <          1.4E-13 Ry
     smearing contrib. (-TS)   =       0.00066779 Ry
     internal energy E=F+TS    =   -2463.74161067 Ry

     The total energy is F=E-TS. E is the sum of the following terms:
     one-electron contribution =   -2149.64299700 Ry
     hartree contribution      =    1116.89023237 Ry
     xc contribution           =    -233.38225895 Ry
     ewald contribution        =    -821.42203775 Ry
     DFT-D3 Dispersion         =      -0.44241358 Ry
     one-center paw contrib.   =    -375.74213576 Ry

     convergence has been achieved in  10 iterations

     Forces acting on atoms (cartesian axes, Ry/au):

     atom    1 type  1   force =    -0.00001279    0.00000738   -0.00000000
     atom    2 type  1   force =     0.00000000   -0.00001477   -0.00000000
     atom    3 type  1   force =     0.00001279   -0.00000738    0.00000000
     atom    4 type  1   force =    -0.00000000    0.00001477    0.00000000
     atom    5 type  1   force =     0.00001279    0.00000738   -0.00000000
     atom    6 type  1   force =    -0.00001279   -0.00000738   -0.00000000
     atom    7 type  1   force =     0.00000000    0.00000000    0.00003467
     atom    8 type  1   force =     0.00000000    0.00000000   -0.00003467
     atom    9 type  1   force =     0.00000000    0.00000000   -0.00003467
     atom   10 type  1   force =     0.00000000    0.00000000    0.00003467
     atom   11 type  1   force =     0.00000000    0.00000000   -0.00003467
     atom   12 type  1   force =     0.00000000    0.00000000    0.00003467
     atom   13 type  2   force =     0.00000000    0.00000000    0.00000000
     atom   14 type  2   force =    -0.00000000   -0.00000000    0.00000000
     atom   15 type  2   force =     0.00000000    0.00000000    0.00000000
     atom   16 type  2   force =     0.00000000    0.00000000    0.00000000
     atom   17 type  2   force =    -0.00000000   -0.00000000    0.00000000
     atom   18 type  2   force =    -0.00000000   -0.00000000    0.00000000

     Total force =     0.000092     Total SCF correction =     0.000000


     Computing stress (Cartesian axis) and pressure

          total   stress  (Ry/bohr**3)                   (kbar)     P=       -0.01
  -0.00000199   0.00000000   0.00000000           -0.29        0.00        0.00
   0.00000000  -0.00000199   0.00000000            0.00       -0.29        0.00
   0.00000000   0.00000000   0.00000380            0.00        0.00        0.56

     Energy error            =      1.6E-06 Ry
     Gradient error          =      3.5E-05 Ry/Bohr
     Cell gradient error     =      5.6E-01 kbar

     number of scf cycles    =   9
     number of bfgs steps    =   8

     enthalpy           old  =   -2463.7409412349 Ry
     enthalpy           new  =   -2463.7409428803 Ry

     CASE: enthalpy          _new < enthalpy          _old

     new trust radius        =       0.0014204235 bohr
     new conv_thr            =            1.0E-11 Ry

     new unit-cell volume =   1997.63069 a.u.^3 (   296.01833 Ang^3 )
     density =      3.61156 g/cm^3

CELL_PARAMETERS (angstrom)
   5.128026964   0.000000000   0.000000000
  -2.564013482   4.441001622   0.000000000
   0.000000000   0.000000000  12.998324288

ATOMIC_POSITIONS (angstrom)
Mg              -1.2940060262        3.7077624754       10.8319369070
Mg               0.0000000000        1.4664782927        6.4991621441
Mg               3.8580195081        0.7332391464       10.8319369070
Mg               2.5640134818        2.9745233291        6.4991621441
Mg               1.2940060262        3.7077624754        2.1663873814
Mg               1.2700074556        0.7332391464        2.1663873814
Mg               1.2820067409        2.2205008109        9.3383114943
Mg               2.5640134818        0.0000000000        7.9927875568
Mg               1.2820067409        2.2205008109       12.3255623196
Mg               2.5640134818        0.0000000000        5.0055367316
Mg               3.8460202227        2.2205008109        3.6600127941
Mg               3.8460202227        2.2205008109        0.6727619688
Ni               1.2820067409        2.2205008109        4.3327747627
Ni               2.5640134818        0.0000000000       -0.0000000000
Ni               3.8460202227        2.2205008109        8.6655495256
Ni              -0.0000000000       -0.0000000000        4.3327747627
Ni               0.0000000000        0.0000000000       -0.0000000000
Ni              -0.0000000000       -0.0000000000        8.6655495256



     Writing config-only to output data dir ./outdir/mg2ni.save/ :
     XML data file
     NEW-OLD atomic charge density approx. for the potential
     New effective cutoffs (rho, wfc):  494.88   61.90

     Check: negative core charge=   -0.000001

     total cpu time spent up to now is      451.7 secs

     Self-consistent Calculation

     iteration #  1     ecut=    60.00 Ry     beta= 0.30
     Davidson diagonalization with overlap
     ethr =  1.00E-06,  avg # of iterations =  2.0

     Threshold (ethr) on eigenvalues was too large:
     Diagonalizing with lowered threshold

     Davidson diagonalization with overlap
     ethr =  2.56E-10,  avg # of iterations =  2.2

     total cpu time spent up to now is      457.9 secs

     total energy              =   -2463.74094440 Ry
     estimated scf accuracy    <       0.00000038 Ry

     iteration #  2     ecut=    60.00 Ry     beta= 0.30
     Davidson diagonalization with overlap
     ethr =  2.85E-10,  avg # of iterations =  2.5

     total cpu time spent up to now is      461.4 secs

     total energy              =   -2463.74094438 Ry
     estimated scf accuracy    <       0.00000084 Ry

     iteration #  3     ecut=    60.00 Ry     beta= 0.30
     Davidson diagonalization with overlap
     ethr =  2.85E-10,  avg # of iterations =  2.5

     total cpu time spent up to now is      464.7 secs

     total energy              =   -2463.74094444 Ry
     estimated scf accuracy    <       0.00000013 Ry

     iteration #  4     ecut=    60.00 Ry     beta= 0.30
     Davidson diagonalization with overlap
     ethr =  9.70E-11,  avg # of iterations =  2.8

     total cpu time spent up to now is      468.3 secs

     total energy              =   -2463.74094444 Ry
     estimated scf accuracy    <       0.00000035 Ry

     iteration #  5     ecut=    60.00 Ry     beta= 0.30
     Davidson diagonalization with overlap
     ethr =  9.70E-11,  avg # of iterations =  2.1

     total cpu time spent up to now is      471.1 secs

     total energy              =   -2463.74094446 Ry
     estimated scf accuracy    <          1.7E-09 Ry

     iteration #  6     ecut=    60.00 Ry     beta= 0.30
     Davidson diagonalization with overlap
     ethr =  1.26E-12,  avg # of iterations =  4.2

     total cpu time spent up to now is      475.6 secs

     total energy              =   -2463.74094446 Ry
     estimated scf accuracy    <          2.7E-09 Ry

     iteration #  7     ecut=    60.00 Ry     beta= 0.30
     Davidson diagonalization with overlap
     ethr =  1.26E-12,  avg # of iterations =  1.2

     total cpu time spent up to now is      478.1 secs

     total energy              =   -2463.74094446 Ry
     estimated scf accuracy    <          1.6E-10 Ry

     iteration #  8     ecut=    60.00 Ry     beta= 0.30
     Davidson diagonalization with overlap
     ethr =  1.21E-13,  avg # of iterations =  4.0

     total cpu time spent up to now is      482.2 secs

     End of self-consistent calculation

          k = 0.0000 0.0000 0.0000 ( 16309 PWs)   bands (ev):

   -95.4516 -95.4516 -95.4516 -95.3787 -95.3787 -95.3787 -55.8691 -55.8691
   -55.8691 -55.8681 -55.8681 -55.8681 -55.8635 -55.8635 -55.8635 -55.8048
   -55.8048 -55.8048 -55.7984 -55.7984 -55.7984 -55.7524 -55.7524 -55.7524
    -0.3977   0.4810   0.4810   3.0910   3.0910   4.7038   4.7038   4.7754
     4.7830   4.8468   4.8468   4.8639   4.9144   4.9826   4.9826   5.4399
     5.4828   5.5038   5.5038   5.5525   5.5525   5.8018   5.8018   5.8439
     5.8439   5.9282   6.0601   6.0655   6.0655   6.6347   6.6347   6.6365
     6.6396   6.6396   6.6396   6.8496   6.8699   6.8699   7.1542   7.5471
     7.6488   7.6488   7.8821   7.8821   7.9404   8.3042   8.5335   8.5335
     8.5971   8.7947   8.7947   8.9796   9.6365   9.6365  10.5365

          k = 0.0000 0.0000 0.1000 ( 16316 PWs)   bands (ev):

   -95.4516 -95.4516 -95.4516 -95.3787 -95.3787 -95.3787 -55.8692 -55.8691
   -55.8691 -55.8681 -55.8681 -55.8681 -55.8635 -55.8635 -55.8635 -55.8048
   -55.8048 -55.8048 -55.7984 -55.7984 -55.7984 -55.7524 -55.7524 -55.7524
    -0.3415   0.1027   0.9375   2.3894   3.8222   4.7113   4.7133   4.7249
     4.7638   4.8201   4.8512   4.8604   4.9188   4.9545   5.0082   5.4523
     5.4780   5.4911   5.4931   5.5037   5.6318   5.7366   5.8410   5.8466
     5.9078   5.9330   6.0605   6.0636   6.0680   6.6341   6.6353   6.6364
     6.6394   6.6396   6.6397   6.6748   6.9232   6.9310   6.9426   7.3832
     7.4141   7.4339   8.0290   8.0598   8.1416   8.4924   8.5522   8.5579
     8.7336   8.7590   8.8402   9.0501   9.6083   9.6251  10.2550

          k = 0.0000 0.0000-0.1999 ( 16334 PWs)   bands (ev):

   -95.4516 -95.4516 -95.4516 -95.3787 -95.3787 -95.3787 -55.8692 -55.8691
   -55.8691 -55.8681 -55.8681 -55.8681 -55.8635 -55.8635 -55.8635 -55.8048
   -55.8048 -55.8048 -55.7984 -55.7984 -55.7984 -55.7524 -55.7524 -55.7524
    -0.1738  -0.1738   1.2749   1.9662   4.4224   4.4224   4.7209   4.7370
     4.7370   4.8030   4.8570   4.8570   4.9322   4.9322   5.0189   5.4548
     5.4811   5.4811   5.4840   5.5396   5.5396   5.8375   5.8692   5.8692
     5.9869   6.0554   6.0554   6.0703   6.0727   6.0727   6.6339   6.6359
     6.6359   6.6395   6.6397   6.6397   7.0423   7.0936   7.0936   7.1664
     7.1664   7.2484   8.1385   8.1385   8.3009   8.4688   8.5661   8.5661
     8.7475   8.8618   8.8618   9.4096   9.4096   9.6201  10.0238

          k =-0.0000 0.1463 0.0000 ( 16313 PWs)   bands (ev):

   -95.4516 -95.4515 -95.4515 -95.3787 -95.3787 -95.3787 -55.8691 -55.8691
   -55.8691 -55.8681 -55.8681 -55.8681 -55.8635 -55.8612 -55.8612 -55.8048
   -55.8048 -55.8048 -55.7984 -55.7984 -55.7984 -55.7547 -55.7547 -55.7524
    -0.2757   0.6002   0.6018   3.1897   3.1922   4.5190   4.6904   4.7188
     4.7597   4.8062   4.8612   4.8700   4.9487   4.9604   4.9939   5.2764
     5.3242   5.4300   5.4812   5.5247   5.5265   5.7134   5.7691   5.8152
     5.8454   5.9229   5.9368   5.9811   5.9993   6.4151   6.4400   6.4823
     6.4989   6.6027   6.6355   6.6390   6.8068   6.9300   7.0163   7.0179
     7.3675   7.4399   7.4882   7.6879   7.9196   8.5888   8.7349   8.8070
     8.9054   9.0631   9.0680   9.5184   9.6640   9.9749  10.4343

          k =-0.0000 0.1463 0.1000 ( 16313 PWs)   bands (ev):

   -95.4516 -95.4515 -95.4515 -95.3787 -95.3787 -95.3787 -55.8691 -55.8691
   -55.8691 -55.8681 -55.8681 -55.8681 -55.8635 -55.8612 -55.8612 -55.8048
   -55.8048 -55.8048 -55.7985 -55.7984 -55.7984 -55.7547 -55.7547 -55.7524
    -0.2197   0.2236   1.0572   2.4949   3.9091   4.5393   4.6565   4.7269
     4.7497   4.8021   4.8220   4.8612   4.9404   4.9440   5.0230   5.2460
     5.3238   5.4043   5.4760   5.5149   5.5763   5.7207   5.8001   5.8356
     5.8601   5.9171   5.9442   5.9848   6.0015   6.3914   6.4273   6.4524
     6.5285   6.6095   6.6355   6.6390   6.7910   6.8521   6.9506   7.0317
     7.1499   7.3172   7.4559   7.8836   8.0669   8.3110   8.7168   8.8763
     8.9600   9.1094   9.2989   9.4526   9.7091   9.9895  10.4189

          k =-0.0000 0.1463-0.1999 ( 16334 PWs)   bands (ev):

   -95.4516 -95.4515 -95.4515 -95.3787 -95.3787 -95.3787 -55.8691 -55.8691
   -55.8691 -55.8681 -55.8681 -55.8681 -55.8635 -55.8612 -55.8612 -55.8048
   -55.8048 -55.8048 -55.7985 -55.7984 -55.7984 -55.7547 -55.7547 -55.7524
    -0.0529  -0.0517   1.3966   2.0712   4.4781   4.4894   4.5841   4.6062
     4.7583   4.7612   4.8370   4.8461   4.9315   4.9350   5.0448   5.2153
     5.3216   5.3885   5.4714   5.5148   5.5698   5.7902   5.8211   5.8695
     5.9200   5.9546   5.9827   5.9859   6.0147   6.0923   6.4397   6.4456
     6.5598   6.6200   6.6354   6.6390   6.7126   6.7415   6.9709   6.9845
     7.0965   7.2654   7.5422   8.0207   8.0350   8.2833   8.4927   8.8226
     9.0581   9.2541   9.2866   9.5881   9.7156  10.0478  10.5849

          k =-0.0000 0.2926 0.0000 ( 16389 PWs)   bands (ev):

   -95.4516 -95.4515 -95.4515 -95.3788 -95.3788 -95.3787 -55.8691 -55.8690
   -55.8690 -55.8681 -55.8680 -55.8680 -55.8635 -55.8551 -55.8551 -55.8049
   -55.8049 -55.8048 -55.7985 -55.7985 -55.7984 -55.7609 -55.7609 -55.7524
     0.0876   0.9537   0.9614   3.4676   3.4868   3.6523   4.2450   4.2727
     4.7016   4.7471   4.8564   4.9251   4.9308   4.9563   5.0398   5.1411
     5.1790   5.2273   5.4523   5.4913   5.5170   5.5859   5.6636   5.7672
     5.8007   5.8242   5.9008   5.9039   5.9409   6.0435   6.0815   6.1136
     6.2385   6.3731   6.4006   6.5232   6.5841   6.6356   6.6382   6.9973
     7.0829   7.2588   7.4763   7.6806   7.9471   8.0899   8.3229   8.9990
     9.0577   9.3550   9.5140   9.9616  10.2686  10.3171  11.0084

          k =-0.0000 0.2926 0.1000 ( 16367 PWs)   bands (ev):

   -95.4516 -95.4515 -95.4515 -95.3788 -95.3788 -95.3787 -55.8691 -55.8690
   -55.8690 -55.8681 -55.8680 -55.8680 -55.8635 -55.8551 -55.8551 -55.8049
   -55.8049 -55.8048 -55.7985 -55.7985 -55.7984 -55.7609 -55.7609 -55.7524
     0.1432   0.5829   1.4119   2.8047   3.6916   4.0034   4.1601   4.4898
     4.7223   4.7496   4.8548   4.8950   4.9054   4.9445   5.0252   5.1105
     5.1786   5.2370   5.4138   5.4995   5.5432   5.6269   5.6711   5.7738
     5.8021   5.8241   5.8638   5.9309   5.9437   6.0496   6.0940   6.1166
     6.2151   6.3696   6.4085   6.5524   6.5942   6.6356   6.6384   6.9476
     6.9966   7.3031   7.3313   7.5447   7.6952   8.1233   8.6653   8.8553
     8.9687   9.6087   9.7153  10.0763  10.2973  10.5132  10.8005

          k =-0.0000 0.2926-0.1999 ( 16360 PWs)   bands (ev):

   -95.4516 -95.4515 -95.4515 -95.3788 -95.3788 -95.3787 -55.8691 -55.8690
   -55.8690 -55.8681 -55.8680 -55.8680 -55.8635 -55.8551 -55.8551 -55.8049
   -55.8049 -55.8048 -55.7985 -55.7985 -55.7984 -55.7609 -55.7609 -55.7524
     0.3063   0.3121   1.7565   2.3813   3.8148   3.8186   4.5441   4.6163
     4.7164   4.7767   4.8155   4.8341   4.8694   4.9320   5.0000   5.0755
     5.1746   5.2512   5.3810   5.5149   5.5610   5.6502   5.7328   5.7805
     5.8120   5.8235   5.8361   5.9076   5.9629   6.0386   6.1059   6.1342
     6.1774   6.3666   6.4193   6.5949   6.6186   6.6356   6.6385   6.8566
     6.9651   7.0589   7.2475   7.4474   7.8383   8.2063   8.4097   8.7644
     9.5457   9.6676   9.8072  10.0842  10.0918  10.4141  11.2282

          k =-0.0000 0.4389 0.0000 ( 16379 PWs)   bands (ev):

   -95.4516 -95.4514 -95.4514 -95.3789 -95.3789 -95.3787 -55.8691 -55.8690
   -55.8689 -55.8681 -55.8679 -55.8679 -55.8635 -55.8481 -55.8480 -55.8050
   -55.8050 -55.8048 -55.7986 -55.7986 -55.7984 -55.7680 -55.7680 -55.7524
     0.6819   1.5204   1.5504   2.5467   3.3059   3.3078   3.9327   3.9409
     4.5470   4.7010   4.7928   4.8848   4.9433   5.0297   5.0541   5.1608
     5.1973   5.2681   5.3905   5.5059   5.5130   5.5522   5.5961   5.7134
     5.7145   5.7324   5.7734   5.8235   5.8448   5.8528   5.8892   5.9832
     6.0285   6.0347   6.0944   6.3137   6.4851   6.6356   6.6363   6.8536
     6.8929   7.1352   7.1871   7.3369   7.3975   8.1489   8.5698   9.0009
     9.3097   9.3807   9.6240  10.2643  10.8388  11.0318  11.2440

          k =-0.0000 0.4389 0.1000 ( 16368 PWs)   bands (ev):

   -95.4516 -95.4514 -95.4514 -95.3789 -95.3789 -95.3787 -55.8691 -55.8690
   -55.8689 -55.8681 -55.8679 -55.8679 -55.8635 -55.8481 -55.8480 -55.8050
   -55.8050 -55.8048 -55.7986 -55.7986 -55.7984 -55.7680 -55.7680 -55.7524
     0.7365   1.1685   1.9784   2.5987   2.9823   3.3010   3.7234   4.3813
     4.5723   4.6860   4.7642   4.8395   4.8952   5.0105   5.0720   5.1546
     5.2258   5.2919   5.4058   5.4844   5.5051   5.5784   5.6239   5.6892
     5.7220   5.7414   5.7594   5.8279   5.8316   5.8533   5.9059   5.9848
     6.0291   6.0370   6.0787   6.3134   6.5326   6.6356   6.6363   6.7307
     6.8725   7.0712   7.2659   7.4904   7.6361   8.0967   8.2862   8.6770
     8.8936   9.5600  10.0350  10.4982  10.7120  11.1350  11.3778

          k =-0.0000 0.4389-0.1999 ( 16370 PWs)   bands (ev):

   -95.4516 -95.4514 -95.4514 -95.3789 -95.3789 -95.3787 -55.8691 -55.8690
   -55.8689 -55.8681 -55.8679 -55.8679 -55.8635 -55.8481 -55.8480 -55.8050
   -55.8050 -55.8048 -55.7986 -55.7986 -55.7984 -55.7680 -55.7680 -55.7524
     0.8899   0.9098   2.3113   2.7261   2.7903   2.8801   4.0684   4.2117
     4.6052   4.6854   4.7870   4.8883   4.9484   4.9550   5.0530   5.1283
     5.2781   5.3020   5.3975   5.4758   5.4939   5.6225   5.6484   5.6518
     5.7317   5.7480   5.7660   5.7856   5.8372   5.8567   5.9261   5.9857
     6.0317   6.0467   6.0505   6.3103   6.5475   6.6356   6.6362   6.6994
     6.8740   7.2276   7.2337   7.4515   7.6858   7.9916   8.4492   8.6364
     8.7398   8.8957  10.5503  10.8227  10.9652  11.0692  11.6329

          k = 0.0000-0.5852 0.0000 ( 16352 PWs)   bands (ev):

   -95.4516 -95.4514 -95.4514 -95.3789 -95.3789 -95.3787 -55.8691 -55.8689
   -55.8689 -55.8681 -55.8679 -55.8679 -55.8635 -55.8448 -55.8447 -55.8050
   -55.8050 -55.8048 -55.7986 -55.7986 -55.7984 -55.7713 -55.7713 -55.7524
     1.3857   1.6026   2.1888   2.3391   2.3581   2.5452   4.2649   4.3242
     4.4797   4.6880   4.7064   4.7141   4.8019   5.0251   5.0925   5.1069
     5.2514   5.2928   5.3930   5.5529   5.5558   5.6323   5.6561   5.6676
     5.7165   5.7225   5.7225   5.7332   5.7434   5.7485   5.7697   5.7843
     5.8798   6.0107   6.0848   6.1976   6.5947   6.6288   6.6356   6.6357
     6.7452   7.0400   7.0792   7.1852   7.3462   8.1578   8.7558   9.1147
     9.3892   9.4878   9.5497  10.3025  10.5086  10.6842  12.1647

          k = 0.0000-0.5852 0.1000 ( 16378 PWs)   bands (ev):

   -95.4516 -95.4514 -95.4514 -95.3789 -95.3789 -95.3787 -55.8691 -55.8689
   -55.8689 -55.8681 -55.8679 -55.8679 -55.8635 -55.8448 -55.8447 -55.8050
   -55.8050 -55.8048 -55.7986 -55.7986 -55.7984 -55.7713 -55.7713 -55.7524
     1.4327   1.6482   1.9049   2.0970   2.7026   2.8974   3.9213   3.9504
     4.4986   4.6630   4.8191   4.8202   4.9456   5.0252   5.1066   5.1570
     5.2347   5.3652   5.4592   5.5113   5.5226   5.6122   5.6693   5.6707
     5.6957   5.7010   5.7225   5.7327   5.7531   5.7601   5.7755   5.7902
     5.9024   6.0104   6.0382   6.1975   6.4939   6.6352   6.6356   6.6553
     6.8576   7.1414   7.2409   7.2464   7.5138   8.0703   8.5087   8.8058
     8.8065   8.9982  10.0661  10.5279  11.2271  11.3543  12.0447

          k = 0.0000-0.5852-0.1999 ( 16368 PWs)   bands (ev):

   -95.4516 -95.4514 -95.4514 -95.3789 -95.3789 -95.3787 -55.8691 -55.8689
   -55.8689 -55.8681 -55.8679 -55.8679 -55.8635 -55.8448 -55.8447 -55.8050
   -55.8050 -55.8048 -55.7986 -55.7986 -55.7984 -55.7713 -55.7713 -55.7524
     1.5171   1.7196   1.7313   1.9173   3.0266   3.3265   3.4872   3.5677
     4.5264   4.6431   4.7778   4.9043   4.9798   5.0440   5.1064   5.2447
     5.3442   5.3980   5.4219   5.5066   5.5463   5.5672   5.6597   5.6650
     5.6861   5.6921   5.7229   5.7295   5.7540   5.7632   5.7798   5.8100
     5.9481   5.9695   6.0100   6.1962   6.4506   6.6348   6.6356   6.6531
     6.8560   7.3675   7.4926   7.5196   7.6316   7.9193   8.0845   8.4996
     8.5616   8.5933  10.5988  11.0760  11.2069  11.4721  12.1704

          k = 0.1267 0.2194 0.0000 ( 16312 PWs)   bands (ev):

   -95.4515 -95.4515 -95.4515 -95.3788 -95.3787 -95.3787 -55.8691 -55.8691
   -55.8690 -55.8681 -55.8681 -55.8680 -55.8612 -55.8612 -55.8551 -55.8049
   -55.8048 -55.8048 -55.7985 -55.7984 -55.7984 -55.7609 -55.7547 -55.7547
    -0.0330   0.8372   0.8417   3.3820   3.3895   4.2167   4.2208   4.5563
     4.6027   4.6809   4.7808   4.9120   4.9820   4.9917   5.0260   5.1137
     5.1543   5.2666   5.4398   5.4981   5.5725   5.6171   5.6599   5.7982
     5.8446   5.8633   5.8960   5.9130   5.9718   6.1479   6.1819   6.1845
     6.2949   6.4231   6.5327   6.5824   6.6009   6.6554   6.7608   6.7712
     6.8143   7.5221   7.7011   8.2257   8.2995   8.4770   8.5781   8.6588
     8.6664   8.8494   9.2518   9.3851   9.9749  10.8134  10.9442

          k = 0.1267 0.2194 0.1000 ( 16346 PWs)   bands (ev):

   -95.4515 -95.4515 -95.4515 -95.3788 -95.3787 -95.3787 -55.8691 -55.8691
   -55.8690 -55.8681 -55.8681 -55.8680 -55.8612 -55.8612 -55.8551 -55.8049
   -55.8048 -55.8048 -55.7985 -55.7984 -55.7984 -55.7609 -55.7547 -55.7547
     0.0227   0.4637   1.2945   2.7029   4.0725   4.2480   4.2557   4.4694
     4.5004   4.7417   4.8242   4.8922   4.9502   4.9977   5.0258   5.1238
     5.1390   5.2674   5.4214   5.5226   5.5623   5.6434   5.6916   5.8063
     5.8431   5.8511   5.9048   5.9147   5.9767   6.1381   6.1638   6.2068
     6.2857   6.4246   6.5188   6.5782   6.6107   6.6568   6.6790   6.8238
     7.0028   7.2265   7.5769   7.9265   8.0401   8.1225   8.6802   8.9039
     9.1403   9.1757   9.3796   9.5811  10.1855  10.6851  10.8439

          k = 0.1267 0.2194-0.1999 ( 16360 PWs)   bands (ev):

   -95.4515 -95.4515 -95.4515 -95.3788 -95.3787 -95.3787 -55.8691 -55.8691
   -55.8690 -55.8681 -55.8681 -55.8680 -55.8612 -55.8612 -55.8551 -55.8049
   -55.8048 -55.8048 -55.7985 -55.7984 -55.7984 -55.7609 -55.7547 -55.7547
     0.1875   0.1910   1.6377   2.2788   4.3115   4.3448   4.3502   4.3851
     4.5794   4.6109   4.8543   4.8709   4.9266   4.9750   5.0546   5.0852
     5.1690   5.2478   5.4119   5.5320   5.5681   5.6797   5.7561   5.7798
     5.8386   5.8816   5.8886   5.9302   5.9853   6.0923   6.1694   6.1907
     6.2886   6.4274   6.5029   6.5751   6.6212   6.6448   6.7333   6.8217
     6.9216   7.1925   7.5086   7.6633   7.9110   7.9475   8.7859   9.0336
     9.2180   9.2610   9.8967  10.0246  10.2560  10.2689  10.6595

          k = 0.1267 0.3657 0.0000 ( 16370 PWs)   bands (ev):

   -95.4515 -95.4515 -95.4514 -95.3789 -95.3788 -95.3787 -55.8691 -55.8690
   -55.8689 -55.8681 -55.8680 -55.8679 -55.8612 -55.8551 -55.8480 -55.8050
   -55.8049 -55.8048 -55.7986 -55.7985 -55.7984 -55.7680 -55.7609 -55.7547
     0.4465   1.3017   1.3150   3.1659   3.7085   3.7558   3.8806   3.9134
     3.9345   4.4647   4.5115   4.9678   4.9888   5.0134   5.0889   5.1639
     5.2459   5.2664   5.4247   5.4735   5.5186   5.5394   5.6309   5.7429
     5.7830   5.7966   5.8463   5.8606   5.8864   5.9132   5.9367   5.9659
     6.0606   6.0954   6.3087   6.3830   6.4984   6.5531   6.6023   6.6263
     6.7280   7.4533   7.5293   7.9171   8.0173   8.2390   8.5317   8.7636
     8.8725   9.2987   9.7183  10.0308  10.4413  11.1312  11.2150

          k = 0.1267 0.3657 0.1000 ( 16342 PWs)   bands (ev):

   -95.4515 -95.4515 -95.4514 -95.3789 -95.3788 -95.3787 -55.8691 -55.8690
   -55.8689 -55.8681 -55.8680 -55.8679 -55.8612 -55.8551 -55.8480 -55.8050
   -55.8049 -55.8048 -55.7986 -55.7985 -55.7984 -55.7680 -55.7609 -55.7547
     0.5016   0.9372   1.7592   3.0965   3.2225   3.5799   3.9667   4.1978
     4.2800   4.3602   4.6941   4.8766   4.9827   5.0270   5.0844   5.1489
     5.2284   5.2802   5.3662   5.4733   5.5433   5.5720   5.6412   5.7457
     5.7550   5.7961   5.8224   5.8721   5.8978   5.9063   5.9461   5.9719
     6.0668   6.1076   6.3035   6.3868   6.4929   6.5468   6.6187   6.6728
     6.8285   7.0718   7.4878   7.7350   7.9837   8.2895   8.4966   8.9558
     9.1655   9.5759   9.7376   9.9438  10.2733  10.7136  11.0777

          k = 0.1267 0.3657-0.1999 ( 16364 PWs)   bands (ev):

   -95.4515 -95.4515 -95.4514 -95.3789 -95.3788 -95.3787 -55.8691 -55.8690
   -55.8689 -55.8681 -55.8680 -55.8679 -55.8612 -55.8551 -55.8480 -55.8050
   -55.8049 -55.8048 -55.7986 -55.7985 -55.7984 -55.7680 -55.7609 -55.7547
     0.6613   0.6710   2.1068   2.6837   3.3452   3.3673   4.0786   4.0859
     4.4955   4.5340   4.7880   4.8532   4.9261   5.0018   5.0846   5.1225
     5.2199   5.2913   5.3308   5.4710   5.5495   5.6197   5.6650   5.6893
     5.7588   5.8014   5.8121   5.8487   5.9068   5.9290   5.9486   5.9744
     6.0717   6.1227   6.2979   6.3897   6.4910   6.5456   6.6331   6.7760
     6.9168   7.0250   7.1481   7.3801   8.0134   8.2276   9.0734   9.1810
     9.3604   9.3806   9.7009   9.8823  10.1494  10.2702  11.5774

          k = 0.1267 0.5120 0.0000 ( 16377 PWs)   bands (ev):

   -95.4515 -95.4514 -95.4514 -95.3789 -95.3789 -95.3787 -55.8691 -55.8690
   -55.8689 -55.8681 -55.8679 -55.8679 -55.8612 -55.8481 -55.8447 -55.8050
   -55.8050 -55.8049 -55.7986 -55.7986 -55.7984 -55.7713 -55.7680 -55.7547
     1.1438   1.9012   2.0078   2.1712   2.8900   2.9270   3.7603   4.2070
     4.2404   4.3594   4.3816   4.8027   4.8730   5.0338   5.1222   5.1739
     5.3280   5.3798   5.4113   5.4909   5.5484   5.5987   5.6501   5.6728
     5.6828   5.6955   5.7236   5.7702   5.7940   5.8113   5.8376   5.8836
     5.9754   6.0040   6.0510   6.2727   6.4760   6.5214   6.5883   6.6435
     6.7059   6.8961   7.0234   7.8183   7.8685   8.2850   8.5270   8.7993
     9.2487   9.8624  10.2698  10.6077  10.7629  10.9214  11.0530

          k = 0.1267 0.5120 0.1000 ( 16380 PWs)   bands (ev):

   -95.4515 -95.4514 -95.4514 -95.3789 -95.3789 -95.3787 -55.8691 -55.8690
   -55.8689 -55.8681 -55.8679 -55.8679 -55.8612 -55.8481 -55.8447 -55.8050
   -55.8050 -55.8049 -55.7986 -55.7986 -55.7984 -55.7713 -55.7680 -55.7547
     1.1970   1.6166   2.1381   2.4190   2.6071   3.3145   3.6932   3.8035
     4.1216   4.2884   4.6227   4.8314   4.9995   5.0610   5.1259   5.1770
     5.3220   5.3589   5.4294   5.4780   5.5402   5.6101   5.6454   5.6627
     5.6833   5.7014   5.7302   5.7652   5.7933   5.8166   5.8373   5.8957
     5.9750   6.0026   6.0387   6.2746   6.4241   6.5187   6.6015   6.6508
     6.7144   6.9496   7.3515   7.5059   8.0058   8.2501   8.4234   8.9275
     8.9968   9.5842   9.9653  10.6665  10.9187  11.1419  11.4438

          k = 0.1267 0.5120-0.1999 ( 16374 PWs)   bands (ev):

   -95.4515 -95.4514 -95.4514 -95.3789 -95.3789 -95.3787 -55.8691 -55.8690
   -55.8689 -55.8681 -55.8679 -55.8679 -55.8612 -55.8481 -55.8447 -55.8050
   -55.8050 -55.8049 -55.7986 -55.7986 -55.7984 -55.7713 -55.7680 -55.7547
     1.3371   1.3772   2.2862   2.2990   2.8360   3.2577   3.7150   3.9112
     3.9292   3.9512   4.7686   4.9418   5.0070   5.1057   5.1301   5.1842
     5.3219   5.3539   5.4064   5.4853   5.5361   5.6096   5.6356   5.6687
     5.6874   5.7078   5.7290   5.7635   5.7827   5.8247   5.8372   5.9144
     5.9761   5.9949   6.0263   6.2752   6.4076   6.4842   6.6026   6.6070
     6.8352   7.1226   7.4054   7.5080   7.9921   8.1887   8.3608   8.5661
     9.2374   9.3595  10.1286  10.1546  10.9740  11.1355  12.1861

          k = 0.2534 0.4389 0.0000 ( 16380 PWs)   bands (ev):

   -95.4515 -95.4515 -95.4514 -95.3789 -95.3788 -95.3788 -55.8690 -55.8690
   -55.8689 -55.8680 -55.8680 -55.8679 -55.8551 -55.8551 -55.8447 -55.8050
   -55.8049 -55.8049 -55.7986 -55.7985 -55.7985 -55.7713 -55.7609 -55.7609
     1.0335   1.8637   1.8880   2.7933   2.9324   3.5491   3.5808   3.6388
     3.6692   4.1660   4.1865   4.8984   5.0120   5.1003   5.1347   5.2196
     5.2443   5.2957   5.4551   5.4680   5.5375   5.6034   5.6075   5.6630
     5.7296   5.7502   5.7638   5.7695   5.7880   5.8863   5.8868   5.9193
     5.9581   5.9588   6.2333   6.2432   6.3455   6.4638   6.5077   6.6374
     6.6628   7.2813   7.3286   7.3749   7.5781   8.9456   9.1560   9.3931
     9.5658   9.7054   9.9425  10.1605  10.6951  10.8352  11.1331

          k = 0.2534 0.4389 0.1000 ( 16361 PWs)   bands (ev):

   -95.4515 -95.4515 -95.4514 -95.3789 -95.3788 -95.3788 -55.8690 -55.8690
   -55.8689 -55.8680 -55.8680 -55.8679 -55.8551 -55.8551 -55.8447 -55.8050
   -55.8049 -55.8049 -55.7986 -55.7985 -55.7985 -55.7713 -55.7609 -55.7609
     1.0875   1.5141   2.3116   2.8414   2.9799   3.2481   3.3498   3.5816
     3.9788   4.0127   4.5544   4.7326   4.9380   5.1484   5.1590   5.2248
     5.2410   5.2973   5.4450   5.4799   5.5435   5.6024   5.6134   5.6709
     5.7026   5.7378   5.7553   5.7792   5.8031   5.8868   5.8972   5.9123
     5.9352   6.0031   6.2241   6.2505   6.3423   6.4677   6.5348   6.5653
     6.8710   6.8894   7.0593   7.7898   8.0813   8.5989   9.0272   9.3681
     9.6157   9.6809   9.9687  10.2067  10.2448  10.3431  11.2525

          k = 0.2534 0.4389-0.1999 ( 16354 PWs)   bands (ev):

   -95.4515 -95.4515 -95.4514 -95.3789 -95.3788 -95.3788 -55.8690 -55.8690
   -55.8689 -55.8680 -55.8680 -55.8679 -55.8551 -55.8551 -55.8447 -55.8050
   -55.8049 -55.8049 -55.7986 -55.7985 -55.7985 -55.7713 -55.7609 -55.7609
     1.2407   1.2571   2.6390   2.9441   3.0567   3.1103   3.1600   3.1765
     4.3419   4.3533   4.4037   4.4073   5.0387   5.1221   5.1823   5.2044
     5.2610   5.2982   5.4432   5.4861   5.5401   5.6051   5.6406   5.6438
     5.6938   5.7293   5.7489   5.7868   5.8119   5.8868   5.9039   5.9098
     5.9246   6.0336   6.2172   6.2550   6.3385   6.4710   6.5677   6.5748
     6.7280   6.8145   7.4221   7.4297   8.6479   8.8557   8.9754   9.1002
     9.1964   9.6084   9.7384   9.8903  10.3103  10.4411  11.6722

          k = 0.2534 0.5852 0.0000 ( 16380 PWs)   bands (ev):

   -95.4515 -95.4514 -95.4514 -95.3789 -95.3789 -95.3788 -55.8690 -55.8690
   -55.8689 -55.8680 -55.8679 -55.8679 -55.8551 -55.8481 -55.8481 -55.8050
   -55.8050 -55.8049 -55.7986 -55.7986 -55.7985 -55.7680 -55.7680 -55.7609
     1.7347   1.9336   2.5003   2.6298   2.6496   2.8435   2.8591   3.5220
     3.5345   4.4888   4.5278   4.7200   4.8962   5.0047   5.1592   5.2358
     5.2951   5.3830   5.3929   5.4738   5.4773   5.5814   5.5832   5.6690
     5.7170   5.7485   5.7620   5.7734   5.8200   5.8642   5.8647   5.9214
     5.9369   6.0010   6.0203   6.2095   6.3738   6.4108   6.4563   6.7720
     6.7846   6.8500   7.0190   7.2580   7.4706   9.1483   9.5261   9.6999
     9.9401  10.3374  10.3528  10.5796  10.7629  10.8547  11.0027

          k = 0.2534 0.5852 0.1000 ( 16361 PWs)   bands (ev):

   -95.4515 -95.4514 -95.4514 -95.3789 -95.3789 -95.3788 -55.8690 -55.8690
   -55.8689 -55.8680 -55.8679 -55.8679 -55.8551 -55.8481 -55.8481 -55.8050
   -55.8050 -55.8049 -55.7986 -55.7986 -55.7985 -55.7680 -55.7680 -55.7609
     1.7837   1.9783   2.2308   2.4032   2.8174   3.0294   3.1647   3.2599
     3.9013   4.1749   4.1884   4.6658   5.0446   5.1044   5.2215   5.2363
     5.2987   5.3881   5.3952   5.4440   5.4646   5.5699   5.6040   5.6323
     5.7098   5.7608   5.7719   5.7935   5.8252   5.8473   5.8841   5.9145
     5.9418   5.9995   6.0186   6.2104   6.3458   6.4448   6.4830   6.5782
     6.6531   6.9169   7.2363   7.4072   7.9527   8.9445   9.1913   9.2495
     9.6302  10.0029  10.3356  10.7365  10.8292  10.9721  11.1154

          k = 0.2534 0.5852-0.1999 ( 16362 PWs)   bands (ev):

   -95.4515 -95.4514 -95.4514 -95.3789 -95.3789 -95.3788 -55.8690 -55.8690
   -55.8689 -55.8680 -55.8679 -55.8679 -55.8551 -55.8481 -55.8481 -55.8050
   -55.8050 -55.8049 -55.7986 -55.7986 -55.7985 -55.7680 -55.7680 -55.7609
     1.8793   2.0356   2.0618   2.2323   2.9441   2.9763   3.3729   3.6330
     3.7503   3.8122   4.2890   4.3521   5.1205   5.2272   5.2341   5.2735
     5.3008   5.3882   5.3970   5.4067   5.4431   5.5859   5.5905   5.6104
     5.7094   5.7610   5.7722   5.8175   5.8317   5.8427   5.8911   5.9114
     5.9442   5.9974   6.0168   6.2113   6.3297   6.4842   6.5183   6.5325
     6.5586   6.7480   7.7125   7.8203   8.1718   8.4718   8.9223   9.0527
     9.2962   9.6888  10.6250  10.6877  10.7906  11.0362  11.0365

     the Fermi energy is     7.2422 ev

!    total energy              =   -2463.74094446 Ry
     estimated scf accuracy    <          7.8E-12 Ry
     smearing contrib. (-TS)   =       0.00067112 Ry
     internal energy E=F+TS    =   -2463.74161558 Ry

     The total energy is F=E-TS. E is the sum of the following terms:
     one-electron contribution =   -2149.71334679 Ry
     hartree contribution      =    1116.92520918 Ry
     xc contribution           =    -233.38206450 Ry
     ewald contribution        =    -821.38691913 Ry
     DFT-D3 Dispersion         =      -0.44240912 Ry
     one-center paw contrib.   =    -375.74208521 Ry

     convergence has been achieved in   8 iterations

     Forces acting on atoms (cartesian axes, Ry/au):

     atom    1 type  1   force =    -0.00002934    0.00001694    0.00000000
     atom    2 type  1   force =     0.00000000   -0.00003388   -0.00000000
     atom    3 type  1   force =     0.00002934   -0.00001694    0.00000000
     atom    4 type  1   force =    -0.00000000    0.00003388    0.00000000
     atom    5 type  1   force =     0.00002934    0.00001694    0.00000000
     atom    6 type  1   force =    -0.00002934   -0.00001694    0.00000000
     atom    7 type  1   force =     0.00000000    0.00000000    0.00001990
     atom    8 type  1   force =     0.00000000    0.00000000   -0.00001990
     atom    9 type  1   force =     0.00000000    0.00000000   -0.00001990
     atom   10 type  1   force =     0.00000000    0.00000000    0.00001990
     atom   11 type  1   force =     0.00000000    0.00000000   -0.00001990
     atom   12 type  1   force =     0.00000000    0.00000000    0.00001990
     atom   13 type  2   force =     0.00000000    0.00000000   -0.00000000
     atom   14 type  2   force =    -0.00000000    0.00000000    0.00000000
     atom   15 type  2   force =     0.00000000    0.00000000    0.00000000
     atom   16 type  2   force =    -0.00000000   -0.00000000   -0.00000000
     atom   17 type  2   force =     0.00000000    0.00000000    0.00000000
     atom   18 type  2   force =     0.00000000    0.00000000    0.00000000

     Total force =     0.000096     Total SCF correction =     0.000000


     Computing stress (Cartesian axis) and pressure

          total   stress  (Ry/bohr**3)                   (kbar)     P=       -0.02
  -0.00000155   0.00000000   0.00000000           -0.23        0.00        0.00
   0.00000000  -0.00000155   0.00000000            0.00       -0.23        0.00
   0.00000000   0.00000000   0.00000265            0.00        0.00        0.39

     Energy error            =      1.6E-06 Ry
     Gradient error          =      3.4E-05 Ry/Bohr
     Cell gradient error     =      3.9E-01 kbar

     bfgs converged in  10 scf cycles and   9 bfgs steps
     (criteria: energy <  1.0E-05 Ry, force <  1.0E-04 Ry/Bohr, cell <  5.0E-01 kbar)

     End of BFGS Geometry Optimization

     Final enthalpy           =   -2463.7409444599 Ry

     File ./outdir/mg2ni.bfgs deleted, as requested
Begin final coordinates
     new unit-cell volume =   1997.63069 a.u.^3 (   296.01833 Ang^3 )
     density =      3.61156 g/cm^3

CELL_PARAMETERS (angstrom)
   5.128026964   0.000000000   0.000000000
  -2.564013482   4.441001622   0.000000000
   0.000000000   0.000000000  12.998324288

ATOMIC_POSITIONS (angstrom)
Mg              -1.2940060262        3.7077624754       10.8319369070
Mg               0.0000000000        1.4664782927        6.4991621441
Mg               3.8580195081        0.7332391464       10.8319369070
Mg               2.5640134818        2.9745233291        6.4991621441
Mg               1.2940060262        3.7077624754        2.1663873814
Mg               1.2700074556        0.7332391464        2.1663873814
Mg               1.2820067409        2.2205008109        9.3383114943
Mg               2.5640134818        0.0000000000        7.9927875568
Mg               1.2820067409        2.2205008109       12.3255623196
Mg               2.5640134818        0.0000000000        5.0055367316
Mg               3.8460202227        2.2205008109        3.6600127941
Mg               3.8460202227        2.2205008109        0.6727619688
Ni               1.2820067409        2.2205008109        4.3327747627
Ni               2.5640134818        0.0000000000       -0.0000000000
Ni               3.8460202227        2.2205008109        8.6655495256
Ni              -0.0000000000       -0.0000000000        4.3327747627
Ni               0.0000000000        0.0000000000       -0.0000000000
Ni              -0.0000000000       -0.0000000000        8.6655495256
End final coordinates



     Writing config-only to output data dir ./outdir/mg2ni.save/ :
     XML data file

     Final scf calculation at the relaxed structure.
     The G-vectors are recalculated for the final unit cell
     Results may differ from those at the preceding step.
 
     G-vector sticks info
     --------------------
     sticks:   dense  smooth     PW     G-vecs:    dense   smooth      PW
     Sum        3103    1555    433               354645   125383   18459
 
     Using Slab Decomposition
 


     bravais-lattice index     =            0
     lattice parameter (alat)  =       9.8218  a.u.
     unit-cell volume          =    1997.6307 (a.u.)^3
     number of atoms/cell      =           18
     number of atomic types    =            2
     number of electrons       =       132.00
     number of Kohn-Sham states=           79
     kinetic-energy cutoff     =      60.0000  Ry
     charge density cutoff     =     480.0000  Ry
     scf convergence threshold =      1.0E-11
     mixing beta               =       0.3000
     number of iterations used =           12  plain     mixing
     press convergence thresh. =      5.0E-01
     Exchange-correlation=  SLA  PW   PBX  PBC
                           (   1   4   3   4   0   0   0)

     GPU acceleration is ACTIVE.  1 visible GPUs per MPI rank


     celldm(1)=   9.821759  celldm(2)=   0.000000  celldm(3)=   0.000000
     celldm(4)=   0.000000  celldm(5)=   0.000000  celldm(6)=   0.000000

     crystal axes: (cart. coord. in units of alat)
               a(1) = (   0.986643   0.000000   0.000000 )  
               a(2) = (  -0.493321   0.854458   0.000000 )  
               a(3) = (   0.000000   0.000000   2.500904 )  

     reciprocal axes: (cart. coord. in units 2 pi/alat)
               b(1) = (  1.013538  0.585167 -0.000000 )  
               b(2) = ( -0.000000  1.170333  0.000000 )  
               b(3) = (  0.000000 -0.000000  0.399855 )  


     PseudoPot. # 1 for Mg read from file:
     /home/x/Workspace/3-hEspesso/pseudo/Mg.pbe-n-kjpaw_psl.0.3.0.UPF
     MD5 check sum: 24ecedc7f3e3cbe212e682f4413594e4
     Pseudo is Projector augmented-wave + core cor, Zval =  2.0
     Generated using "atomic" code by A. Dal Corso  v.5.0.99 svn rev. 10869
     Shape of augmentation charge: PSQ
     Using radial grid of 1129 points,  4 beta functions with: 
                l(1) =   0
                l(2) =   0
                l(3) =   1
                l(4) =   1
     Q(r) pseudized with 0 coefficients 


     PseudoPot. # 2 for Ni read from file:
     /home/x/Workspace/3-hEspesso/pseudo/ni_pbe_v1.4.uspp.F.UPF
     MD5 check sum: 1ee80287db30b12d2bc1f57a5b5d6409
     Pseudo is Ultrasoft + core correction, Zval = 18.0
     Generated by new atomic code, or converted to UPF format
     Using radial grid of  865 points,  6 beta functions with: 
                l(1) =   0
                l(2) =   0
                l(3) =   1
                l(4) =   1
                l(5) =   2
                l(6) =   2
     Q(r) pseudized with 10 coefficients,  rinner =    0.980   0.980   0.980
                                                       0.980   0.980

     atomic species   valence    mass     pseudopotential
     Mg                2.00    24.30500     Mg( 1.00)
     Ni               18.00    58.69340     Ni( 1.00)

     12 Sym. Ops. (no inversion) found ( 8 have fractional translation)



   Cartesian axes

     site n.     atom                  positions (alat units)
         1        Mg     tau(   1) = (  -0.2489694   0.7133809   2.0840864  )
         2        Mg     tau(   2) = (   0.0000000   0.2821534   1.2504518  )
         3        Mg     tau(   3) = (   0.7422907   0.1410767   2.0840864  )
         4        Mg     tau(   4) = (   0.4933213   0.5723043   1.2504518  )
         5        Mg     tau(   5) = (   0.2489694   0.7133809   0.4168173  )
         6        Mg     tau(   6) = (   0.2443520   0.1410767   0.4168173  )
         7        Mg     tau(   7) = (   0.2466607   0.4272288   1.7967099  )
         8        Mg     tau(   8) = (   0.4933213   0.0000000   1.5378283  )
         9        Mg     tau(   9) = (   0.2466607   0.4272288   2.3714629  )
        10        Mg     tau(  10) = (   0.4933213   0.0000000   0.9630753  )
        11        Mg     tau(  11) = (   0.7399820   0.4272288   0.7041938  )
        12        Mg     tau(  12) = (   0.7399820   0.4272288   0.1294408  )
        13        Ni     tau(  13) = (   0.2466607   0.4272288   0.8336346  )
        14        Ni     tau(  14) = (   0.4933213   0.0000000  -0.0000000  )
        15        Ni     tau(  15) = (   0.7399820   0.4272288   1.6672691  )
        16        Ni     tau(  16) = (  -0.0000000  -0.0000000   0.8336346  )
        17        Ni     tau(  17) = (   0.0000000   0.0000000  -0.0000000  )
        18        Ni     tau(  18) = (  -0.0000000  -0.0000000   1.6672691  )

     --------------------------------------------
     DFT-D3 Dispersion Correction (3-body terms):
     --------------------------------------------
       Reference C6 values for interpolation: 

         atom   Coordination number   C6
         Mg         0.000          1366.75
         Mg         0.963           902.54
         Mg         1.950           351.12
         Ni         0.000          1149.49
         Ni         1.794           356.66
         Ni         6.546           257.56
         Ni         6.292           283.75

       Values used:

         atom   Coordination number  R0_AB[au]  C6      C8
         Mg        10.863            3.292    351.12  31436.69
         Mg        10.863            3.292    351.12  31436.69
         Mg        10.863            3.292    351.12  31436.69
         Mg        10.863            3.292    351.12  31436.69
         Mg        10.863            3.292    351.12  31436.69
         Mg        10.863            3.292    351.12  31436.69
         Mg        10.840            3.292    351.12  31436.69
         Mg        10.840            3.292    351.12  31436.69
         Mg        10.840            3.292    351.12  31436.69
         Mg        10.840            3.292    351.12  31436.69
         Mg        10.840            3.292    351.12  31436.69
         Mg        10.840            3.292    351.12  31436.69
         Ni         8.472            3.162    257.94  21613.13
         Ni         8.472            3.162    257.94  21613.13
         Ni         8.472            3.162    257.94  21613.13
         Ni         8.501            3.162    257.91  21611.41
         Ni         8.501            3.162    257.91  21611.41
         Ni         8.501            3.162    257.91  21611.41

         Molecular C6 ( Ry / a.u.^6 ) =    102382.11


     number of k points=    30  Marzari-Vanderbilt smearing, width (Ry)=  0.0100
                       cart. coord. in units 2pi/alat
        k(    1) = (   0.0000000   0.0000000   0.0000000), wk =   0.0078125
        k(    2) = (   0.0000000   0.0000000   0.0999639), wk =   0.0156250
        k(    3) = (   0.0000000   0.0000000  -0.1999277), wk =   0.0078125
        k(    4) = (  -0.0000000   0.1462916   0.0000000), wk =   0.0468750
        k(    5) = (  -0.0000000   0.1462916   0.0999639), wk =   0.0937500
        k(    6) = (  -0.0000000   0.1462916  -0.1999277), wk =   0.0468750
        k(    7) = (  -0.0000000   0.2925833   0.0000000), wk =   0.0468750
        k(    8) = (  -0.0000000   0.2925833   0.0999639), wk =   0.0937500
        k(    9) = (  -0.0000000   0.2925833  -0.1999277), wk =   0.0468750
        k(   10) = (  -0.0000000   0.4388749   0.0000000), wk =   0.0468750
        k(   11) = (  -0.0000000   0.4388749   0.0999639), wk =   0.0937500
        k(   12) = (  -0.0000000   0.4388749  -0.1999277), wk =   0.0468750
        k(   13) = (   0.0000000  -0.5851665   0.0000000), wk =   0.0234375
        k(   14) = (   0.0000000  -0.5851665   0.0999639), wk =   0.0468750
        k(   15) = (   0.0000000  -0.5851665  -0.1999277), wk =   0.0234375
        k(   16) = (   0.1266923   0.2194374   0.0000000), wk =   0.0468750
        k(   17) = (   0.1266923   0.2194374   0.0999639), wk =   0.0937500
        k(   18) = (   0.1266923   0.2194374  -0.1999277), wk =   0.0468750
        k(   19) = (   0.1266923   0.3657291   0.0000000), wk =   0.0937500
        k(   20) = (   0.1266923   0.3657291   0.0999639), wk =   0.1875000
        k(   21) = (   0.1266923   0.3657291  -0.1999277), wk =   0.0937500
        k(   22) = (   0.1266923   0.5120207   0.0000000), wk =   0.0937500
        k(   23) = (   0.1266923   0.5120207   0.0999639), wk =   0.1875000
        k(   24) = (   0.1266923   0.5120207  -0.1999277), wk =   0.0937500
        k(   25) = (   0.2533845   0.4388749   0.0000000), wk =   0.0468750
        k(   26) = (   0.2533845   0.4388749   0.0999639), wk =   0.0937500
        k(   27) = (   0.2533845   0.4388749  -0.1999277), wk =   0.0468750
        k(   28) = (   0.2533845   0.5851665   0.0000000), wk =   0.0468750
        k(   29) = (   0.2533845   0.5851665   0.0999639), wk =   0.0937500
        k(   30) = (   0.2533845   0.5851665  -0.1999277), wk =   0.0468750

     Dense  grid:   354645 G-vectors     FFT dimensions: (  72,  72, 180)

     Smooth grid:   125383 G-vectors     FFT dimensions: (  48,  48, 135)

     Estimated max dynamical RAM per process >       2.06 GB

     Check: negative core charge=   -0.000001

     Initial potential from superposition of free atoms

     starting charge     119.9889, renormalised to     132.0000
     Starting wfcs are  126 randomized atomic wfcs

     total cpu time spent up to now is      486.8 secs

     Self-consistent Calculation

     iteration #  1     ecut=    60.00 Ry     beta= 0.30
     Davidson diagonalization with overlap
     c_bands:  1 eigenvalues not converged
     c_bands:  2 eigenvalues not converged
     c_bands:  1 eigenvalues not converged
     c_bands:  1 eigenvalues not converged
     c_bands:  1 eigenvalues not converged
     c_bands:  1 eigenvalues not converged
     c_bands:  1 eigenvalues not converged
     c_bands:  2 eigenvalues not converged
     c_bands:  1 eigenvalues not converged
     c_bands:  1 eigenvalues not converged
     c_bands:  2 eigenvalues not converged
     c_bands:  1 eigenvalues not converged
     ethr =  1.00E-06,  avg # of iterations = 19.5

     total cpu time spent up to now is      502.3 secs

     total energy              =   -2346.09948556 Ry
     estimated scf accuracy    <     377.93191632 Ry

     iteration #  2     ecut=    60.00 Ry     beta= 0.30
     Davidson diagonalization with overlap
     ethr =  1.00E-02,  avg # of iterations =  5.5

     total cpu time spent up to now is      507.9 secs

     total energy              =   -2465.67678638 Ry
     estimated scf accuracy    <     124.34676037 Ry

     iteration #  3     ecut=    60.00 Ry     beta= 0.30
     Davidson diagonalization with overlap
     ethr =  1.00E-02,  avg # of iterations =  2.6

     total cpu time spent up to now is      511.5 secs

     total energy              =   -2467.51301666 Ry
     estimated scf accuracy    <      31.89569683 Ry

     iteration #  4     ecut=    60.00 Ry     beta= 0.30
     Davidson diagonalization with overlap
     ethr =  1.00E-02,  avg # of iterations =  1.0

     total cpu time spent up to now is      513.8 secs

     total energy              =   -2463.44549424 Ry
     estimated scf accuracy    <      18.40823419 Ry

     iteration #  5     ecut=    60.00 Ry     beta= 0.30
     Davidson diagonalization with overlap
     ethr =  1.00E-02,  avg # of iterations =  2.4

     total cpu time spent up to now is      516.9 secs

     total energy              =   -2461.14736752 Ry
     estimated scf accuracy    <       9.13679437 Ry

     iteration #  6     ecut=    60.00 Ry     beta= 0.30
     Davidson diagonalization with overlap
     ethr =  6.92E-03,  avg # of iterations =  3.2

     total cpu time spent up to now is      520.3 secs

     total energy              =   -2465.71439521 Ry
     estimated scf accuracy    <      29.84230746 Ry

     iteration #  7     ecut=    60.00 Ry     beta= 0.30
     Davidson diagonalization with overlap
     ethr =  6.92E-03,  avg # of iterations =  1.0

     total cpu time spent up to now is      522.5 secs

     total energy              =   -2466.29010617 Ry
     estimated scf accuracy    <      32.72043003 Ry

     iteration #  8     ecut=    60.00 Ry     beta= 0.30
     Davidson diagonalization with overlap
     ethr =  6.92E-03,  avg # of iterations =  1.0

     total cpu time spent up to now is      524.8 secs

     total energy              =   -2465.22716656 Ry
     estimated scf accuracy    <      40.44752278 Ry

     iteration #  9     ecut=    60.00 Ry     beta= 0.30
     Davidson diagonalization with overlap
     ethr =  6.92E-03,  avg # of iterations =  1.0

     total cpu time spent up to now is      527.1 secs

     total energy              =   -2463.38708629 Ry
     estimated scf accuracy    <      28.86793654 Ry

     iteration # 10     ecut=    60.00 Ry     beta= 0.30
     Davidson diagonalization with overlap
     ethr =  6.92E-03,  avg # of iterations =  1.0

     total cpu time spent up to now is      529.2 secs

     total energy              =   -2463.99795627 Ry
     estimated scf accuracy    <       5.43725297 Ry

     iteration # 11     ecut=    60.00 Ry     beta= 0.30
     Davidson diagonalization with overlap
     ethr =  4.12E-03,  avg # of iterations =  1.0

     total cpu time spent up to now is      531.5 secs

     total energy              =   -2463.72303853 Ry
     estimated scf accuracy    <       6.75440416 Ry

     iteration # 12     ecut=    60.00 Ry     beta= 0.30
     Davidson diagonalization with overlap
     ethr =  4.12E-03,  avg # of iterations =  1.0

     total cpu time spent up to now is      533.8 secs

     total energy              =   -2463.76352808 Ry
     estimated scf accuracy    <       2.03124584 Ry

     iteration # 13     ecut=    60.00 Ry     beta= 0.30
     Davidson diagonalization with overlap
     ethr =  1.54E-03,  avg # of iterations =  1.4

     total cpu time spent up to now is      536.3 secs

     total energy              =   -2463.99448774 Ry
     estimated scf accuracy    <       0.80918087 Ry

     iteration # 14     ecut=    60.00 Ry     beta= 0.30
     Davidson diagonalization with overlap
     ethr =  6.13E-04,  avg # of iterations =  1.5

     total cpu time spent up to now is      538.8 secs

     total energy              =   -2463.12557661 Ry
     estimated scf accuracy    <       1.34652067 Ry

     iteration # 15     ecut=    60.00 Ry     beta= 0.30
     Davidson diagonalization with overlap
     ethr =  6.13E-04,  avg # of iterations =  3.4

     total cpu time spent up to now is      542.6 secs

     total energy              =   -2464.98419377 Ry
     estimated scf accuracy    <       8.28292690 Ry

     iteration # 16     ecut=    60.00 Ry     beta= 0.30
     Davidson diagonalization with overlap
     ethr =  6.13E-04,  avg # of iterations =  1.0

     total cpu time spent up to now is      545.0 secs

     total energy              =   -2463.95477244 Ry
     estimated scf accuracy    <       7.93599470 Ry

     iteration # 17     ecut=    60.00 Ry     beta= 0.30
     Davidson diagonalization with overlap
     ethr =  6.13E-04,  avg # of iterations =  2.4

     total cpu time spent up to now is      548.1 secs

     total energy              =   -2463.87034285 Ry
     estimated scf accuracy    <       2.64469853 Ry

     iteration # 18     ecut=    60.00 Ry     beta= 0.30
     Davidson diagonalization with overlap
     ethr =  6.13E-04,  avg # of iterations =  1.0

     total cpu time spent up to now is      550.3 secs

     total energy              =   -2463.78657676 Ry
     estimated scf accuracy    <       1.26886174 Ry

     iteration # 19     ecut=    60.00 Ry     beta= 0.30
     Davidson diagonalization with overlap
     ethr =  6.13E-04,  avg # of iterations =  1.0

     total cpu time spent up to now is      552.6 secs

     total energy              =   -2463.77226644 Ry
     estimated scf accuracy    <       0.64755938 Ry

     iteration # 20     ecut=    60.00 Ry     beta= 0.30
     Davidson diagonalization with overlap
     ethr =  4.91E-04,  avg # of iterations =  1.0

     total cpu time spent up to now is      554.8 secs

     total energy              =   -2463.82944634 Ry
     estimated scf accuracy    <       0.36191872 Ry

     iteration # 21     ecut=    60.00 Ry     beta= 0.30
     Davidson diagonalization with overlap
     ethr =  2.74E-04,  avg # of iterations =  1.0

     total cpu time spent up to now is      557.0 secs

     total energy              =   -2463.85543946 Ry
     estimated scf accuracy    <       0.79541998 Ry

     iteration # 22     ecut=    60.00 Ry     beta= 0.30
     Davidson diagonalization with overlap
     ethr =  2.74E-04,  avg # of iterations =  1.0

     total cpu time spent up to now is      559.2 secs

     total energy              =   -2463.80265334 Ry
     estimated scf accuracy    <       0.86666936 Ry

     iteration # 23     ecut=    60.00 Ry     beta= 0.30
     Davidson diagonalization with overlap
     ethr =  2.74E-04,  avg # of iterations =  1.0

     total cpu time spent up to now is      561.4 secs

     total energy              =   -2463.78224835 Ry
     estimated scf accuracy    <       0.50688019 Ry

     iteration # 24     ecut=    60.00 Ry     beta= 0.30
     Davidson diagonalization with overlap
     ethr =  2.74E-04,  avg # of iterations =  1.0

     total cpu time spent up to now is      563.6 secs

     total energy              =   -2463.82091873 Ry
     estimated scf accuracy    <       0.40294830 Ry

     iteration # 25     ecut=    60.00 Ry     beta= 0.30
     Davidson diagonalization with overlap
     ethr =  2.74E-04,  avg # of iterations =  1.0

     total cpu time spent up to now is      565.8 secs

     total energy              =   -2463.67807614 Ry
     estimated scf accuracy    <       0.80311119 Ry

     iteration # 26     ecut=    60.00 Ry     beta= 0.30
     Davidson diagonalization with overlap
     ethr =  2.74E-04,  avg # of iterations =  2.2

     total cpu time spent up to now is      568.6 secs

     total energy              =   -2463.74119825 Ry
     estimated scf accuracy    <       0.00750776 Ry

     iteration # 27     ecut=    60.00 Ry     beta= 0.30
     Davidson diagonalization with overlap
     ethr =  5.69E-06,  avg # of iterations =  5.9

     total cpu time spent up to now is      574.8 secs

     total energy              =   -2463.72321813 Ry
     estimated scf accuracy    <       0.08058586 Ry

     iteration # 28     ecut=    60.00 Ry     beta= 0.30
     Davidson diagonalization with overlap
     ethr =  5.69E-06,  avg # of iterations =  3.7

     total cpu time spent up to now is      579.4 secs

     total energy              =   -2463.73540197 Ry
     estimated scf accuracy    <       0.08821765 Ry

     iteration # 29     ecut=    60.00 Ry     beta= 0.30
     Davidson diagonalization with overlap
     ethr =  5.69E-06,  avg # of iterations =  3.1

     total cpu time spent up to now is      582.9 secs

     total energy              =   -2463.74105471 Ry
     estimated scf accuracy    <       0.00160785 Ry

     iteration # 30     ecut=    60.00 Ry     beta= 0.30
     Davidson diagonalization with overlap
     ethr =  1.22E-06,  avg # of iterations =  1.8

     total cpu time spent up to now is      585.5 secs

     total energy              =   -2463.74071297 Ry
     estimated scf accuracy    <       0.00573526 Ry

     iteration # 31     ecut=    60.00 Ry     beta= 0.30
     Davidson diagonalization with overlap
     ethr =  1.22E-06,  avg # of iterations =  1.7

     total cpu time spent up to now is      588.2 secs

     total energy              =   -2463.74058794 Ry
     estimated scf accuracy    <       0.00132301 Ry

     iteration # 32     ecut=    60.00 Ry     beta= 0.30
     Davidson diagonalization with overlap
     ethr =  1.00E-06,  avg # of iterations =  2.1

     total cpu time spent up to now is      591.0 secs

     total energy              =   -2463.74078715 Ry
     estimated scf accuracy    <       0.00021601 Ry

     iteration # 33     ecut=    60.00 Ry     beta= 0.30
     Davidson diagonalization with overlap
     ethr =  1.64E-07,  avg # of iterations =  3.0

     total cpu time spent up to now is      594.5 secs

     total energy              =   -2463.74079685 Ry
     estimated scf accuracy    <       0.00004732 Ry

     iteration # 34     ecut=    60.00 Ry     beta= 0.30
     Davidson diagonalization with overlap
     ethr =  3.58E-08,  avg # of iterations =  4.9

     total cpu time spent up to now is      599.1 secs

     total energy              =   -2463.74082080 Ry
     estimated scf accuracy    <       0.00000203 Ry

     iteration # 35     ecut=    60.00 Ry     beta= 0.30
     Davidson diagonalization with overlap
     ethr =  1.54E-09,  avg # of iterations =  2.2

     total cpu time spent up to now is      601.9 secs

     total energy              =   -2463.74082043 Ry
     estimated scf accuracy    <       0.00000318 Ry

     iteration # 36     ecut=    60.00 Ry     beta= 0.30
     Davidson diagonalization with overlap
     ethr =  1.54E-09,  avg # of iterations =  1.6

     total cpu time spent up to now is      604.5 secs

     total energy              =   -2463.74082064 Ry
     estimated scf accuracy    <       0.00000005 Ry

     iteration # 37     ecut=    60.00 Ry     beta= 0.30
     Davidson diagonalization with overlap
     ethr =  3.80E-11,  avg # of iterations =  3.6

     total cpu time spent up to now is      608.6 secs

     total energy              =   -2463.74082066 Ry
     estimated scf accuracy    <          3.6E-09 Ry

     iteration # 38     ecut=    60.00 Ry     beta= 0.30
     Davidson diagonalization with overlap
     ethr =  2.74E-12,  avg # of iterations =  3.6

     total cpu time spent up to now is      612.4 secs

     total energy              =   -2463.74082066 Ry
     estimated scf accuracy    <          9.8E-09 Ry

     iteration # 39     ecut=    60.00 Ry     beta= 0.30
     Davidson diagonalization with overlap
     ethr =  2.74E-12,  avg # of iterations =  2.0

     total cpu time spent up to now is      615.1 secs

     total energy              =   -2463.74082066 Ry
     estimated scf accuracy    <          5.1E-10 Ry

     iteration # 40     ecut=    60.00 Ry     beta= 0.30
     Davidson diagonalization with overlap
     ethr =  3.87E-13,  avg # of iterations =  4.5

     total cpu time spent up to now is      619.6 secs

     total energy              =   -2463.74082066 Ry
     estimated scf accuracy    <          1.6E-09 Ry

     iteration # 41     ecut=    60.00 Ry     beta= 0.30
     Davidson diagonalization with overlap
     ethr =  3.87E-13,  avg # of iterations =  2.1

     total cpu time spent up to now is      622.4 secs

     total energy              =   -2463.74082066 Ry
     estimated scf accuracy    <          3.1E-11 Ry

     iteration # 42     ecut=    60.00 Ry     beta= 0.30
     Davidson diagonalization with overlap
     ethr =  1.00E-13,  avg # of iterations =  1.1

     total cpu time spent up to now is      624.7 secs

     End of self-consistent calculation

          k = 0.0000 0.0000 0.0000 ( 15643 PWs)   bands (ev):

   -95.4516 -95.4516 -95.4516 -95.3787 -95.3787 -95.3787 -55.8692 -55.8692
   -55.8691 -55.8681 -55.8681 -55.8681 -55.8635 -55.8635 -55.8635 -55.8048
   -55.8048 -55.8048 -55.7984 -55.7984 -55.7984 -55.7524 -55.7524 -55.7524
    -0.3977   0.4810   0.4810   3.0910   3.0910   4.7038   4.7038   4.7754
     4.7830   4.8468   4.8468   4.8639   4.9144   4.9826   4.9826   5.4399
     5.4828   5.5038   5.5038   5.5525   5.5525   5.8018   5.8018   5.8439
     5.8439   5.9282   6.0601   6.0655   6.0655   6.6347   6.6347   6.6365
     6.6396   6.6396   6.6396   6.8496   6.8699   6.8699   7.1542   7.5471
     7.6488   7.6488   7.8821   7.8821   7.9404   8.3042   8.5335   8.5335
     8.5971   8.7947   8.7947   8.9796   9.6365   9.6365  10.5365

          k = 0.0000 0.0000 0.1000 ( 15631 PWs)   bands (ev):

   -95.4516 -95.4516 -95.4516 -95.3787 -95.3787 -95.3787 -55.8692 -55.8691
   -55.8691 -55.8681 -55.8681 -55.8681 -55.8635 -55.8635 -55.8635 -55.8048
   -55.8048 -55.8048 -55.7984 -55.7984 -55.7984 -55.7524 -55.7524 -55.7524
    -0.3415   0.1027   0.9375   2.3894   3.8222   4.7113   4.7133   4.7249
     4.7638   4.8201   4.8512   4.8604   4.9188   4.9545   5.0082   5.4523
     5.4780   5.4911   5.4931   5.5037   5.6318   5.7366   5.8410   5.8466
     5.9078   5.9330   6.0605   6.0636   6.0680   6.6341   6.6353   6.6364
     6.6394   6.6396   6.6397   6.6748   6.9232   6.9310   6.9426   7.3832
     7.4141   7.4339   8.0290   8.0598   8.1416   8.4924   8.5522   8.5579
     8.7336   8.7590   8.8402   9.0501   9.6083   9.6251  10.2550

          k = 0.0000 0.0000-0.1999 ( 15600 PWs)   bands (ev):

   -95.4516 -95.4516 -95.4516 -95.3787 -95.3787 -95.3787 -55.8692 -55.8691
   -55.8691 -55.8681 -55.8681 -55.8681 -55.8635 -55.8635 -55.8635 -55.8048
   -55.8048 -55.8048 -55.7985 -55.7984 -55.7984 -55.7524 -55.7524 -55.7524
    -0.1738  -0.1738   1.2749   1.9662   4.4224   4.4224   4.7209   4.7370
     4.7370   4.8030   4.8570   4.8570   4.9322   4.9322   5.0189   5.4548
     5.4811   5.4811   5.4840   5.5396   5.5396   5.8375   5.8692   5.8692
     5.9869   6.0554   6.0554   6.0703   6.0727   6.0727   6.6339   6.6359
     6.6359   6.6395   6.6397   6.6397   7.0423   7.0936   7.0936   7.1664
     7.1664   7.2484   8.1385   8.1385   8.3009   8.4689   8.5661   8.5661
     8.7475   8.8618   8.8618   9.4096   9.4096   9.6201  10.0238

          k =-0.0000 0.1463 0.0000 ( 15661 PWs)   bands (ev):

   -95.4516 -95.4515 -95.4515 -95.3787 -95.3787 -95.3787 -55.8692 -55.8691
   -55.8691 -55.8681 -55.8681 -55.8681 -55.8635 -55.8612 -55.8612 -55.8048
   -55.8048 -55.8048 -55.7985 -55.7984 -55.7984 -55.7547 -55.7547 -55.7524
    -0.2757   0.6002   0.6018   3.1897   3.1922   4.5190   4.6904   4.7188
     4.7597   4.8062   4.8612   4.8700   4.9487   4.9604   4.9939   5.2764
     5.3242   5.4300   5.4812   5.5247   5.5265   5.7134   5.7691   5.8152
     5.8454   5.9229   5.9368   5.9811   5.9993   6.4151   6.4400   6.4823
     6.4989   6.6027   6.6355   6.6390   6.8068   6.9300   7.0163   7.0179
     7.3675   7.4399   7.4882   7.6879   7.9196   8.5888   8.7349   8.8070
     8.9054   9.0631   9.0680   9.5185   9.6640   9.9749  10.4343

          k =-0.0000 0.1463 0.1000 ( 15656 PWs)   bands (ev):

   -95.4516 -95.4515 -95.4515 -95.3787 -95.3787 -95.3787 -55.8692 -55.8691
   -55.8691 -55.8681 -55.8681 -55.8681 -55.8635 -55.8612 -55.8612 -55.8048
   -55.8048 -55.8048 -55.7985 -55.7984 -55.7984 -55.7547 -55.7547 -55.7524
    -0.2197   0.2236   1.0572   2.4949   3.9091   4.5393   4.6565   4.7269
     4.7496   4.8021   4.8220   4.8612   4.9404   4.9440   5.0230   5.2460
     5.3238   5.4043   5.4760   5.5149   5.5763   5.7207   5.8001   5.8356
     5.8601   5.9171   5.9442   5.9848   6.0015   6.3914   6.4273   6.4524
     6.5285   6.6095   6.6355   6.6390   6.7910   6.8521   6.9506   7.0317
     7.1499   7.3172   7.4559   7.8836   8.0669   8.3110   8.7168   8.8763
     8.9600   9.1094   9.2989   9.4526   9.7091   9.9895  10.4189

          k =-0.0000 0.1463-0.1999 ( 15626 PWs)   bands (ev):

   -95.4516 -95.4515 -95.4515 -95.3787 -95.3787 -95.3787 -55.8692 -55.8691
   -55.8691 -55.8681 -55.8681 -55.8681 -55.8635 -55.8612 -55.8612 -55.8048
   -55.8048 -55.8048 -55.7985 -55.7984 -55.7984 -55.7547 -55.7547 -55.7524
    -0.0529  -0.0517   1.3966   2.0712   4.4781   4.4894   4.5841   4.6062
     4.7583   4.7612   4.8370   4.8461   4.9315   4.9350   5.0448   5.2153
     5.3216   5.3885   5.4714   5.5148   5.5698   5.7902   5.8211   5.8695
     5.9200   5.9546   5.9827   5.9859   6.0147   6.0923   6.4397   6.4456
     6.5598   6.6200   6.6354   6.6390   6.7126   6.7415   6.9709   6.9845
     7.0965   7.2654   7.5422   8.0207   8.0350   8.2833   8.4927   8.8226
     9.0581   9.2541   9.2867   9.5881   9.7156  10.0478  10.5849

          k =-0.0000 0.2926 0.0000 ( 15675 PWs)   bands (ev):

   -95.4516 -95.4515 -95.4515 -95.3788 -95.3788 -95.3787 -55.8691 -55.8691
   -55.8690 -55.8681 -55.8680 -55.8680 -55.8635 -55.8551 -55.8551 -55.8049
   -55.8049 -55.8048 -55.7985 -55.7985 -55.7984 -55.7609 -55.7609 -55.7524
     0.0876   0.9537   0.9614   3.4676   3.4868   3.6523   4.2450   4.2727
     4.7016   4.7471   4.8564   4.9251   4.9308   4.9563   5.0398   5.1411
     5.1790   5.2273   5.4523   5.4913   5.5170   5.5859   5.6636   5.7672
     5.8007   5.8242   5.9008   5.9039   5.9409   6.0435   6.0815   6.1136
     6.2385   6.3731   6.4006   6.5232   6.5841   6.6356   6.6382   6.9973
     7.0829   7.2588   7.4763   7.6806   7.9471   8.0899   8.3229   8.9990
     9.0577   9.3550   9.5140   9.9616  10.2686  10.3171  11.0084

          k =-0.0000 0.2926 0.1000 ( 15647 PWs)   bands (ev):

   -95.4516 -95.4515 -95.4515 -95.3788 -95.3788 -95.3787 -55.8691 -55.8691
   -55.8690 -55.8681 -55.8680 -55.8680 -55.8635 -55.8551 -55.8551 -55.8049
   -55.8049 -55.8048 -55.7985 -55.7985 -55.7984 -55.7609 -55.7609 -55.7524
     0.1432   0.5829   1.4119   2.8047   3.6916   4.0034   4.1601   4.4898
     4.7223   4.7496   4.8548   4.8950   4.9054   4.9445   5.0252   5.1105
     5.1786   5.2370   5.4138   5.4995   5.5432   5.6269   5.6711   5.7738
     5.8022   5.8241   5.8638   5.9309   5.9437   6.0496   6.0940   6.1166
     6.2151   6.3696   6.4086   6.5524   6.5942   6.6356   6.6384   6.9476
     6.9966   7.3031   7.3313   7.5447   7.6952   8.1233   8.6653   8.8553
     8.9687   9.6087   9.7153  10.0763  10.2973  10.5132  10.8005

          k =-0.0000 0.2926-0.1999 ( 15654 PWs)   bands (ev):

   -95.4516 -95.4515 -95.4515 -95.3788 -95.3788 -95.3787 -55.8691 -55.8691
   -55.8690 -55.8681 -55.8680 -55.8680 -55.8635 -55.8551 -55.8551 -55.8049
   -55.8049 -55.8048 -55.7985 -55.7985 -55.7984 -55.7609 -55.7609 -55.7524
     0.3063   0.3121   1.7565   2.3813   3.8148   3.8186   4.5441   4.6163
     4.7164   4.7767   4.8155   4.8341   4.8694   4.9320   5.0000   5.0755
     5.1746   5.2512   5.3810   5.5149   5.5611   5.6502   5.7328   5.7805
     5.8120   5.8235   5.8361   5.9076   5.9629   6.0386   6.1059   6.1342
     6.1774   6.3666   6.4193   6.5949   6.6186   6.6356   6.6385   6.8566
     6.9651   7.0589   7.2475   7.4474   7.8383   8.2063   8.4097   8.7644
     9.5457   9.6676   9.8072  10.0842  10.0918  10.4141  11.2826

          k =-0.0000 0.4389 0.0000 ( 15668 PWs)   bands (ev):

   -95.4516 -95.4514 -95.4514 -95.3789 -95.3789 -95.3787 -55.8691 -55.8690
   -55.8689 -55.8682 -55.8679 -55.8679 -55.8635 -55.8481 -55.8481 -55.8050
   -55.8050 -55.8048 -55.7986 -55.7986 -55.7984 -55.7680 -55.7680 -55.7524
     0.6819   1.5204   1.5504   2.5467   3.3059   3.3078   3.9327   3.9409
     4.5470   4.7010   4.7928   4.8848   4.9433   5.0297   5.0541   5.1608
     5.1973   5.2681   5.3905   5.5059   5.5130   5.5522   5.5961   5.7134
     5.7145   5.7324   5.7734   5.8235   5.8448   5.8528   5.8892   5.9832
     6.0285   6.0347   6.0944   6.3137   6.4851   6.6356   6.6363   6.8536
     6.8929   7.1352   7.1871   7.3369   7.3975   8.1489   8.5698   9.0009
     9.3097   9.3807   9.6240  10.2643  10.8388  11.0318  11.2440

          k =-0.0000 0.4389 0.1000 ( 15688 PWs)   bands (ev):

   -95.4516 -95.4514 -95.4514 -95.3789 -95.3789 -95.3787 -55.8691 -55.8690
   -55.8689 -55.8682 -55.8679 -55.8679 -55.8635 -55.8481 -55.8481 -55.8050
   -55.8050 -55.8048 -55.7986 -55.7986 -55.7984 -55.7680 -55.7680 -55.7524
     0.7365   1.1685   1.9784   2.5987   2.9823   3.3010   3.7234   4.3813
     4.5723   4.6860   4.7642   4.8395   4.8952   5.0105   5.0720   5.1546
     5.2258   5.2919   5.4058   5.4844   5.5051   5.5784   5.6239   5.6892
     5.7220   5.7414   5.7594   5.8279   5.8317   5.8533   5.9059   5.9848
     6.0291   6.0371   6.0787   6.3134   6.5326   6.6356   6.6363   6.7307
     6.8725   7.0712   7.2659   7.4904   7.6361   8.0967   8.2862   8.6770
     8.8936   9.5600  10.0350  10.4983  10.7120  11.1350  11.3778

          k =-0.0000 0.4389-0.1999 ( 15682 PWs)   bands (ev):

   -95.4516 -95.4514 -95.4514 -95.3789 -95.3789 -95.3787 -55.8691 -55.8690
   -55.8689 -55.8682 -55.8679 -55.8679 -55.8635 -55.8481 -55.8481 -55.8050
   -55.8050 -55.8048 -55.7986 -55.7986 -55.7984 -55.7680 -55.7680 -55.7524
     0.8899   0.9098   2.3113   2.7261   2.7903   2.8801   4.0684   4.2117
     4.6052   4.6854   4.7870   4.8883   4.9484   4.9550   5.0530   5.1283
     5.2781   5.3020   5.3975   5.4758   5.4939   5.6225   5.6484   5.6518
     5.7317   5.7480   5.7660   5.7856   5.8372   5.8567   5.9261   5.9857
     6.0317   6.0467   6.0505   6.3103   6.5475   6.6356   6.6362   6.6994
     6.8740   7.2276   7.2337   7.4515   7.6858   7.9916   8.4492   8.6364
     8.7398   8.8957  10.5503  10.8227  10.9652  11.0692  11.6329

          k = 0.0000-0.5852 0.0000 ( 15684 PWs)   bands (ev):

   -95.4516 -95.4514 -95.4514 -95.3789 -95.3789 -95.3787 -55.8691 -55.8689
   -55.8689 -55.8682 -55.8679 -55.8679 -55.8635 -55.8448 -55.8448 -55.8051
   -55.8051 -55.8048 -55.7986 -55.7986 -55.7984 -55.7713 -55.7713 -55.7524
     1.3857   1.6026   2.1888   2.3391   2.3581   2.5452   4.2649   4.3242
     4.4797   4.6880   4.7064   4.7141   4.8019   5.0251   5.0925   5.1069
     5.2514   5.2928   5.3930   5.5529   5.5558   5.6323   5.6562   5.6676
     5.7165   5.7225   5.7225   5.7332   5.7434   5.7485   5.7697   5.7843
     5.8798   6.0107   6.0848   6.1976   6.5947   6.6288   6.6356   6.6357
     6.7452   7.0400   7.0792   7.1852   7.3462   8.1579   8.7558   9.1147
     9.3892   9.4878   9.5497  10.3025  10.5086  10.6842  12.1647

          k = 0.0000-0.5852 0.1000 ( 15694 PWs)   bands (ev):

   -95.4516 -95.4514 -95.4514 -95.3789 -95.3789 -95.3787 -55.8691 -55.8689
   -55.8689 -55.8682 -55.8679 -55.8679 -55.8635 -55.8448 -55.8448 -55.8051
   -55.8051 -55.8048 -55.7986 -55.7986 -55.7984 -55.7713 -55.7713 -55.7524
     1.4327   1.6482   1.9049   2.0970   2.7026   2.8974   3.9213   3.9504
     4.4986   4.6630   4.8191   4.8202   4.9456   5.0252   5.1066   5.1570
     5.2347   5.3652   5.4592   5.5113   5.5226   5.6122   5.6693   5.6707
     5.6957   5.7010   5.7225   5.7327   5.7531   5.7601   5.7755   5.7902
     5.9024   6.0104   6.0382   6.1975   6.4939   6.6352   6.6356   6.6553
     6.8576   7.1414   7.2409   7.2464   7.5138   8.0703   8.5087   8.8058
     8.8065   8.9983  10.0661  10.5279  11.2271  11.3543  12.0447

          k = 0.0000-0.5852-0.1999 ( 15696 PWs)   bands (ev):

   -95.4516 -95.4514 -95.4514 -95.3789 -95.3789 -95.3787 -55.8691 -55.8689
   -55.8689 -55.8682 -55.8679 -55.8679 -55.8635 -55.8448 -55.8448 -55.8051
   -55.8051 -55.8048 -55.7987 -55.7986 -55.7984 -55.7713 -55.7713 -55.7524
     1.5170   1.7196   1.7313   1.9173   3.0266   3.3265   3.4872   3.5677
     4.5264   4.6431   4.7778   4.9043   4.9798   5.0440   5.1064   5.2447
     5.3442   5.3980   5.4219   5.5066   5.5463   5.5672   5.6597   5.6650
     5.6861   5.6921   5.7229   5.7295   5.7540   5.7632   5.7798   5.8100
     5.9481   5.9695   6.0100   6.1962   6.4506   6.6348   6.6356   6.6531
     6.8560   7.3675   7.4926   7.5196   7.6316   7.9193   8.0845   8.4996
     8.5616   8.5933  10.5988  11.0760  11.2069  11.4721  12.1704

          k = 0.1267 0.2194 0.0000 ( 15646 PWs)   bands (ev):

   -95.4515 -95.4515 -95.4515 -95.3788 -95.3787 -95.3787 -55.8691 -55.8691
   -55.8690 -55.8681 -55.8681 -55.8680 -55.8612 -55.8612 -55.8551 -55.8049
   -55.8048 -55.8048 -55.7985 -55.7985 -55.7984 -55.7609 -55.7547 -55.7547
    -0.0330   0.8372   0.8417   3.3820   3.3895   4.2167   4.2208   4.5563
     4.6027   4.6809   4.7808   4.9120   4.9820   4.9917   5.0260   5.1137
     5.1543   5.2666   5.4398   5.4981   5.5725   5.6171   5.6599   5.7982
     5.8446   5.8633   5.8960   5.9130   5.9718   6.1479   6.1819   6.1845
     6.2949   6.4231   6.5328   6.5824   6.6009   6.6554   6.7608   6.7712
     6.8143   7.5221   7.7011   8.2257   8.2995   8.4770   8.5781   8.6588
     8.6665   8.8494   9.2518   9.3851   9.9749  10.8134  10.9442

          k = 0.1267 0.2194 0.1000 ( 15655 PWs)   bands (ev):

   -95.4515 -95.4515 -95.4515 -95.3788 -95.3787 -95.3787 -55.8691 -55.8691
   -55.8690 -55.8681 -55.8681 -55.8680 -55.8612 -55.8612 -55.8551 -55.8049
   -55.8048 -55.8048 -55.7985 -55.7985 -55.7984 -55.7609 -55.7547 -55.7547
     0.0227   0.4637   1.2945   2.7029   4.0725   4.2480   4.2557   4.4694
     4.5004   4.7418   4.8242   4.8922   4.9502   4.9977   5.0258   5.1238
     5.1390   5.2674   5.4214   5.5226   5.5623   5.6434   5.6916   5.8063
     5.8431   5.8511   5.9049   5.9147   5.9767   6.1381   6.1638   6.2068
     6.2857   6.4246   6.5188   6.5782   6.6107   6.6568   6.6790   6.8238
     7.0028   7.2265   7.5769   7.9265   8.0401   8.1225   8.6802   8.9039
     9.1403   9.1757   9.3796   9.5811  10.1855  10.6851  10.8439

          k = 0.1267 0.2194-0.1999 ( 15646 PWs)   bands (ev):

   -95.4515 -95.4515 -95.4515 -95.3788 -95.3787 -95.3787 -55.8691 -55.8691
   -55.8690 -55.8681 -55.8681 -55.8680 -55.8612 -55.8612 -55.8551 -55.8049
   -55.8048 -55.8048 -55.7985 -55.7985 -55.7984 -55.7609 -55.7547 -55.7547
     0.1875   0.1910   1.6377   2.2788   4.3115   4.3448   4.3502   4.3851
     4.5794   4.6109   4.8543   4.8709   4.9266   4.9750   5.0546   5.0852
     5.1690   5.2478   5.4119   5.5320   5.5681   5.6797   5.7561   5.7799
     5.8386   5.8816   5.8886   5.9302   5.9853   6.0923   6.1695   6.1907
     6.2886   6.4274   6.5029   6.5751   6.6212   6.6448   6.7333   6.8217
     6.9216   7.1925   7.5086   7.6633   7.9111   7.9475   8.7859   9.0336
     9.2180   9.2611   9.8967  10.0246  10.2560  10.2689  10.6595

          k = 0.1267 0.3657 0.0000 ( 15694 PWs)   bands (ev):

   -95.4515 -95.4515 -95.4514 -95.3789 -95.3788 -95.3787 -55.8691 -55.8690
   -55.8690 -55.8681 -55.8680 -55.8679 -55.8612 -55.8551 -55.8481 -55.8050
   -55.8049 -55.8049 -55.7986 -55.7985 -55.7984 -55.7680 -55.7609 -55.7547
     0.4465   1.3017   1.3150   3.1659   3.7085   3.7558   3.8806   3.9134
     3.9345   4.4647   4.5115   4.9678   4.9888   5.0134   5.0889   5.1639
     5.2459   5.2664   5.4247   5.4735   5.5186   5.5394   5.6309   5.7429
     5.7830   5.7966   5.8463   5.8605   5.8864   5.9132   5.9367   5.9659
     6.0606   6.0954   6.3087   6.3830   6.4984   6.5531   6.6023   6.6263
     6.7280   7.4533   7.5293   7.9171   8.0173   8.2390   8.5317   8.7636
     8.8725   9.2987   9.7183  10.0308  10.4413  11.1312  11.2150

          k = 0.1267 0.3657 0.1000 ( 15674 PWs)   bands (ev):

   -95.4515 -95.4515 -95.4514 -95.3789 -95.3788 -95.3787 -55.8691 -55.8690
   -55.8690 -55.8681 -55.8680 -55.8679 -55.8612 -55.8551 -55.8481 -55.8050
   -55.8049 -55.8049 -55.7986 -55.7985 -55.7984 -55.7680 -55.7609 -55.7547
     0.5016   0.9372   1.7592   3.0965   3.2225   3.5799   3.9667   4.1978
     4.2800   4.3602   4.6941   4.8766   4.9827   5.0270   5.0844   5.1489
     5.2284   5.2802   5.3662   5.4733   5.5433   5.5720   5.6412   5.7457
     5.7550   5.7961   5.8224   5.8721   5.8978   5.9063   5.9461   5.9719
     6.0668   6.1076   6.3035   6.3868   6.4929   6.5468   6.6187   6.6728
     6.8285   7.0718   7.4878   7.7350   7.9837   8.2895   8.4966   8.9558
     9.1655   9.5759   9.7376   9.9438  10.2733  10.7136  11.0777

          k = 0.1267 0.3657-0.1999 ( 15702 PWs)   bands (ev):

   -95.4515 -95.4515 -95.4514 -95.3789 -95.3788 -95.3787 -55.8691 -55.8690
   -55.8690 -55.8681 -55.8680 -55.8679 -55.8612 -55.8551 -55.8481 -55.8050
   -55.8049 -55.8049 -55.7986 -55.7985 -55.7984 -55.7680 -55.7609 -55.7547
     0.6613   0.6710   2.1068   2.6837   3.3452   3.3673   4.0786   4.0859
     4.4955   4.5340   4.7880   4.8532   4.9261   5.0018   5.0846   5.1225
     5.2199   5.2913   5.3308   5.4710   5.5495   5.6197   5.6650   5.6893
     5.7588   5.8014   5.8121   5.8487   5.9068   5.9290   5.9486   5.9744
     6.0717   6.1227   6.2979   6.3897   6.4910   6.5456   6.6331   6.7760
     6.9168   7.0250   7.1481   7.3801   8.0134   8.2276   9.0734   9.1810
     9.3604   9.3806   9.7009   9.8823  10.1494  10.2702  11.5775

          k = 0.1267 0.5120 0.0000 ( 15689 PWs)   bands (ev):

   -95.4515 -95.4514 -95.4514 -95.3789 -95.3789 -95.3787 -55.8691 -55.8690
   -55.8689 -55.8681 -55.8679 -55.8679 -55.8612 -55.8481 -55.8448 -55.8051
   -55.8050 -55.8049 -55.7986 -55.7986 -55.7984 -55.7713 -55.7680 -55.7547
     1.1438   1.9012   2.0079   2.1712   2.8900   2.9270   3.7603   4.2070
     4.2404   4.3594   4.3816   4.8027   4.8730   5.0338   5.1222   5.1739
     5.3280   5.3798   5.4113   5.4909   5.5484   5.5987   5.6501   5.6728
     5.6828   5.6955   5.7236   5.7702   5.7940   5.8113   5.8376   5.8836
     5.9754   6.0040   6.0510   6.2727   6.4760   6.5214   6.5883   6.6435
     6.7059   6.8961   7.0234   7.8184   7.8685   8.2850   8.5270   8.7993
     9.2487   9.8624  10.2698  10.6077  10.7629  10.9214  11.0530

          k = 0.1267 0.5120 0.1000 ( 15690 PWs)   bands (ev):

   -95.4515 -95.4514 -95.4514 -95.3789 -95.3789 -95.3787 -55.8691 -55.8690
   -55.8689 -55.8681 -55.8679 -55.8679 -55.8612 -55.8481 -55.8448 -55.8051
   -55.8050 -55.8049 -55.7986 -55.7986 -55.7984 -55.7713 -55.7680 -55.7547
     1.1970   1.6166   2.1381   2.4190   2.6071   3.3145   3.6932   3.8035
     4.1216   4.2884   4.6227   4.8314   4.9995   5.0610   5.1259   5.1770
     5.3220   5.3589   5.4294   5.4780   5.5402   5.6101   5.6454   5.6627
     5.6833   5.7014   5.7302   5.7652   5.7933   5.8166   5.8373   5.8957
     5.9750   6.0026   6.0387   6.2746   6.4241   6.5187   6.6015   6.6508
     6.7144   6.9496   7.3515   7.5059   8.0058   8.2501   8.4234   8.9275
     8.9968   9.5842   9.9653  10.6665  10.9187  11.1419  11.4438

          k = 0.1267 0.5120-0.1999 ( 15696 PWs)   bands (ev):

   -95.4515 -95.4514 -95.4514 -95.3789 -95.3789 -95.3787 -55.8691 -55.8690
   -55.8689 -55.8681 -55.8679 -55.8679 -55.8612 -55.8481 -55.8448 -55.8051
   -55.8050 -55.8049 -55.7986 -55.7986 -55.7984 -55.7713 -55.7680 -55.7547
     1.3371   1.3772   2.2862   2.2990   2.8360   3.2577   3.7150   3.9112
     3.9292   3.9512   4.7686   4.9419   5.0070   5.1057   5.1301   5.1842
     5.3219   5.3539   5.4064   5.4853   5.5361   5.6096   5.6356   5.6687
     5.6874   5.7078   5.7290   5.7635   5.7827   5.8247   5.8372   5.9144
     5.9761   5.9949   6.0263   6.2752   6.4076   6.4842   6.6026   6.6070
     6.8352   7.1226   7.4054   7.5080   7.9921   8.1887   8.3608   8.5661
     9.2374   9.3595  10.1286  10.1546  10.9741  11.1355  12.1861

          k = 0.2534 0.4389 0.0000 ( 15698 PWs)   bands (ev):

   -95.4515 -95.4515 -95.4514 -95.3789 -95.3788 -95.3788 -55.8690 -55.8690
   -55.8689 -55.8680 -55.8680 -55.8679 -55.8551 -55.8551 -55.8448 -55.8051
   -55.8050 -55.8050 -55.7986 -55.7985 -55.7985 -55.7713 -55.7609 -55.7609
     1.0335   1.8637   1.8880   2.7933   2.9324   3.5491   3.5808   3.6388
     3.6692   4.1660   4.1865   4.8984   5.0120   5.1003   5.1347   5.2196
     5.2443   5.2957   5.4551   5.4680   5.5375   5.6034   5.6075   5.6630
     5.7296   5.7502   5.7638   5.7695   5.7880   5.8863   5.8868   5.9193
     5.9581   5.9588   6.2333   6.2432   6.3455   6.4638   6.5077   6.6374
     6.6628   7.2813   7.3286   7.3749   7.5781   8.9456   9.1560   9.3931
     9.5658   9.7054   9.9425  10.1605  10.6951  10.8352  11.1331

          k = 0.2534 0.4389 0.1000 ( 15701 PWs)   bands (ev):

   -95.4515 -95.4515 -95.4514 -95.3789 -95.3788 -95.3788 -55.8690 -55.8690
   -55.8689 -55.8680 -55.8680 -55.8679 -55.8551 -55.8551 -55.8448 -55.8051
   -55.8050 -55.8050 -55.7986 -55.7985 -55.7985 -55.7713 -55.7609 -55.7609
     1.0875   1.5141   2.3116   2.8414   2.9799   3.2481   3.3498   3.5816
     3.9788   4.0127   4.5543   4.7326   4.9380   5.1484   5.1590   5.2248
     5.2410   5.2973   5.4450   5.4799   5.5435   5.6024   5.6134   5.6709
     5.7026   5.7378   5.7553   5.7792   5.8031   5.8868   5.8972   5.9123
     5.9352   6.0031   6.2241   6.2505   6.3423   6.4677   6.5348   6.5652
     6.8710   6.8894   7.0593   7.7898   8.0813   8.5989   9.0272   9.3681
     9.6157   9.6809   9.9687  10.2067  10.2448  10.3431  11.2525

          k = 0.2534 0.4389-0.1999 ( 15696 PWs)   bands (ev):

   -95.4515 -95.4515 -95.4514 -95.3789 -95.3788 -95.3788 -55.8690 -55.8690
   -55.8689 -55.8680 -55.8680 -55.8679 -55.8551 -55.8551 -55.8448 -55.8051
   -55.8050 -55.8050 -55.7986 -55.7985 -55.7985 -55.7713 -55.7609 -55.7609
     1.2407   1.2571   2.6390   2.9441   3.0567   3.1103   3.1600   3.1765
     4.3419   4.3533   4.4037   4.4073   5.0387   5.1221   5.1823   5.2044
     5.2610   5.2982   5.4432   5.4861   5.5401   5.6051   5.6406   5.6438
     5.6938   5.7293   5.7489   5.7868   5.8119   5.8868   5.9039   5.9098
     5.9246   6.0336   6.2172   6.2550   6.3385   6.4710   6.5677   6.5748
     6.7280   6.8145   7.4221   7.4297   8.6479   8.8557   8.9754   9.1002
     9.1964   9.6084   9.7384   9.8904  10.3103  10.4411  11.6722

          k = 0.2534 0.5852 0.0000 ( 15686 PWs)   bands (ev):

   -95.4515 -95.4514 -95.4514 -95.3789 -95.3789 -95.3788 -55.8690 -55.8690
   -55.8690 -55.8680 -55.8679 -55.8679 -55.8551 -55.8481 -55.8481 -55.8050
   -55.8050 -55.8050 -55.7986 -55.7986 -55.7985 -55.7680 -55.7680 -55.7609
     1.7347   1.9336   2.5003   2.6298   2.6496   2.8435   2.8591   3.5220
     3.5345   4.4888   4.5278   4.7200   4.8962   5.0047   5.1592   5.2358
     5.2951   5.3830   5.3929   5.4738   5.4773   5.5814   5.5832   5.6690
     5.7170   5.7485   5.7620   5.7734   5.8200   5.8642   5.8647   5.9214
     5.9369   6.0010   6.0203   6.2095   6.3738   6.4108   6.4563   6.7720
     6.7846   6.8500   7.0190   7.2580   7.4706   9.1483   9.5261   9.6999
     9.9401  10.3374  10.3528  10.5796  10.7629  10.8547  11.0027

          k = 0.2534 0.5852 0.1000 ( 15718 PWs)   bands (ev):

   -95.4515 -95.4514 -95.4514 -95.3789 -95.3789 -95.3788 -55.8690 -55.8690
   -55.8690 -55.8680 -55.8679 -55.8679 -55.8551 -55.8481 -55.8481 -55.8050
   -55.8050 -55.8050 -55.7986 -55.7986 -55.7985 -55.7680 -55.7680 -55.7609
     1.7837   1.9783   2.2308   2.4032   2.8174   3.0294   3.1647   3.2599
     3.9013   4.1749   4.1884   4.6658   5.0446   5.1044   5.2215   5.2363
     5.2987   5.3881   5.3952   5.4440   5.4646   5.5699   5.6040   5.6323
     5.7098   5.7608   5.7719   5.7935   5.8252   5.8473   5.8841   5.9145
     5.9418   5.9995   6.0186   6.2104   6.3457   6.4448   6.4829   6.5782
     6.6531   6.9169   7.2363   7.4072   7.9527   8.9445   9.1913   9.2495
     9.6303  10.0030  10.3356  10.7365  10.8292  10.9721  11.1154

          k = 0.2534 0.5852-0.1999 ( 15710 PWs)   bands (ev):

   -95.4515 -95.4514 -95.4514 -95.3789 -95.3789 -95.3788 -55.8690 -55.8690
   -55.8690 -55.8680 -55.8679 -55.8679 -55.8551 -55.8481 -55.8481 -55.8050
   -55.8050 -55.8050 -55.7986 -55.7986 -55.7985 -55.7680 -55.7680 -55.7609
     1.8793   2.0356   2.0618   2.2323   2.9441   2.9763   3.3729   3.6330
     3.7503   3.8122   4.2890   4.3521   5.1205   5.2272   5.2341   5.2735
     5.3008   5.3882   5.3970   5.4067   5.4431   5.5859   5.5905   5.6104
     5.7094   5.7610   5.7721   5.8175   5.8317   5.8427   5.8911   5.9114
     5.9442   5.9974   6.0168   6.2113   6.3297   6.4841   6.5183   6.5325
     6.5586   6.7480   7.7125   7.8203   8.1718   8.4719   8.9223   9.0527
     9.2962   9.6888  10.6250  10.6877  10.7906  11.0362  11.0365

     the Fermi energy is     7.2422 ev

!    total energy              =   -2463.74082066 Ry
     estimated scf accuracy    <          6.5E-13 Ry
     smearing contrib. (-TS)   =       0.00067112 Ry
     internal energy E=F+TS    =   -2463.74149178 Ry

     The total energy is F=E-TS. E is the sum of the following terms:
     one-electron contribution =   -2149.71301971 Ry
     hartree contribution      =    1116.92504274 Ry
     xc contribution           =    -233.38210015 Ry
     ewald contribution        =    -821.38691913 Ry
     DFT-D3 Dispersion         =      -0.44240912 Ry
     one-center paw contrib.   =    -375.74208642 Ry

     convergence has been achieved in  42 iterations

     Forces acting on atoms (cartesian axes, Ry/au):

     atom    1 type  1   force =    -0.00002934    0.00001694   -0.00000000
     atom    2 type  1   force =     0.00000000   -0.00003388   -0.00000000
     atom    3 type  1   force =     0.00002934   -0.00001694    0.00000000
     atom    4 type  1   force =    -0.00000000    0.00003388    0.00000000
     atom    5 type  1   force =     0.00002934    0.00001694    0.00000000
     atom    6 type  1   force =    -0.00002934   -0.00001694    0.00000000
     atom    7 type  1   force =     0.00000000    0.00000000    0.00001972
     atom    8 type  1   force =     0.00000000    0.00000000   -0.00001972
     atom    9 type  1   force =     0.00000000    0.00000000   -0.00001972
     atom   10 type  1   force =     0.00000000    0.00000000    0.00001972
     atom   11 type  1   force =    -0.00000000   -0.00000000   -0.00001972
     atom   12 type  1   force =     0.00000000    0.00000000    0.00001972
     atom   13 type  2   force =     0.00000000    0.00000000    0.00000000
     atom   14 type  2   force =    -0.00000000   -0.00000000    0.00000000
     atom   15 type  2   force =     0.00000000    0.00000000   -0.00000000
     atom   16 type  2   force =     0.00000000    0.00000000   -0.00000000
     atom   17 type  2   force =    -0.00000000   -0.00000000    0.00000000
     atom   18 type  2   force =    -0.00000000   -0.00000000    0.00000000

     Total force =     0.000096     Total SCF correction =     0.000000


     Computing stress (Cartesian axis) and pressure

          total   stress  (Ry/bohr**3)                   (kbar)     P=       -0.14
  -0.00000236   0.00000000   0.00000000           -0.35        0.00        0.00
   0.00000000  -0.00000236   0.00000000            0.00       -0.35        0.00
   0.00000000   0.00000000   0.00000178            0.00        0.00        0.26


     Writing all to output data dir ./outdir/mg2ni.save/ :
     XML data file, charge density, pseudopotentials, collected wavefunctions
 
     init_run     :    100.80s CPU     11.43s WALL (       2 calls)
     electrons    :    852.19s CPU    581.36s WALL (      11 calls)
     update_pot   :     11.38s CPU      1.21s WALL (       9 calls)
     forces       :     15.87s CPU     12.93s WALL (      11 calls)
     force_dftd3  :      2.80s CPU      2.56s WALL (      11 calls)
     stress       :     17.95s CPU     16.13s WALL (      11 calls)
     stres_dftd3  :      2.85s CPU      2.57s WALL (      11 calls)

     Called by init_run:
     wfcinit      :      2.38s CPU      2.63s WALL (       2 calls)
     potinit      :     97.28s CPU      7.71s WALL (       2 calls)
     hinit0       :      0.55s CPU      0.39s WALL (       2 calls)

     Called by electrons:
     c_bands      :    480.23s CPU    455.24s WALL (     176 calls)
     sum_band     :     70.90s CPU     62.11s WALL (     176 calls)
     v_of_rho     :      1.32s CPU      1.03s WALL (     181 calls)
     newd         :     33.88s CPU     31.75s WALL (     181 calls)
     PAW_pot      :    254.24s CPU     26.66s WALL (     190 calls)
     mix_rho      :      2.67s CPU      2.31s WALL (     176 calls)
     energy_dftd3 :      2.77s CPU      2.71s WALL (      11 calls)

     Called by c_bands:
     init_us_2    :      7.42s CPU      6.22s WALL (   11550 calls)
     cegterg      :    445.63s CPU    421.60s WALL (    5280 calls)

     Called by *egterg:
     cdiaghg      :    122.74s CPU    128.86s WALL (   17563 calls)
                                      128.69s GPU  (   17563 calls)
     h_psi        :    161.44s CPU    143.25s WALL (   18073 calls)
     s_psi        :     34.95s CPU     34.58s WALL (   18073 calls)
     g_psi        :      1.02s CPU      1.02s WALL (   12733 calls)

     Called by h_psi:
     h_psi:calbec :      1.30s CPU      1.14s WALL (   18073 calls)
     vloc_psi     :    119.24s CPU    101.94s WALL (   18073 calls)
                                      101.86s GPU  (   18073 calls)
     add_vuspsi   :     39.87s CPU     39.49s WALL (   18073 calls)

     General routines
     calbec       :      1.71s CPU      1.47s WALL (   29233 calls)
     fft          :     88.64s CPU      7.72s WALL (    2621 calls)
                                        0.32s GPU  (    2440 calls)
     ffts         :     23.28s CPU      1.58s WALL (     357 calls)
                                        0.01s GPU  (     176 calls)
     fftw         :      1.72s CPU    101.02s WALL (  163748 calls)
                                       99.98s GPU  (  163748 calls)
     interpolate  :    113.26s CPU      9.42s WALL (     181 calls)
 
 
     PWSCF        :  16m46.46s CPU  10m27.71s WALL

 
   This run was terminated on:   0:22:24  10Jun2026            

=------------------------------------------------------------------------------=
   JOB DONE.
=------------------------------------------------------------------------------=
