
     Program PWSCF v.7.5 starts on 13Jun2026 at  4:25:14 

     This program is part of the open-source Quantum ESPRESSO suite
     for quantum simulation of materials; please cite
         "P. Giannozzi et al., J. Phys.:Condens. Matter 21 395502 (2009);
         "P. Giannozzi et al., J. Phys.:Condens. Matter 29 465901 (2017);
         "P. Giannozzi et al., J. Chem. Phys. 152 154105 (2020);
          URL http://www.quantum-espresso.org", 
     in publications or presentations arising from this work. More details at
     http://www.quantum-espresso.org/quote

     Serial multi-threaded version, running on   32 processor cores
     8650 MiB available memory on the printing compute node when the environment starts
 
     Reading input from inputs/mgh2co_spinchk.in
Warning: card &CELL ignored
Warning: card     CELL_DYNAMICS = 'BFGS' ignored
Warning: card     PRESS_CONV_THR = 0.5 ignored

     Current dimensions of program PWSCF are:
     Max number of different atomic species (ntypx) = 10
     Max number of k-points (npk) =  40000
     Max angular momentum in pseudopotentials (lmaxx) =  4
     file Mg.pbe-n-kjpaw_psl.0.3.0.UPF: wavefunction(s)  3S renormalized
 
 
     G-vector sticks info
     --------------------
     sticks:   dense  smooth     PW     G-vecs:    dense   smooth      PW
     Sum       10495    5235   1453               545663   192977   27913
 
     Using Slab Decomposition
 


     bravais-lattice index     =            0
     lattice parameter (alat)  =      16.5816  a.u.
     unit-cell volume          =    3072.8975 (a.u.)^3
     number of atoms/cell      =           48
     number of atomic types    =            3
     number of electrons       =        79.00
     number of Kohn-Sham states=           48
     kinetic-energy cutoff     =      60.0000  Ry
     charge density cutoff     =     480.0000  Ry
     scf convergence threshold =      1.0E-09
     mixing beta               =       0.3000
     number of iterations used =           12  plain     mixing
     Exchange-correlation= PBE
                           (   1   4   3   4   0   0   0)

     GPU acceleration is ACTIVE.  1 visible GPUs per MPI rank


     celldm(1)=  16.581574  celldm(2)=   0.000000  celldm(3)=   0.000000
     celldm(4)=   0.000000  celldm(5)=   0.000000  celldm(6)=   0.000000

     crystal axes: (cart. coord. in units of alat)
               a(1) = (   0.999981  -0.006201  -0.000000 )  
               a(2) = (  -0.006201   0.999981   0.000000 )  
               a(3) = (  -0.000000   0.000000   0.674069 )  

     reciprocal axes: (cart. coord. in units 2 pi/alat)
               b(1) = (  1.000058  0.006202  0.000000 )  
               b(2) = (  0.006202  1.000058 -0.000000 )  
               b(3) = (  0.000000 -0.000000  1.483528 )  


     PseudoPot. # 1 for Co read from file:
     /home/x/Workspace/3-hEspesso/pseudo/Co_pbe_v1.2.uspp.F.UPF
     MD5 check sum: 5f91765df6ddd3222702df6e7b74a16d
     Pseudo is Ultrasoft + core correction, Zval = 17.0
     Generated by new atomic code, or converted to UPF format
     Using radial grid of  863 points,  6 beta functions with: 
                l(1) =   0
                l(2) =   0
                l(3) =   1
                l(4) =   1
                l(5) =   2
                l(6) =   2
     Q(r) pseudized with  8 coefficients,  rinner =    1.200   1.200   1.200
                                                       1.200   1.200

     PseudoPot. # 2 for Mg read from file:
     /home/x/Workspace/3-hEspesso/pseudo/Mg.pbe-n-kjpaw_psl.0.3.0.UPF
     MD5 check sum: 24ecedc7f3e3cbe212e682f4413594e4
     Pseudo is Projector augmented-wave + core cor, Zval =  2.0
     Generated using "atomic" code by A. Dal Corso  v.5.0.99 svn rev. 10869
     Shape of augmentation charge: PSQ
     Using radial grid of 1129 points,  4 beta functions with: 
                l(1) =   0
                l(2) =   0
                l(3) =   1
                l(4) =   1
     Q(r) pseudized with 0 coefficients 


     PseudoPot. # 3 for H  read from file:
     /home/x/Workspace/3-hEspesso/pseudo/H.pbe-rrkjus_psl.1.0.0.UPF
     MD5 check sum: f52b6d4d1c606e5624b1dc7b2218f220
     Pseudo is Ultrasoft, Zval =  1.0
     Generated using "atomic" code by A. Dal Corso  v.5.1
     Using radial grid of  929 points,  2 beta functions with: 
                l(1) =   0
                l(2) =   0
     Q(r) pseudized with 0 coefficients 


     atomic species   valence    mass     pseudopotential
     Co               17.00    58.93320     Co( 1.00)
     Mg                2.00    24.30500     Mg( 1.00)
     H                 1.00     1.00794     H ( 1.00)

     Starting magnetic structure 
     atomic species   magnetization
     Co              0.400
     Mg              0.000
     H               0.000

     No symmetry found



   Cartesian axes

     site n.     atom                  positions (alat units)
         1        Co     tau(   1) = (  -0.0000000   0.0000000   0.0000000  )
         2        Mg     tau(   2) = (   0.2394609   0.2394609   0.1690038  )
         3        H      tau(   3) = (   0.1282504   0.1282504   0.0000000  )
         4        H      tau(   4) = (  -0.1282504  -0.1282504  -0.0000000  )
         5        H      tau(   5) = (   0.3946303   0.0893476   0.1684310  )
         6        H      tau(   6) = (   0.0893476   0.3946303   0.1684310  )
         7        Mg     tau(   7) = (   0.0000000   0.0000000   0.3370344  )
         8        Mg     tau(   8) = (   0.2394609   0.2394609   0.5050650  )
         9        H      tau(   9) = (   0.1466008   0.1466008   0.3370344  )
        10        H      tau(  10) = (  -0.1466008  -0.1466008   0.3370344  )
        11        H      tau(  11) = (   0.3946303   0.0893476   0.5056377  )
        12        H      tau(  12) = (   0.0893476   0.3946303   0.5056377  )
        13        Mg     tau(  13) = (  -0.0031007   0.4999904   0.0000000  )
        14        Mg     tau(  14) = (   0.2416192   0.7521601   0.1654589  )
        15        H      tau(  15) = (   0.1570544   0.6403524   0.0000000  )
        16        H      tau(  16) = (  -0.1632558   0.3596284  -0.0000000  )
        17        H      tau(  17) = (   0.3974188   0.5963606   0.1687940  )
        18        H      tau(  18) = (   0.0823418   0.9114376   0.1394820  )
        19        Mg     tau(  19) = (  -0.0031007   0.4999904   0.3370344  )
        20        Mg     tau(  20) = (   0.2416192   0.7521601   0.5086099  )
        21        H      tau(  21) = (   0.1458204   0.6550820   0.3370344  )
        22        H      tau(  22) = (  -0.1520218   0.3448988   0.3370344  )
        23        H      tau(  23) = (   0.3974188   0.5963606   0.5052748  )
        24        H      tau(  24) = (   0.0823418   0.9114376   0.5345868  )
        25        Mg     tau(  25) = (   0.4999904  -0.0031007  -0.0000000  )
        26        Mg     tau(  26) = (   0.7521601   0.2416192   0.1654589  )
        27        H      tau(  27) = (   0.6403524   0.1570544  -0.0000000  )
        28        H      tau(  28) = (   0.3596284  -0.1632558   0.0000000  )
        29        H      tau(  29) = (   0.9114376   0.0823418   0.1394820  )
        30        H      tau(  30) = (   0.5963606   0.3974188   0.1687940  )
        31        Mg     tau(  31) = (   0.4999904  -0.0031007   0.3370344  )
        32        Mg     tau(  32) = (   0.7521601   0.2416192   0.5086099  )
        33        H      tau(  33) = (   0.6550820   0.1458204   0.3370344  )
        34        H      tau(  34) = (   0.3448988  -0.1520218   0.3370344  )
        35        H      tau(  35) = (   0.9114376   0.0823418   0.5345868  )
        36        H      tau(  36) = (   0.5963606   0.3974188   0.5052748  )
        37        Mg     tau(  37) = (   0.4968897   0.4968897   0.0000000  )
        38        Mg     tau(  38) = (   0.7543185   0.7543185   0.1690038  )
        39        H      tau(  39) = (   0.6565820   0.6565820  -0.0000000  )
        40        H      tau(  40) = (   0.3371973   0.3371973  -0.0000000  )
        41        H      tau(  41) = (   0.9044318   0.5991491   0.1684310  )
        42        H      tau(  42) = (   0.5991491   0.9044318   0.1684310  )
        43        Mg     tau(  43) = (   0.4968897   0.4968897   0.3370344  )
        44        Mg     tau(  44) = (   0.7543185   0.7543185   0.5050650  )
        45        H      tau(  45) = (   0.6522142   0.6522142   0.3370344  )
        46        H      tau(  46) = (   0.3415652   0.3415652   0.3370344  )
        47        H      tau(  47) = (   0.9044318   0.5991491   0.5056377  )
        48        H      tau(  48) = (   0.5991491   0.9044318   0.5056377  )

     --------------------------------------------
     DFT-D3 Dispersion Correction (3-body terms):
     --------------------------------------------
       Reference C6 values for interpolation: 

         atom   Coordination number   C6
         H          0.912             6.05
         H          0.000            15.18
         Mg         0.000          1366.75
         Mg         0.963           902.54
         Mg         1.950           351.12
         Co         0.000          1065.56
         Co         1.715           373.09
         Co         2.926           296.13
         Co         7.779           236.57

       Values used:

         atom   Coordination number  R0_AB[au]  C6      C8
         Co         7.109            3.243    236.57  20800.86
         Mg         9.462            3.292    351.12  31436.69
         H          2.123            2.062      6.05     73.18
         H          2.123            2.062      6.05     73.18
         H          2.468            2.062      6.05     73.18
         H          2.468            2.062      6.05     73.18
         Mg         9.106            3.292    351.12  31436.69
         Mg         9.462            3.292    351.12  31436.69
         H          2.670            2.062      6.05     73.18
         H          2.670            2.062      6.05     73.18
         H          2.468            2.062      6.05     73.18
         H          2.468            2.062      6.05     73.18
         Mg         9.969            3.292    351.12  31436.69
         Mg         9.472            3.292    351.12  31436.69
         H          2.552            2.062      6.05     73.18
         H          2.552            2.062      6.05     73.18
         H          2.405            2.062      6.05     73.18
         H          2.050            2.062      6.05     73.18
         Mg         9.859            3.292    351.12  31436.69
         Mg         9.472            3.292    351.12  31436.69
         H          2.477            2.062      6.05     73.18
         H          2.477            2.062      6.05     73.18
         H          2.405            2.062      6.05     73.18
         H          2.050            2.062      6.05     73.18
         Mg         9.969            3.292    351.12  31436.69
         Mg         9.472            3.292    351.12  31436.69
         H          2.552            2.062      6.05     73.18
         H          2.552            2.062      6.05     73.18
         H          2.050            2.062      6.05     73.18
         H          2.405            2.062      6.05     73.18
         Mg         9.859            3.292    351.12  31436.69
         Mg         9.472            3.292    351.12  31436.69
         H          2.477            2.062      6.05     73.18
         H          2.477            2.062      6.05     73.18
         H          2.050            2.062      6.05     73.18
         H          2.405            2.062      6.05     73.18
         Mg         9.078            3.292    351.12  31436.69
         Mg         9.462            3.292    351.12  31436.69
         H          2.357            2.062      6.05     73.18
         H          2.357            2.062      6.05     73.18
         H          2.468            2.062      6.05     73.18
         H          2.468            2.062      6.05     73.18
         Mg         9.196            3.292    351.12  31436.69
         Mg         9.462            3.292    351.12  31436.69
         H          2.361            2.062      6.05     73.18
         H          2.361            2.062      6.05     73.18
         H          2.468            2.062      6.05     73.18
         H          2.468            2.062      6.05     73.18

         Molecular C6 ( Ry / a.u.^6 ) =    138186.15


     number of k points=    96  Marzari-Vanderbilt smearing, width (Ry)=  0.0100
                       cart. coord. in units 2pi/alat
        k(    1) = (   0.0000000   0.0000000   0.0000000), wk =   0.0104167
        k(    2) = (   0.0000000  -0.0000000   0.2472547), wk =   0.0104167
        k(    3) = (   0.0000000  -0.0000000   0.4945094), wk =   0.0104167
        k(    4) = (  -0.0000000   0.0000000  -0.7417641), wk =   0.0104167
        k(    5) = (  -0.0000000   0.0000000  -0.4945094), wk =   0.0104167
        k(    6) = (  -0.0000000   0.0000000  -0.2472547), wk =   0.0104167
        k(    7) = (   0.0015505   0.2500144  -0.0000000), wk =   0.0104167
        k(    8) = (   0.0015505   0.2500144   0.2472547), wk =   0.0104167
        k(    9) = (   0.0015505   0.2500144   0.4945094), wk =   0.0104167
        k(   10) = (   0.0015505   0.2500144  -0.7417641), wk =   0.0104167
        k(   11) = (   0.0015505   0.2500144  -0.4945094), wk =   0.0104167
        k(   12) = (   0.0015505   0.2500144  -0.2472547), wk =   0.0104167
        k(   13) = (  -0.0031009  -0.5000288   0.0000000), wk =   0.0104167
        k(   14) = (  -0.0031009  -0.5000288   0.2472547), wk =   0.0104167
        k(   15) = (  -0.0031009  -0.5000288   0.4945094), wk =   0.0104167
        k(   16) = (  -0.0031009  -0.5000288  -0.7417641), wk =   0.0104167
        k(   17) = (  -0.0031009  -0.5000288  -0.4945094), wk =   0.0104167
        k(   18) = (  -0.0031009  -0.5000288  -0.2472547), wk =   0.0104167
        k(   19) = (  -0.0015505  -0.2500144   0.0000000), wk =   0.0104167
        k(   20) = (  -0.0015505  -0.2500144   0.2472547), wk =   0.0104167
        k(   21) = (  -0.0015505  -0.2500144   0.4945094), wk =   0.0104167
        k(   22) = (  -0.0015505  -0.2500144  -0.7417641), wk =   0.0104167
        k(   23) = (  -0.0015505  -0.2500144  -0.4945094), wk =   0.0104167
        k(   24) = (  -0.0015505  -0.2500144  -0.2472547), wk =   0.0104167
        k(   25) = (   0.2500144   0.0015505   0.0000000), wk =   0.0104167
        k(   26) = (   0.2500144   0.0015505   0.2472547), wk =   0.0104167
        k(   27) = (   0.2500144   0.0015505   0.4945094), wk =   0.0104167
        k(   28) = (   0.2500144   0.0015505  -0.7417641), wk =   0.0104167
        k(   29) = (   0.2500144   0.0015505  -0.4945094), wk =   0.0104167
        k(   30) = (   0.2500144   0.0015505  -0.2472547), wk =   0.0104167
        k(   31) = (   0.2515649   0.2515649  -0.0000000), wk =   0.0104167
        k(   32) = (   0.2515649   0.2515649   0.2472547), wk =   0.0104167
        k(   33) = (   0.2515649   0.2515649   0.4945094), wk =   0.0104167
        k(   34) = (   0.2515649   0.2515649  -0.7417641), wk =   0.0104167
        k(   35) = (   0.2515649   0.2515649  -0.4945094), wk =   0.0104167
        k(   36) = (   0.2515649   0.2515649  -0.2472547), wk =   0.0104167
        k(   37) = (   0.2469135  -0.4984784   0.0000000), wk =   0.0104167
        k(   38) = (   0.2469135  -0.4984784   0.2472547), wk =   0.0104167
        k(   39) = (   0.2469135  -0.4984784   0.4945094), wk =   0.0104167
        k(   40) = (   0.2469135  -0.4984784  -0.7417641), wk =   0.0104167
        k(   41) = (   0.2469135  -0.4984784  -0.4945094), wk =   0.0104167
        k(   42) = (   0.2469135  -0.4984784  -0.2472547), wk =   0.0104167
        k(   43) = (   0.2484640  -0.2484640   0.0000000), wk =   0.0104167
        k(   44) = (   0.2484640  -0.2484640   0.2472547), wk =   0.0104167
        k(   45) = (   0.2484640  -0.2484640   0.4945094), wk =   0.0104167
        k(   46) = (   0.2484640  -0.2484640  -0.7417641), wk =   0.0104167
        k(   47) = (   0.2484640  -0.2484640  -0.4945094), wk =   0.0104167
        k(   48) = (   0.2484640  -0.2484640  -0.2472547), wk =   0.0104167
        k(   49) = (  -0.5000288  -0.0031009  -0.0000000), wk =   0.0104167
        k(   50) = (  -0.5000288  -0.0031009   0.2472547), wk =   0.0104167
        k(   51) = (  -0.5000288  -0.0031009   0.4945094), wk =   0.0104167
        k(   52) = (  -0.5000288  -0.0031009  -0.7417641), wk =   0.0104167
        k(   53) = (  -0.5000288  -0.0031009  -0.4945094), wk =   0.0104167
        k(   54) = (  -0.5000288  -0.0031009  -0.2472547), wk =   0.0104167
        k(   55) = (  -0.4984784   0.2469135  -0.0000000), wk =   0.0104167
        k(   56) = (  -0.4984784   0.2469135   0.2472547), wk =   0.0104167
        k(   57) = (  -0.4984784   0.2469135   0.4945094), wk =   0.0104167
        k(   58) = (  -0.4984784   0.2469135  -0.7417641), wk =   0.0104167
        k(   59) = (  -0.4984784   0.2469135  -0.4945094), wk =   0.0104167
        k(   60) = (  -0.4984784   0.2469135  -0.2472547), wk =   0.0104167
        k(   61) = (  -0.5031298  -0.5031298   0.0000000), wk =   0.0104167
        k(   62) = (  -0.5031298  -0.5031298   0.2472547), wk =   0.0104167
        k(   63) = (  -0.5031298  -0.5031298   0.4945094), wk =   0.0104167
        k(   64) = (  -0.5031298  -0.5031298  -0.7417641), wk =   0.0104167
        k(   65) = (  -0.5031298  -0.5031298  -0.4945094), wk =   0.0104167
        k(   66) = (  -0.5031298  -0.5031298  -0.2472547), wk =   0.0104167
        k(   67) = (  -0.5015793  -0.2531154  -0.0000000), wk =   0.0104167
        k(   68) = (  -0.5015793  -0.2531154   0.2472547), wk =   0.0104167
        k(   69) = (  -0.5015793  -0.2531154   0.4945094), wk =   0.0104167
        k(   70) = (  -0.5015793  -0.2531154  -0.7417641), wk =   0.0104167
        k(   71) = (  -0.5015793  -0.2531154  -0.4945094), wk =   0.0104167
        k(   72) = (  -0.5015793  -0.2531154  -0.2472547), wk =   0.0104167
        k(   73) = (  -0.2500144  -0.0015505  -0.0000000), wk =   0.0104167
        k(   74) = (  -0.2500144  -0.0015505   0.2472547), wk =   0.0104167
        k(   75) = (  -0.2500144  -0.0015505   0.4945094), wk =   0.0104167
        k(   76) = (  -0.2500144  -0.0015505  -0.7417641), wk =   0.0104167
        k(   77) = (  -0.2500144  -0.0015505  -0.4945094), wk =   0.0104167
        k(   78) = (  -0.2500144  -0.0015505  -0.2472547), wk =   0.0104167
        k(   79) = (  -0.2484640   0.2484640  -0.0000000), wk =   0.0104167
        k(   80) = (  -0.2484640   0.2484640   0.2472547), wk =   0.0104167
        k(   81) = (  -0.2484640   0.2484640   0.4945094), wk =   0.0104167
        k(   82) = (  -0.2484640   0.2484640  -0.7417641), wk =   0.0104167
        k(   83) = (  -0.2484640   0.2484640  -0.4945094), wk =   0.0104167
        k(   84) = (  -0.2484640   0.2484640  -0.2472547), wk =   0.0104167
        k(   85) = (  -0.2531154  -0.5015793   0.0000000), wk =   0.0104167
        k(   86) = (  -0.2531154  -0.5015793   0.2472547), wk =   0.0104167
        k(   87) = (  -0.2531154  -0.5015793   0.4945094), wk =   0.0104167
        k(   88) = (  -0.2531154  -0.5015793  -0.7417641), wk =   0.0104167
        k(   89) = (  -0.2531154  -0.5015793  -0.4945094), wk =   0.0104167
        k(   90) = (  -0.2531154  -0.5015793  -0.2472547), wk =   0.0104167
        k(   91) = (  -0.2515649  -0.2515649   0.0000000), wk =   0.0104167
        k(   92) = (  -0.2515649  -0.2515649   0.2472547), wk =   0.0104167
        k(   93) = (  -0.2515649  -0.2515649   0.4945094), wk =   0.0104167
        k(   94) = (  -0.2515649  -0.2515649  -0.7417641), wk =   0.0104167
        k(   95) = (  -0.2515649  -0.2515649  -0.4945094), wk =   0.0104167
        k(   96) = (  -0.2515649  -0.2515649  -0.2472547), wk =   0.0104167

     Dense  grid:   545663 G-vectors     FFT dimensions: ( 120, 120,  80)

     Smooth grid:   192977 G-vectors     FFT dimensions: (  81,  81,  60)

     Estimated max dynamical RAM per process >       6.36 GB
     Generating pointlists ...
     new r_m :   0.0748 (alat units)  1.2406 (a.u.) for type    1
     new r_m :   0.0855 (alat units)  1.4181 (a.u.) for type    2
     new r_m :   0.0748 (alat units)  1.2406 (a.u.) for type    3

     Initial potential from superposition of free atoms

     starting charge      77.9858, renormalised to      79.0000
     Starting wfcs are  105 randomized atomic wfcs

     total cpu time spent up to now is       12.6 secs

     Self-consistent Calculation

     iteration #  1     ecut=    60.00 Ry     beta= 0.30
     Davidson diagonalization with overlap
     ethr =  1.00E-02,  avg # of iterations =  3.5

     total cpu time spent up to now is       30.8 secs

     total energy              =    -840.89449876 Ry
     estimated scf accuracy    <       3.45210490 Ry

     total magnetization       =     3.00 Bohr mag/cell
     absolute magnetization    =     3.54 Bohr mag/cell

     iteration #  2     ecut=    60.00 Ry     beta= 0.30
     Davidson diagonalization with overlap
     ethr =  4.37E-03,  avg # of iterations =  2.5

     total cpu time spent up to now is       46.2 secs

     total energy              =    -840.75849693 Ry
     estimated scf accuracy    <       2.07404762 Ry

     total magnetization       =     1.40 Bohr mag/cell
     absolute magnetization    =     2.37 Bohr mag/cell

     iteration #  3     ecut=    60.00 Ry     beta= 0.30
     Davidson diagonalization with overlap
     ethr =  2.63E-03,  avg # of iterations =  3.0

     total cpu time spent up to now is       64.1 secs

     total energy              =    -840.79557682 Ry
     estimated scf accuracy    <       1.57369424 Ry

     total magnetization       =     3.00 Bohr mag/cell
     absolute magnetization    =     3.74 Bohr mag/cell

     iteration #  4     ecut=    60.00 Ry     beta= 0.30
     Davidson diagonalization with overlap
     ethr =  1.99E-03,  avg # of iterations =  2.6

     total cpu time spent up to now is       78.8 secs

     total energy              =    -840.99344302 Ry
     estimated scf accuracy    <       0.43161643 Ry

     total magnetization       =     0.90 Bohr mag/cell
     absolute magnetization    =     1.74 Bohr mag/cell

     iteration #  5     ecut=    60.00 Ry     beta= 0.30
     Davidson diagonalization with overlap
     ethr =  5.46E-04,  avg # of iterations =  3.9

     total cpu time spent up to now is      104.3 secs

     total energy              =    -841.04507642 Ry
     estimated scf accuracy    <       0.06582710 Ry

     total magnetization       =     0.99 Bohr mag/cell
     absolute magnetization    =     1.65 Bohr mag/cell

     iteration #  6     ecut=    60.00 Ry     beta= 0.30
     Davidson diagonalization with overlap
     c_bands:  1 eigenvalues not converged
     ethr =  8.33E-05,  avg # of iterations =  8.0

     total cpu time spent up to now is      145.4 secs

     total energy              =    -841.05707732 Ry
     estimated scf accuracy    <       0.03587467 Ry

     total magnetization       =     1.00 Bohr mag/cell
     absolute magnetization    =     1.48 Bohr mag/cell

     iteration #  7     ecut=    60.00 Ry     beta= 0.30
     Davidson diagonalization with overlap
     ethr =  4.54E-05,  avg # of iterations =  2.2

     total cpu time spent up to now is      159.5 secs

     total energy              =    -841.06095504 Ry
     estimated scf accuracy    <       0.00460540 Ry

     total magnetization       =     1.00 Bohr mag/cell
     absolute magnetization    =     1.32 Bohr mag/cell

     iteration #  8     ecut=    60.00 Ry     beta= 0.30
     Davidson diagonalization with overlap
     ethr =  5.83E-06,  avg # of iterations =  8.4

     total cpu time spent up to now is      209.4 secs

     total energy              =    -841.06346236 Ry
     estimated scf accuracy    <       0.00033924 Ry

     total magnetization       =     1.00 Bohr mag/cell
     absolute magnetization    =     1.21 Bohr mag/cell

     iteration #  9     ecut=    60.00 Ry     beta= 0.30
     Davidson diagonalization with overlap
     ethr =  4.29E-07,  avg # of iterations =  5.4

     total cpu time spent up to now is      233.6 secs

     total energy              =    -841.06371768 Ry
     estimated scf accuracy    <       0.00014029 Ry

     total magnetization       =     1.00 Bohr mag/cell
     absolute magnetization    =     1.19 Bohr mag/cell

     iteration # 10     ecut=    60.00 Ry     beta= 0.30
     Davidson diagonalization with overlap
     ethr =  1.78E-07,  avg # of iterations =  2.6

     total cpu time spent up to now is      248.2 secs

     total energy              =    -841.06375014 Ry
     estimated scf accuracy    <       0.00002132 Ry

     total magnetization       =     1.00 Bohr mag/cell
     absolute magnetization    =     1.18 Bohr mag/cell

     iteration # 11     ecut=    60.00 Ry     beta= 0.30
     Davidson diagonalization with overlap
     ethr =  2.70E-08,  avg # of iterations =  3.5

     total cpu time spent up to now is      266.8 secs

     total energy              =    -841.06375455 Ry
     estimated scf accuracy    <       0.00000559 Ry

     total magnetization       =     1.00 Bohr mag/cell
     absolute magnetization    =     1.18 Bohr mag/cell

     iteration # 12     ecut=    60.00 Ry     beta= 0.30
     Davidson diagonalization with overlap
     ethr =  7.08E-09,  avg # of iterations =  3.5

     total cpu time spent up to now is      284.1 secs

     total energy              =    -841.06375839 Ry
     estimated scf accuracy    <       0.00000256 Ry

     total magnetization       =     1.00 Bohr mag/cell
     absolute magnetization    =     1.17 Bohr mag/cell

     iteration # 13     ecut=    60.00 Ry     beta= 0.30
     Davidson diagonalization with overlap
     ethr =  3.24E-09,  avg # of iterations =  2.1

     total cpu time spent up to now is      297.2 secs

     total energy              =    -841.06375863 Ry
     estimated scf accuracy    <       0.00000021 Ry

     total magnetization       =     1.00 Bohr mag/cell
     absolute magnetization    =     1.17 Bohr mag/cell

     iteration # 14     ecut=    60.00 Ry     beta= 0.30
     Davidson diagonalization with overlap
     ethr =  2.69E-10,  avg # of iterations =  4.1

     total cpu time spent up to now is      319.2 secs

     total energy              =    -841.06375879 Ry
     estimated scf accuracy    <       0.00000002 Ry

     total magnetization       =     1.00 Bohr mag/cell
     absolute magnetization    =     1.17 Bohr mag/cell

     iteration # 15     ecut=    60.00 Ry     beta= 0.30
     Davidson diagonalization with overlap
     ethr =  3.14E-11,  avg # of iterations =  2.6

     total cpu time spent up to now is      336.0 secs

     total energy              =    -841.06375879 Ry
     estimated scf accuracy    <          8.3E-09 Ry

     total magnetization       =     1.00 Bohr mag/cell
     absolute magnetization    =     1.17 Bohr mag/cell

     iteration # 16     ecut=    60.00 Ry     beta= 0.30
     Davidson diagonalization with overlap
     ethr =  1.05E-11,  avg # of iterations =  3.3
 
     Magnetic moment per site  (integrated on atomic sphere of radius R)
     atom   1 (R=0.075)  charge= 13.0031  magn=  0.5674
     atom   2 (R=0.086)  charge=  0.1270  magn=  0.0006
     atom   3 (R=0.075)  charge=  0.8262  magn= -0.0048
     atom   4 (R=0.075)  charge=  0.8262  magn= -0.0048
     atom   5 (R=0.075)  charge=  0.8160  magn=  0.0004
     atom   6 (R=0.075)  charge=  0.8160  magn=  0.0004
     atom   7 (R=0.086)  charge=  0.1217  magn=  0.0066
     atom   8 (R=0.086)  charge=  0.1270  magn=  0.0006
     atom   9 (R=0.075)  charge=  0.8410  magn= -0.0005
     atom  10 (R=0.075)  charge=  0.8410  magn= -0.0005
     atom  11 (R=0.075)  charge=  0.8160  magn=  0.0004
     atom  12 (R=0.075)  charge=  0.8160  magn=  0.0004
     atom  13 (R=0.086)  charge=  0.1311  magn=  0.0000
     atom  14 (R=0.086)  charge=  0.1259  magn=  0.0033
     atom  15 (R=0.075)  charge=  0.8251  magn= -0.0002
     atom  16 (R=0.075)  charge=  0.8251  magn= -0.0002
     atom  17 (R=0.075)  charge=  0.8090  magn=  0.0005
     atom  18 (R=0.075)  charge=  0.8094  magn=  0.0039
     atom  19 (R=0.086)  charge=  0.1297  magn=  0.0008
     atom  20 (R=0.086)  charge=  0.1259  magn=  0.0033
     atom  21 (R=0.075)  charge=  0.8155  magn=  0.0039
     atom  22 (R=0.075)  charge=  0.8155  magn=  0.0039
     atom  23 (R=0.075)  charge=  0.8090  magn=  0.0005
     atom  24 (R=0.075)  charge=  0.8094  magn=  0.0039
     atom  25 (R=0.086)  charge=  0.1311  magn=  0.0000
     atom  26 (R=0.086)  charge=  0.1259  magn=  0.0033
     atom  27 (R=0.075)  charge=  0.8251  magn= -0.0002
     atom  28 (R=0.075)  charge=  0.8251  magn= -0.0002
     atom  29 (R=0.075)  charge=  0.8094  magn=  0.0039
     atom  30 (R=0.075)  charge=  0.8090  magn=  0.0005
     atom  31 (R=0.086)  charge=  0.1297  magn=  0.0008
     atom  32 (R=0.086)  charge=  0.1259  magn=  0.0033
     atom  33 (R=0.075)  charge=  0.8155  magn=  0.0039
     atom  34 (R=0.075)  charge=  0.8155  magn=  0.0039
     atom  35 (R=0.075)  charge=  0.8094  magn=  0.0039
     atom  36 (R=0.075)  charge=  0.8090  magn=  0.0005
     atom  37 (R=0.086)  charge=  0.1227  magn=  0.0007
     atom  38 (R=0.086)  charge=  0.1270  magn=  0.0006
     atom  39 (R=0.075)  charge=  0.8040  magn=  0.0002
     atom  40 (R=0.075)  charge=  0.8040  magn=  0.0002
     atom  41 (R=0.075)  charge=  0.8160  magn=  0.0004
     atom  42 (R=0.075)  charge=  0.8160  magn=  0.0004
     atom  43 (R=0.086)  charge=  0.1265  magn=  0.0000
     atom  44 (R=0.086)  charge=  0.1270  magn=  0.0006
     atom  45 (R=0.075)  charge=  0.8070  magn= -0.0001
     atom  46 (R=0.075)  charge=  0.8070  magn= -0.0001
     atom  47 (R=0.075)  charge=  0.8160  magn=  0.0004
     atom  48 (R=0.075)  charge=  0.8160  magn=  0.0004

     total cpu time spent up to now is      354.3 secs

     End of self-consistent calculation

     Number of k-points >= 100: set verbosity='high' to print the bands.

     the Fermi energy is     3.6744 ev

!    total energy              =    -841.06375880 Ry
     estimated scf accuracy    <          6.0E-10 Ry
     smearing contrib. (-TS)   =      -0.00081383 Ry
     internal energy E=F+TS    =    -841.06294497 Ry

     The total energy is F=E-TS. E is the sum of the following terms:
     one-electron contribution =    -376.11440505 Ry
     hartree contribution      =     211.67931746 Ry
     xc contribution           =     -80.71377462 Ry
     ewald contribution        =    -126.08068665 Ry
     DFT-D3 Dispersion         =      -0.46796752 Ry
     one-center paw contrib.   =    -469.36542860 Ry

     total magnetization       =     1.00 Bohr mag/cell
     absolute magnetization    =     1.17 Bohr mag/cell

     convergence has been achieved in  16 iterations

     Forces acting on atoms (cartesian axes, Ry/au):

     atom    1 type  1   force =    -0.00000002    0.00000015    0.00000020
     atom    2 type  2   force =     0.00013208    0.00013207   -0.00021905
     atom    3 type  3   force =     0.00029637    0.00029637   -0.00000001
     atom    4 type  3   force =    -0.00029636   -0.00029637   -0.00000001
     atom    5 type  3   force =     0.00011139    0.00019152    0.00011021
     atom    6 type  3   force =     0.00019152    0.00011138    0.00011021
     atom    7 type  2   force =    -0.00000000   -0.00000001    0.00000000
     atom    8 type  2   force =     0.00013207    0.00013204    0.00021902
     atom    9 type  3   force =     0.00004120    0.00004120   -0.00000001
     atom   10 type  3   force =    -0.00004119   -0.00004120    0.00000000
     atom   11 type  3   force =     0.00011140    0.00019151   -0.00011022
     atom   12 type  3   force =     0.00019153    0.00011139   -0.00011021
     atom   13 type  2   force =     0.00000000    0.00000000    0.00000001
     atom   14 type  2   force =    -0.00016707    0.00016705   -0.00147386
     atom   15 type  3   force =    -0.00010741   -0.00005311   -0.00000001
     atom   16 type  3   force =     0.00010740    0.00005312    0.00000000
     atom   17 type  3   force =     0.00013746   -0.00013747    0.00011772
     atom   18 type  3   force =     0.00306420   -0.00306421    0.00327839
     atom   19 type  2   force =    -0.00000002   -0.00000002   -0.00000000
     atom   20 type  2   force =    -0.00016705    0.00016707    0.00147385
     atom   21 type  3   force =    -0.00043963    0.00122379    0.00000000
     atom   22 type  3   force =     0.00043962   -0.00122381   -0.00000000
     atom   23 type  3   force =     0.00013747   -0.00013747   -0.00011773
     atom   24 type  3   force =     0.00306420   -0.00306420   -0.00327840
     atom   25 type  2   force =    -0.00000000    0.00000000   -0.00000002
     atom   26 type  2   force =     0.00016705   -0.00016706   -0.00147384
     atom   27 type  3   force =    -0.00005310   -0.00010739    0.00000000
     atom   28 type  3   force =     0.00005310    0.00010740    0.00000000
     atom   29 type  3   force =    -0.00306420    0.00306420    0.00327839
     atom   30 type  3   force =    -0.00013746    0.00013745    0.00011772
     atom   31 type  2   force =    -0.00000000   -0.00000002   -0.00000002
     atom   32 type  2   force =     0.00016705   -0.00016707    0.00147383
     atom   33 type  3   force =     0.00122380   -0.00043964   -0.00000000
     atom   34 type  3   force =    -0.00122381    0.00043962    0.00000000
     atom   35 type  3   force =    -0.00306420    0.00306420   -0.00327841
     atom   36 type  3   force =    -0.00013747    0.00013746   -0.00011773
     atom   37 type  2   force =    -0.00000000   -0.00000000   -0.00000002
     atom   38 type  2   force =    -0.00013205   -0.00013205   -0.00021904
     atom   39 type  3   force =     0.00016163    0.00016162    0.00000000
     atom   40 type  3   force =    -0.00016162   -0.00016163   -0.00000001
     atom   41 type  3   force =    -0.00019152   -0.00011140    0.00011022
     atom   42 type  3   force =    -0.00011138   -0.00019153    0.00011021
     atom   43 type  2   force =    -0.00000001   -0.00000001    0.00000000
     atom   44 type  2   force =    -0.00013207   -0.00013205    0.00021905
     atom   45 type  3   force =     0.00006867    0.00006866   -0.00000001
     atom   46 type  3   force =    -0.00006866   -0.00006866   -0.00000000
     atom   47 type  3   force =    -0.00019153   -0.00011140   -0.00011022
     atom   48 type  3   force =    -0.00011138   -0.00019152   -0.00011022

     Total force =     0.011634     Total SCF correction =     0.000006


     Computing stress (Cartesian axis) and pressure

          total   stress  (Ry/bohr**3)                   (kbar)     P=        0.79
  -0.00000021   0.00000046   0.00000000           -0.03        0.07        0.00
   0.00000046  -0.00000021  -0.00000000            0.07       -0.03       -0.00
   0.00000000  -0.00000000   0.00001648            0.00       -0.00        2.42


     Writing all to output data dir ./outdir/mgh2co_spinchk.save/ :
     XML data file, charge density, pseudopotentials, collected wavefunctions
 
     init_run     :     46.09s CPU     12.44s WALL (       1 calls)
     electrons    :    388.99s CPU    341.68s WALL (       1 calls)
     forces       :      4.87s CPU      4.51s WALL (       1 calls)
     force_dftd3  :      0.76s CPU      0.73s WALL (       1 calls)
     stress       :      7.55s CPU      6.91s WALL (       1 calls)
     stres_dftd3  :      0.75s CPU      0.72s WALL (       1 calls)

     Called by init_run:
     wfcinit      :      7.91s CPU      8.61s WALL (       1 calls)
     potinit      :     36.34s CPU      2.16s WALL (       1 calls)
     hinit0       :      0.96s CPU      0.67s WALL (       1 calls)

     Called by electrons:
     c_bands      :    319.98s CPU    305.61s WALL (      16 calls)
     sum_band     :     28.87s CPU     24.86s WALL (      16 calls)
     v_of_rho     :      0.30s CPU      0.27s WALL (      17 calls)
     newd         :      8.09s CPU      8.06s WALL (      17 calls)
     PAW_pot      :     28.62s CPU      1.87s WALL (      17 calls)
     mix_rho      :      0.74s CPU      0.69s WALL (      16 calls)
     energy_dftd3 :      0.55s CPU      0.54s WALL (       1 calls)

     Called by c_bands:
     init_us_2    :      7.38s CPU      6.17s WALL (    6720 calls)
     cegterg      :    302.94s CPU    289.11s WALL (    3072 calls)

     Called by *egterg:
     cdiaghg      :     69.61s CPU     73.19s WALL (   14830 calls)
                                       73.10s GPU  (   14830 calls)
     h_psi        :     84.96s CPU     73.97s WALL (   15022 calls)
     s_psi        :     33.33s CPU     33.22s WALL (   15022 calls)
     g_psi        :      0.41s CPU      0.41s WALL (   11758 calls)

     Called by h_psi:
     h_psi:calbec :      0.46s CPU      0.42s WALL (   15022 calls)
     vloc_psi     :     49.36s CPU     39.52s WALL (   15022 calls)
                                       39.48s GPU  (   15022 calls)
     add_vuspsi   :     34.55s CPU     33.65s WALL (   15022 calls)

     General routines
     calbec       :      0.47s CPU      0.46s WALL (   21358 calls)
     fft          :     19.50s CPU      1.26s WALL (     463 calls)
                                        0.07s GPU  (     429 calls)
     ffts         :     18.01s CPU      0.88s WALL (      66 calls)
                                        0.00s GPU  (      32 calls)
     fftw         :      0.52s CPU     38.85s WALL (   69772 calls)
                                       38.59s GPU  (   69772 calls)
     interpolate  :     38.03s CPU      2.13s WALL (      34 calls)
 
 
     PWSCF        :   7m34.13s CPU   6m 7.00s WALL

 
   This run was terminated on:   4:31:21  13Jun2026            

=------------------------------------------------------------------------------=
   JOB DONE.
=------------------------------------------------------------------------------=
