&CONTROL
    calculation      = 'vc-relax'
    prefix           = 'mgh2co'
    pseudo_dir       = '/home/x/Workspace/espresso/pseudo'
    outdir           = './outdir/'
    restart_mode     = 'from_scratch'
    tprnfor          = .true.
    tstress          = .true.
    etot_conv_thr    = 1.0d-5
    forc_conv_thr    = 1.0d-4
    nstep            = 200
    max_seconds      = 21600
/

&SYSTEM
    ibrav            = 0
    nat              = 48
    ntyp             = 3
    ecutwfc          = 60.0
    ecutrho          = 480.0
    occupations      = 'smearing'
    smearing         = 'cold'
    degauss          = 0.01
    
    nosym            = .true.
    noinv            = .true.
    vdw_corr         = 'DFT-D3'
    dftd3_version    = 4
/

&ELECTRONS
    electron_maxstep = 200
    conv_thr         = 1.0d-9
    mixing_beta      = 0.3
    mixing_mode      = 'plain'
    mixing_ndim      = 12
    diagonalization  = 'david'
    diago_david_ndim = 4
/

&IONS
    ion_dynamics = 'bfgs'
/

&CELL
    cell_dynamics = 'bfgs'
    press_conv_thr = 0.5
/

ATOMIC_SPECIES
  Co  58.9332   Co_pbe_v1.2.uspp.F.UPF
  Mg  24.305    Mg.pbe-n-kjpaw_psl.0.3.0.UPF
  H    1.00794  H.pbe-rrkjus_psl.1.0.0.UPF

CELL_PARAMETERS angstrom
      9.0336000000      0.0000000000      0.0000000000
      0.0000000000      9.0336000000      0.0000000000
      0.0000000000      0.0000000000      6.0410000000

ATOMIC_POSITIONS angstrom
  Co      0.0000000000      0.0000000000      0.0000000000
  Mg      2.2584000000      2.2584000000      1.5102500000
  H       1.3731072000      1.3731072000      0.0000000000
  H      -1.3731072000     -1.3731072000      0.0000000000
  H       3.6315072000      0.8852928000      1.5102500000
  H       0.8852928000      3.6315072000      1.5102500000
  Mg      0.0000000000      0.0000000000      3.0205000000
  Mg      2.2584000000      2.2584000000      4.5307500000
  H       1.3731072000      1.3731072000      3.0205000000
  H      -1.3731072000     -1.3731072000      3.0205000000
  H       3.6315072000      0.8852928000      4.5307500000
  H       0.8852928000      3.6315072000      4.5307500000
  Mg      0.0000000000      4.5168000000      0.0000000000
  Mg      2.2584000000      6.7752000000      1.5102500000
  H       1.3731072000      5.8899072000      0.0000000000
  H      -1.3731072000      3.1436928000      0.0000000000
  H       3.6315072000      5.4020928000      1.5102500000
  H       0.8852928000      8.1483072000      1.5102500000
  Mg      0.0000000000      4.5168000000      3.0205000000
  Mg      2.2584000000      6.7752000000      4.5307500000
  H       1.3731072000      5.8899072000      3.0205000000
  H      -1.3731072000      3.1436928000      3.0205000000
  H       3.6315072000      5.4020928000      4.5307500000
  H       0.8852928000      8.1483072000      4.5307500000
  Mg      4.5168000000      0.0000000000      0.0000000000
  Mg      6.7752000000      2.2584000000      1.5102500000
  H       5.8899072000      1.3731072000      0.0000000000
  H       3.1436928000     -1.3731072000      0.0000000000
  H       8.1483072000      0.8852928000      1.5102500000
  H       5.4020928000      3.6315072000      1.5102500000
  Mg      4.5168000000      0.0000000000      3.0205000000
  Mg      6.7752000000      2.2584000000      4.5307500000
  H       5.8899072000      1.3731072000      3.0205000000
  H       3.1436928000     -1.3731072000      3.0205000000
  H       8.1483072000      0.8852928000      4.5307500000
  H       5.4020928000      3.6315072000      4.5307500000
  Mg      4.5168000000      4.5168000000      0.0000000000
  Mg      6.7752000000      6.7752000000      1.5102500000
  H       5.8899072000      5.8899072000      0.0000000000
  H       3.1436928000      3.1436928000      0.0000000000
  H       8.1483072000      5.4020928000      1.5102500000
  H       5.4020928000      8.1483072000      1.5102500000
  Mg      4.5168000000      4.5168000000      3.0205000000
  Co      6.7752000000      6.7752000000      4.5307500000
  H       5.8899072000      5.8899072000      3.0205000000
  H       3.1436928000      3.1436928000      3.0205000000
  H       8.1483072000      5.4020928000      4.5307500000
  H       5.4020928000      8.1483072000      4.5307500000

K_POINTS automatic
  4 4 6 0 0 0
